! NanoVNA-App
! Date: 2026-05-15 12:11:28
! Start: 4.8GHz Stop: 6GHz Points: 401
! S-Parameter data: F S11
# Hz S RI R 50
!     Frequency           S11_Real           S11_Imag
     4800000000   -7.836861536e-03   -1.301948577e-01
     4803000000    1.274555549e-02   -1.443595290e-01
     4806000000    3.761775792e-02   -1.496427804e-01
     4809000000    6.356102973e-02   -1.468496174e-01
     4812000000    7.999131083e-02   -1.296860576e-01
     4815000000    9.605439752e-02   -1.058880612e-01
     4818000000    9.823059291e-02   -7.971441746e-02
     4821000000    1.008343324e-01   -4.689666256e-02
     4824000000    8.532138169e-02   -2.523601428e-02
     4827000000    6.502537429e-02   -3.635843517e-03
     4830000000    3.988783434e-02    8.047700860e-03
     4833000000    1.279625483e-02    7.293043658e-03
     4836000000   -1.118322182e-02   -1.486715162e-03
     4839000000   -2.631903440e-02   -2.224042453e-02
     4842000000   -3.892449290e-02   -4.819326103e-02
     4845000000   -4.211244360e-02   -7.973578572e-02
     4848000000   -3.250507265e-02   -1.073221415e-01
     4851000000   -1.656702161e-02   -1.321295500e-01
     4854000000    6.364617031e-03   -1.476900578e-01
     4857000000    3.086782619e-02   -1.498946249e-01
     4860000000    6.065881625e-02   -1.450766474e-01
     4863000000    7.717125118e-02   -1.272534430e-01
     4866000000    9.393969923e-02   -1.021150202e-01
     4869000000    9.441139549e-02   -7.455369830e-02
     4872000000    9.396459907e-02   -4.029644281e-02
     4875000000    7.367958874e-02   -2.125615068e-02
     4878000000    5.132343248e-02    1.241319813e-02
     4881000000    2.520989999e-02    1.005762909e-02
     4884000000   -2.128155669e-03    6.795809139e-03
     4887000000   -2.732743695e-02   -8.431834169e-03
     4890000000   -4.833851382e-02   -3.371403739e-02
     4893000000   -5.882978067e-02   -6.241779774e-02
     4896000000   -6.247236952e-02   -9.900392592e-02
     4899000000   -5.235528573e-02   -1.279060692e-01
     4902000000   -3.544949368e-02   -1.476044655e-01
     4905000000   -1.134852041e-02   -1.611449122e-01
     4908000000    1.520575769e-02   -1.617798060e-01
     4911000000    4.267824069e-02   -1.526854336e-01
     4914000000    6.129137799e-02   -1.318593919e-01
     4917000000    7.511163503e-02   -1.063899249e-01
     4920000000    7.977764308e-02   -7.397778332e-02
     4923000000    7.182013988e-02   -4.409283027e-02
     4926000000    5.501523614e-02   -2.155982517e-02
     4929000000    3.205535933e-02   -9.674522094e-03
     4932000000    2.837279113e-03   -1.428561052e-03
     4935000000   -2.576638944e-02   -7.340899669e-03
     4938000000   -5.323124677e-02   -2.718077041e-02
     4941000000   -6.647431850e-02   -5.074060708e-02
     4944000000   -7.873421907e-02   -8.807184547e-02
     4947000000   -7.503250241e-02   -1.127945036e-01
     4950000000   -6.225889176e-02   -1.458941549e-01
     4953000000   -3.877622634e-02   -1.620592475e-01
     4956000000   -9.779837914e-03   -1.702790707e-01
     4959000000    1.408677176e-02   -1.631882489e-01
     4962000000    4.432388023e-02   -1.505135596e-01
     4965000000    6.893666089e-02   -1.256607771e-01
     4968000000    8.253919333e-02   -9.332008660e-02
     4971000000    8.129305393e-02   -6.448118389e-02
     4974000000    7.293196023e-02   -3.443937376e-02
     4977000000    5.517135933e-02   -1.157980040e-02
     4980000000    3.050517105e-02    1.225881279e-03
     4983000000   -5.351407453e-04    3.434814047e-03
     4986000000   -2.778918110e-02   -7.348628715e-03
     4989000000   -5.786480382e-02   -2.953611314e-02
     4992000000   -7.382613420e-02   -5.639519170e-02
     4995000000   -8.341945708e-02   -8.767018467e-02
     4998000000   -7.834763825e-02   -1.197972298e-01
     5001000000   -6.352829933e-02   -1.417908818e-01
     5004000000   -4.527544975e-02   -1.497477889e-01
     5007000000   -1.909072325e-02   -1.535855681e-01
     5010000000    1.332338527e-02   -1.514455974e-01
     5013000000    4.501294717e-02   -1.308981925e-01
     5016000000    5.998144299e-02   -1.045656726e-01
     5019000000    6.022269651e-02   -8.202467114e-02
     5022000000    6.062966213e-02   -4.081634060e-02
     5025000000    4.345166311e-02   -2.049949765e-02
     5028000000    1.428743731e-02    3.940626979e-03
     5031000000   -1.122247428e-02    5.110494792e-03
     5034000000   -4.636269808e-02    1.604946563e-03
     5037000000   -8.289453387e-02   -1.663337275e-02
     5040000000   -1.074715778e-01   -4.081483558e-02
     5043000000   -1.243423745e-01   -7.588951290e-02
     5046000000   -1.269196421e-01   -1.006786078e-01
     5049000000   -1.199438050e-01   -1.305817664e-01
     5052000000   -9.774502367e-02   -1.587743014e-01
     5055000000   -6.683117151e-02   -1.738234758e-01
     5058000000   -3.463901952e-02   -1.765452176e-01
     5061000000   -8.965700865e-03   -1.670555919e-01
     5064000000    1.898950711e-02   -1.481467187e-01
     5067000000    4.241904989e-02   -1.182670817e-01
     5070000000    4.833295196e-02   -8.750694990e-02
     5073000000    4.382378235e-02   -5.825369433e-02
     5076000000    2.784515731e-02   -3.245269135e-02
     5079000000    3.007442225e-03   -1.672482677e-02
     5082000000   -3.192747012e-02   -8.118042722e-03
     5085000000   -6.922335923e-02   -1.296082512e-02
     5088000000   -9.679027647e-02   -2.472910099e-02
     5091000000   -1.207216829e-01   -4.843263328e-02
     5094000000   -1.315185279e-01   -6.827286631e-02
     5097000000   -1.325850040e-01   -1.000213996e-01
     5100000000   -1.229507923e-01   -1.241406947e-01
     5103000000   -9.450529516e-02   -1.466982663e-01
     5106000000   -8.267688006e-02   -1.464384496e-01
     5109000000   -3.219922632e-02   -1.499238014e-01
     5112000000   -2.377145179e-02   -1.389636546e-01
     5115000000    8.043118753e-03   -1.135450825e-01
     5118000000    1.999836043e-02   -8.523911238e-02
     5121000000    1.934657618e-02   -6.680217385e-02
     5124000000    7.933989167e-03   -3.466589004e-02
     5127000000   -2.094232850e-02   -7.389298640e-03
     5130000000   -4.120368138e-02    2.479356946e-03
     5133000000   -9.106716514e-02    3.985976800e-03
     5136000000   -1.102377847e-01    3.074812004e-03
     5139000000   -1.433097273e-01   -1.777019538e-02
     5142000000   -1.601714343e-01   -4.097567871e-02
     5145000000   -1.663759053e-01   -7.019177079e-02
     5148000000   -1.618096083e-01   -9.941726923e-02
     5151000000   -1.459690183e-01   -1.241301522e-01
     5154000000   -1.248570681e-01   -1.427960843e-01
     5157000000   -9.277932346e-02   -1.540857852e-01
     5160000000   -5.921034515e-02   -1.491633505e-01
     5163000000   -3.595444188e-02   -1.363498569e-01
     5166000000   -2.023917623e-02   -1.181586757e-01
     5169000000   -1.021191664e-02   -8.756744862e-02
     5172000000   -1.476296782e-02   -5.860359222e-02
     5175000000   -3.063470870e-02   -3.574802727e-02
     5178000000   -5.729935318e-02   -1.620221324e-02
     5181000000   -8.405857533e-02   -2.521290909e-03
     5184000000   -1.208141223e-01    1.469889539e-03
     5187000000   -1.502390802e-01   -8.363694884e-03
     5190000000   -1.728313118e-01   -1.979319006e-02
     5193000000   -1.853380501e-01   -3.948179260e-02
     5196000000   -1.934888810e-01   -5.345034599e-02
     5199000000   -1.752105206e-01   -1.018544063e-01
     5202000000   -1.634196937e-01   -1.143111810e-01
     5205000000   -1.367746443e-01   -1.242984831e-01
     5208000000   -1.108555198e-01   -1.265984178e-01
     5211000000   -8.398063481e-02   -1.194920093e-01
     5214000000   -6.066720560e-02   -1.011698544e-01
     5217000000   -4.824718833e-02   -7.715170085e-02
     5220000000   -4.563423619e-02   -4.870174453e-02
     5223000000   -5.338764936e-02   -2.061140165e-02
     5226000000   -7.056591660e-02    4.501556046e-03
     5229000000   -9.899087995e-02    2.401748672e-02
     5232000000   -1.327833533e-01    3.477255255e-02
     5235000000   -1.588485688e-01    3.318975493e-02
     5238000000   -1.795397103e-01    3.161601722e-02
     5241000000   -2.026775479e-01    7.906910032e-03
     5244000000   -2.105311304e-01   -2.629260719e-02
     5247000000   -2.123552114e-01   -3.912749141e-02
     5250000000   -1.998161077e-01   -6.386325508e-02
     5253000000   -1.868787110e-01   -8.093078434e-02
     5256000000   -1.441932768e-01   -9.614129364e-02
     5259000000   -1.279672384e-01   -9.763341397e-02
     5262000000   -1.010212302e-01   -8.651551604e-02
     5265000000   -8.326780796e-02   -7.201115787e-02
     5268000000   -7.256091386e-02   -4.019717500e-02
     5271000000   -7.025540620e-02   -1.285118982e-02
     5274000000   -7.926360518e-02    1.598775759e-02
     5277000000   -9.333743900e-02    4.461163655e-02
     5280000000   -1.279501468e-01    6.376138330e-02
     5283000000   -1.550103128e-01    7.074744254e-02
     5286000000   -1.764329970e-01    7.616358250e-02
     5289000000   -1.972876340e-01    6.685880572e-02
     5292000000   -2.135130912e-01    4.559732601e-02
     5295000000   -2.207560390e-01    2.435158752e-02
     5298000000   -2.182957530e-01   -2.731852233e-03
     5301000000   -2.053981274e-01   -2.413716726e-02
     5304000000   -1.850575507e-01   -3.976211324e-02
     5307000000   -1.615509689e-01   -4.574052244e-02
     5310000000   -1.401864141e-01   -4.307653382e-02
     5313000000   -1.208484918e-01   -3.437699750e-02
     5316000000   -1.049996316e-01   -1.017017104e-02
     5319000000   -9.846800566e-02    1.442185231e-02
     5322000000   -1.011012569e-01    4.314012825e-02
     5325000000   -1.110954657e-01    7.135505229e-02
     5328000000   -1.227034777e-01    9.753210843e-02
     5331000000   -1.513587832e-01    1.106537580e-01
     5334000000   -1.770773828e-01    1.164622903e-01
     5337000000   -1.956993192e-01    1.130978912e-01
     5340000000   -2.159404606e-01    9.392423928e-02
     5343000000   -2.243303806e-01    7.523113489e-02
     5346000000   -2.312340140e-01    5.245614052e-02
     5349000000   -2.219221592e-01    2.585263923e-02
     5352000000   -2.076821625e-01    8.734148927e-03
     5355000000   -1.902063787e-01   -4.213630222e-03
     5358000000   -1.666870266e-01   -1.036895253e-02
     5361000000   -1.430136859e-01   -2.825852484e-03
     5364000000   -1.232588962e-01    8.701553568e-03
     5367000000   -1.104700714e-01    3.663582355e-02
     5370000000   -1.011241078e-01    6.202696636e-02
     5373000000   -1.136182100e-01    9.278492630e-02
     5376000000   -1.229149476e-01    1.178545430e-01
     5379000000   -1.201032996e-01    1.461560577e-01
     5382000000   -1.518377811e-01    1.496685892e-01
     5385000000   -1.689677835e-01    1.531056017e-01
     5388000000   -1.890701801e-01    1.470759809e-01
     5391000000   -2.055323869e-01    1.002933532e-01
     5394000000   -2.082396448e-01    9.371343255e-02
     5397000000   -2.138430178e-01    8.296576142e-02
     5400000000   -2.089485228e-01    6.001665816e-02
     5403000000   -1.906948984e-01    3.970812261e-02
     5406000000   -1.607183069e-01    3.020988591e-02
     5409000000   -1.385196298e-01    3.182717413e-02
     5412000000   -1.163116097e-01    3.733402863e-02
     5415000000   -9.476879984e-02    5.488780141e-02
     5418000000   -9.124505520e-02    8.948503435e-02
     5421000000   -7.420651615e-02    1.126718223e-01
     5424000000   -7.176708430e-02    1.434803158e-01
     5427000000   -8.860394359e-02    1.672373563e-01
     5430000000   -1.147899926e-01    1.804047823e-01
     5433000000   -1.267100573e-01    1.987255067e-01
     5436000000   -1.561882347e-01    1.930081695e-01
     5439000000   -1.807000339e-01    1.751630604e-01
     5442000000   -1.922777593e-01    1.469010413e-01
     5445000000   -2.072682977e-01    1.368400455e-01
     5448000000   -2.044211626e-01    1.074388623e-01
     5451000000   -2.033217996e-01    8.422352374e-02
     5454000000   -1.834638566e-01    6.451157480e-02
     5457000000   -1.631359309e-01    5.598533899e-02
     5460000000   -1.374536455e-01    5.128256977e-02
     5463000000   -1.129602417e-01    6.607900560e-02
     5466000000   -8.598003536e-02    8.161659539e-02
     5469000000   -7.478576154e-02    1.133390665e-01
     5472000000   -7.268342376e-02    1.435447782e-01
     5475000000   -6.041940302e-02    1.733042747e-01
     5478000000   -8.159926534e-02    1.886793524e-01
     5481000000   -7.983154804e-02    2.195554823e-01
     5484000000   -1.113441139e-01    2.201739401e-01
     5487000000   -1.350499243e-01    2.114987224e-01
     5490000000   -1.564142704e-01    2.088979334e-01
     5493000000   -1.665339768e-01    1.834088266e-01
     5496000000   -1.812844872e-01    1.673353016e-01
     5499000000   -1.849600524e-01    1.421512514e-01
     5502000000   -1.760278493e-01    1.205940396e-01
     5505000000   -1.598927975e-01    1.031417921e-01
     5508000000   -1.377345473e-01    9.344467521e-02
     5511000000   -1.179893836e-01    9.999326617e-02
     5514000000   -8.218972385e-02    1.002980396e-01
     5517000000   -6.542256474e-02    1.246013492e-01
     5520000000   -5.193303153e-02    1.486192793e-01
     5523000000   -3.856381774e-02    1.736011654e-01
     5526000000   -4.278384522e-02    1.976481229e-01
     5529000000   -5.308215320e-02    2.211329490e-01
     5532000000   -6.398083270e-02    2.412257791e-01
     5535000000   -8.634924889e-02    2.452881187e-01
     5538000000   -1.099945530e-01    2.372761220e-01
     5541000000   -1.281772554e-01    2.258512527e-01
     5544000000   -1.457225382e-01    2.093458623e-01
     5547000000   -1.621772647e-01    1.896995753e-01
     5550000000   -1.570247263e-01    1.685465723e-01
     5553000000   -1.520663947e-01    1.481273919e-01
     5556000000   -1.375677139e-01    1.414402574e-01
     5559000000   -1.135671288e-01    1.285115182e-01
     5562000000   -9.657824785e-02    1.395115256e-01
     5565000000   -6.381816417e-02    1.477053910e-01
     5568000000   -4.500231519e-02    1.696132571e-01
     5571000000   -4.208168387e-02    1.911904365e-01
     5574000000   -2.798233554e-02    2.179939449e-01
     5577000000   -3.293900192e-02    2.422326058e-01
     5580000000   -5.026372150e-02    2.484727204e-01
     5583000000   -6.141975895e-02    2.696535587e-01
     5586000000   -8.383423835e-02    2.658082545e-01
     5589000000   -1.041756794e-01    2.604324222e-01
     5592000000   -1.277755946e-01    2.492858618e-01
     5595000000   -1.415649056e-01    2.273353189e-01
     5598000000   -1.464695930e-01    2.062793523e-01
     5601000000   -1.449144036e-01    1.822856218e-01
     5604000000   -1.308853775e-01    1.744995564e-01
     5607000000   -1.076220199e-01    1.556026638e-01
     5610000000   -8.150679618e-02    1.576626599e-01
     5613000000   -4.823577404e-02    1.634532064e-01
     5616000000   -8.637740277e-03    1.770474762e-01
     5619000000   -2.384893969e-02    2.000540942e-01
     5622000000    1.827493869e-02    2.286443859e-01
     5625000000    1.496743038e-02    2.510544658e-01
     5628000000    1.344901510e-02    2.794457674e-01
     5631000000   -1.033702679e-02    2.890513837e-01
     5634000000   -2.939585038e-02    2.996405363e-01
     5637000000   -5.706992745e-02    3.041737080e-01
     5640000000   -8.118654042e-02    2.932588756e-01
     5643000000   -1.126272678e-01    2.798755467e-01
     5646000000   -1.177354157e-01    2.617706060e-01
     5649000000   -1.316561699e-01    2.272094190e-01
     5652000000   -1.248109192e-01    2.175666243e-01
     5655000000   -1.092697978e-01    1.977208108e-01
     5658000000   -8.377076685e-02    1.830214709e-01
     5661000000   -5.105120689e-02    1.813408732e-01
     5664000000   -1.018267497e-02    1.829842627e-01
     5667000000    2.033399977e-02    1.999282092e-01
     5670000000    2.724661492e-02    2.211193591e-01
     5673000000    5.131798238e-02    2.457177192e-01
     5676000000    5.569025502e-02    2.667697668e-01
     5679000000    5.167581886e-02    2.935750186e-01
     5682000000    3.386279941e-02    3.111028373e-01
     5685000000    5.933221895e-03    3.323821127e-01
     5688000000   -1.768686995e-02    3.244072795e-01
     5691000000   -4.200148582e-02    3.167026341e-01
     5694000000   -7.093234360e-02    3.021607399e-01
     5697000000   -8.235535771e-02    2.786144614e-01
     5700000000   -8.533738554e-02    2.578912377e-01
     5703000000   -8.339396119e-02    2.416255772e-01
     5706000000   -5.306058750e-02    2.144499868e-01
     5709000000   -4.247353971e-02    2.138834596e-01
     5712000000    2.332009841e-03    2.062851787e-01
     5715000000    2.728417329e-02    2.105435282e-01
     5718000000    7.057156414e-02    2.235269845e-01
     5721000000    9.600520879e-02    2.408157885e-01
     5724000000    9.978021681e-02    2.595802248e-01
     5727000000    1.067990586e-01    2.865966856e-01
     5730000000    9.605930001e-02    3.063846231e-01
     5733000000    7.746950537e-02    3.313708007e-01
     5736000000    5.269642547e-02    3.361505270e-01
     5739000000    2.294088528e-02    3.389650285e-01
     5742000000   -3.318488598e-03    3.290714920e-01
     5745000000   -2.023863234e-02    3.202527761e-01
     5748000000   -3.521762788e-02    2.942423522e-01
     5751000000   -3.517371416e-02    2.766106725e-01
     5754000000   -1.535565685e-02    2.432339489e-01
     5757000000   -1.183452737e-02    2.409429997e-01
     5760000000    2.743467689e-02    2.222681195e-01
     5763000000    6.848272681e-02    2.135637254e-01
     5766000000    8.893971890e-02    2.173458934e-01
     5769000000    1.201635972e-01    2.259365916e-01
     5772000000    1.469879448e-01    2.465903312e-01
     5775000000    1.490629613e-01    2.573953569e-01
     5778000000    1.527524889e-01    2.917550206e-01
     5781000000    1.381708533e-01    3.147095442e-01
     5784000000    1.153399795e-01    3.227321208e-01
     5787000000    9.348056465e-02    3.307876289e-01
     5790000000    6.189752370e-02    3.296329975e-01
     5793000000    3.598560393e-02    3.187427819e-01
     5796000000    2.080200054e-02    3.092761636e-01
     5799000000    1.046256442e-02    2.893622220e-01
     5802000000    1.350472867e-02    2.645461559e-01
     5805000000    3.013787977e-02    2.391900420e-01
     5808000000    4.657133669e-02    2.252238095e-01
     5811000000    6.105536595e-02    2.125254869e-01
     5814000000    1.232380643e-01    2.048503458e-01
     5817000000    1.481603831e-01    2.074699700e-01
     5820000000    1.692720801e-01    2.188534439e-01
     5823000000    1.854108423e-01    2.353310436e-01
     5826000000    1.875382811e-01    2.546252310e-01
     5829000000    1.836451739e-01    2.734636068e-01
     5832000000    1.642662287e-01    2.976360619e-01
     5835000000    1.435661167e-01    3.095060289e-01
     5838000000    1.158220246e-01    3.175814450e-01
     5841000000    9.094252437e-02    3.139780462e-01
     5844000000    7.049637288e-02    3.028681874e-01
     5847000000    5.660214275e-02    2.838941514e-01
     5850000000    5.638630688e-02    2.601220310e-01
     5853000000    5.974162370e-02    2.421475351e-01
     5856000000    8.330210298e-02    2.152516842e-01
     5859000000    1.035354435e-01    1.990139484e-01
     5862000000    1.360028088e-01    1.853258163e-01
     5865000000    1.725123823e-01    1.830057204e-01
     5868000000    1.942643076e-01    1.840568781e-01
     5871000000    2.164005935e-01    1.980464011e-01
     5874000000    2.282549292e-01    2.196665108e-01
     5877000000    2.267552912e-01    2.440453023e-01
     5880000000    2.191145718e-01    2.619094253e-01
     5883000000    1.892796606e-01    2.819297612e-01
     5886000000    1.735502034e-01    3.005291522e-01
     5889000000    1.476694196e-01    3.074113429e-01
     5892000000    1.181221977e-01    2.757069468e-01
     5895000000    9.823798388e-02    2.957443595e-01
     5898000000    9.036009759e-02    2.612630129e-01
     5901000000    7.458944619e-02    2.515261769e-01
     5904000000    1.167831197e-01    2.004469633e-01
     5907000000    1.136374995e-01    1.859062314e-01
     5910000000    1.343401074e-01    1.666741371e-01
     5913000000    1.666534692e-01    1.517602056e-01
     5916000000    2.106412798e-01    1.521710455e-01
     5919000000    2.275197655e-01    1.506200135e-01
     5922000000    2.505679429e-01    1.725427657e-01
     5925000000    2.551639080e-01    1.960854977e-01
     5928000000    2.550348938e-01    2.163871378e-01
     5931000000    2.409268022e-01    2.384031415e-01
     5934000000    2.219501734e-01    2.581893206e-01
     5937000000    2.023019642e-01    2.752788663e-01
     5940000000    1.722059697e-01    2.712037861e-01
     5943000000    1.533593386e-01    2.665464878e-01
     5946000000    1.307558566e-01    2.630681098e-01
     5949000000    1.332566291e-01    2.280803174e-01
     5952000000    1.221305579e-01    2.162363827e-01
     5955000000    1.503296047e-01    1.781882793e-01
     5958000000    1.662364751e-01    1.569483131e-01
     5961000000    1.804830581e-01    1.366171986e-01
     5964000000    2.179368883e-01    1.278846413e-01
     5967000000    2.448543906e-01    1.257697344e-01
     5970000000    2.663061321e-01    1.341280341e-01
     5973000000    2.781880796e-01    1.531530023e-01
     5976000000    2.818717957e-01    1.759999096e-01
     5979000000    2.816666365e-01    1.986795813e-01
     5982000000    2.628072500e-01    2.191755772e-01
     5985000000    2.435378283e-01    2.372325808e-01
     5988000000    2.198418528e-01    2.399741411e-01
     5991000000    1.974489838e-01    2.563783228e-01
     5994000000    1.750305891e-01    2.528937757e-01
     5997000000    1.707681417e-01    2.203323543e-01
     6000000000    1.609256268e-01    2.011767179e-01
