! NanoVNA-App
! Date: 2026-05-22 20:00:09
! Start: 2.3GHz Stop: 2.6GHz Points: 401
! S-Parameter data: F S11
# Hz S RI R 50
!     Frequency           S11_Real           S11_Imag
     2300000000    1.548517644e-01    2.534928918e-01
     2300750000    1.439543217e-01    2.620441914e-01
     2301500000    1.318163127e-01    2.689503133e-01
     2302250000    1.192118749e-01    2.773853838e-01
     2303000000    1.092122421e-01    2.824561596e-01
     2303750000    9.578202665e-02    2.885405719e-01
     2304500000    8.298542351e-02    2.936495543e-01
     2305250000    7.203607261e-02    2.973496616e-01
     2306000000    5.979444087e-02    3.009844124e-01
     2306750000    4.605997354e-02    3.039607108e-01
     2307500000    3.622503951e-02    3.051845729e-01
     2308250000    2.430245094e-02    3.065151572e-01
     2309000000    1.062410790e-02    3.070883453e-01
     2309750000   -1.924177981e-03    3.066351116e-01
     2310500000   -1.345203817e-02    3.054961860e-01
     2311250000   -2.517429739e-02    3.041657507e-01
     2312000000   -3.767887503e-02    3.020870090e-01
     2312750000   -5.003306270e-02    2.991146147e-01
     2313500000   -5.976401269e-02    2.966033518e-01
     2314250000   -7.086322457e-02    2.922208011e-01
     2315000000   -8.342006803e-02    2.873572707e-01
     2315750000   -9.295545518e-02    2.830477357e-01
     2316500000   -1.049524248e-01    2.764774561e-01
     2317250000   -1.136454791e-01    2.712449133e-01
     2318000000   -1.252700686e-01    2.644548118e-01
     2318750000   -1.354539841e-01    2.572853267e-01
     2319500000   -1.422098875e-01    2.520560920e-01
     2320250000   -1.537101567e-01    2.423133403e-01
     2321000000   -1.627065092e-01    2.343600392e-01
     2321750000   -1.687871665e-01    2.291851193e-01
     2322500000   -1.788906604e-01    2.175648510e-01
     2323250000   -1.854238659e-01    2.099189758e-01
     2324000000   -1.933084577e-01    2.005371898e-01
     2324750000   -1.989831924e-01    1.934328377e-01
     2325500000   -2.064214647e-01    1.832931787e-01
     2326250000   -2.124157101e-01    1.747235507e-01
     2327000000   -2.180047035e-01    1.656045169e-01
     2327750000   -2.241811752e-01    1.545388401e-01
     2328500000   -2.286169678e-01    1.448823065e-01
     2329250000   -2.338024676e-01    1.340729892e-01
     2330000000   -2.377692163e-01    1.235169545e-01
     2330750000   -2.414029688e-01    1.140154526e-01
     2331500000   -2.451951355e-01    1.050661430e-01
     2332250000   -2.475332320e-01    9.309143573e-02
     2333000000   -2.505348027e-01    8.365891129e-02
     2333750000   -2.524740100e-01    7.320889831e-02
     2334500000   -2.543426454e-01    6.289194524e-02
     2335250000   -2.554828525e-01    5.183286220e-02
     2336000000   -2.564319372e-01    4.112128541e-02
     2336750000   -2.571513355e-01    3.070714511e-02
     2337500000   -2.578053176e-01    2.064849995e-02
     2338250000   -2.572389841e-01    9.608832188e-03
     2339000000   -2.567144930e-01   -7.094780449e-04
     2339750000   -2.557131648e-01   -1.104584895e-02
     2340500000   -2.540265024e-01   -2.165911160e-02
     2341250000   -2.527705431e-01   -3.165552765e-02
     2342000000   -2.505307496e-01   -4.143743962e-02
     2342750000   -2.476363331e-01   -5.172937736e-02
     2343500000   -2.445980310e-01   -6.167843193e-02
     2344250000   -2.415889502e-01   -7.155862451e-02
     2345000000   -2.377477288e-01   -8.099042624e-02
     2345750000   -2.336867601e-01   -9.013248235e-02
     2346500000   -2.284535319e-01   -1.001510099e-01
     2347250000   -2.243404686e-01   -1.090272963e-01
     2348000000   -2.187102139e-01   -1.180873811e-01
     2348750000   -2.132442296e-01   -1.274697930e-01
     2349500000   -2.065841854e-01   -1.359719187e-01
     2350250000   -2.007570714e-01   -1.440397948e-01
     2351000000   -1.938837767e-01   -1.518987417e-01
     2351750000   -1.865292341e-01   -1.601535529e-01
     2352500000   -1.801215261e-01   -1.671593189e-01
     2353250000   -1.721381247e-01   -1.746267080e-01
     2354000000   -1.635827124e-01   -1.822364181e-01
     2354750000   -1.560969651e-01   -1.883399040e-01
     2355500000   -1.472000629e-01   -1.948300004e-01
     2356250000   -1.382439733e-01   -2.005591840e-01
     2357000000   -1.295934469e-01   -2.063650638e-01
     2357750000   -1.199502200e-01   -2.112011164e-01
     2358500000   -1.106785238e-01   -2.158644944e-01
     2359250000   -1.009824425e-01   -2.203202695e-01
     2360000000   -9.129294008e-02   -2.237377912e-01
     2360750000   -8.080328256e-02   -2.273532897e-01
     2361500000   -7.125636935e-02   -2.305907011e-01
     2362250000   -6.024749950e-02   -2.334591150e-01
     2363000000   -5.002503470e-02   -2.345694453e-01
     2363750000   -3.893778846e-02   -2.363602370e-01
     2364500000   -2.867311053e-02   -2.371458113e-01
     2365250000   -1.783685200e-02   -2.379447371e-01
     2366000000   -6.672109943e-03   -2.376196384e-01
     2366750000    4.102114122e-03   -2.369036078e-01
     2367500000    1.554868929e-02   -2.354964465e-01
     2368250000    2.641015686e-02   -2.343332022e-01
     2369000000    3.642080352e-02   -2.310323119e-01
     2369750000    4.860086739e-02   -2.282886207e-01
     2370500000    5.836764723e-02   -2.238281518e-01
     2371250000    6.910843402e-02   -2.204215974e-01
     2372000000    7.987274975e-02   -2.164921910e-01
     2372750000    9.080892801e-02   -2.106887847e-01
     2373500000    1.014622524e-01   -2.056412250e-01
     2374250000    1.111471355e-01   -1.994776279e-01
     2375000000    1.208074763e-01   -1.930395812e-01
     2375750000    1.302103400e-01   -1.859120429e-01
     2376500000    1.392218173e-01   -1.783941686e-01
     2377250000    1.499306858e-01   -1.703575701e-01
     2378000000    1.547979116e-01   -1.625391692e-01
     2378750000    1.642464101e-01   -1.536408365e-01
     2379500000    1.735942513e-01   -1.436784565e-01
     2380250000    1.782291830e-01   -1.355450898e-01
     2381000000    1.856554151e-01   -1.249349266e-01
     2381750000    1.923523992e-01   -1.143920124e-01
     2382500000    2.003941834e-01   -1.025048047e-01
     2383250000    2.034439594e-01   -9.348182380e-02
     2384000000    2.096613944e-01   -8.110651374e-02
     2384750000    2.125638872e-01   -7.115274668e-02
     2385500000    2.180898041e-01   -5.698304623e-02
     2386250000    2.190348506e-01   -4.889642075e-02
     2387000000    2.230003774e-01   -3.314441070e-02
     2387750000    2.251333743e-01   -2.223142609e-02
     2388500000    2.269686908e-01   -9.558347985e-03
     2389250000    2.271586806e-01    1.245456748e-03
     2390000000    2.280976474e-01    1.344962139e-02
     2390750000    2.283995301e-01    2.816865407e-02
     2391500000    2.280062288e-01    3.981586546e-02
     2392250000    2.272583544e-01    5.247087404e-02
     2393000000    2.258741111e-01    6.372477114e-02
     2393750000    2.243049592e-01    7.759428769e-02
     2394500000    2.221950144e-01    9.035353363e-02
     2395250000    2.195700854e-01    1.006731465e-01
     2396000000    2.174255103e-01    1.111053973e-01
     2396750000    2.133466154e-01    1.241571307e-01
     2397500000    2.093402296e-01    1.351139843e-01
     2398250000    2.059220523e-01    1.442199796e-01
     2399000000    2.023246288e-01    1.540300846e-01
     2399750000    1.967731118e-01    1.635756791e-01
     2400500000    1.918694079e-01    1.726734042e-01
     2401250000    1.865960658e-01    1.808082163e-01
     2402000000    1.793565154e-01    1.895701587e-01
     2402750000    1.731863916e-01    1.968412995e-01
     2403500000    1.659579277e-01    2.036199123e-01
     2404250000    1.604531407e-01    2.091571987e-01
     2405000000    1.513954401e-01    2.158909142e-01
     2405750000    1.444599479e-01    2.208803743e-01
     2406500000    1.343816966e-01    2.266832888e-01
     2407250000    1.272184700e-01    2.303978950e-01
     2408000000    1.191146895e-01    2.339805812e-01
     2408750000    1.094734296e-01    2.374428362e-01
     2409500000    1.004161388e-01    2.404175401e-01
     2410250000    9.274021536e-02    2.428591102e-01
     2411000000    8.362655342e-02    2.445826232e-01
     2411750000    7.496714592e-02    2.465272993e-01
     2412500000    6.446964294e-02    2.476015240e-01
     2413250000    5.471542850e-02    2.481710762e-01
     2414000000    4.471494257e-02    2.484383136e-01
     2414750000    3.491745144e-02    2.480251789e-01
     2415500000    2.443489619e-02    2.470353246e-01
     2416250000    1.534199342e-02    2.461223900e-01
     2417000000    5.822960287e-03    2.449981123e-01
     2417750000   -4.077021498e-03    2.430116981e-01
     2418500000   -1.337755658e-02    2.410425395e-01
     2419250000   -2.214513905e-02    2.389086038e-01
     2420000000   -3.184782714e-02    2.357252389e-01
     2420750000   -4.108836502e-02    2.322403640e-01
     2421500000   -4.979490489e-02    2.290215194e-01
     2422250000   -5.779597536e-02    2.256114781e-01
     2423000000   -6.675433367e-02    2.214594632e-01
     2423750000   -7.507026941e-02    2.171365172e-01
     2424500000   -8.357422799e-02    2.120849937e-01
     2425250000   -9.102737904e-02    2.074160427e-01
     2426000000   -9.868745506e-02    2.022474706e-01
     2426750000   -1.060720757e-01    1.956575513e-01
     2427500000   -1.131581515e-01    1.907559484e-01
     2428250000   -1.199745163e-01    1.830556393e-01
     2429000000   -1.264011562e-01    1.786017269e-01
     2429750000   -1.329011023e-01    1.725409031e-01
     2430500000   -1.386285275e-01    1.655067354e-01
     2431250000   -1.443347037e-01    1.575189382e-01
     2432000000   -1.499786377e-01    1.515055597e-01
     2432750000   -1.552251875e-01    1.441686600e-01
     2433500000   -1.603680551e-01    1.373171210e-01
     2434250000   -1.641216576e-01    1.291642636e-01
     2435000000   -1.686260849e-01    1.224827170e-01
     2435750000   -1.723544449e-01    1.142186075e-01
     2436500000   -1.757940054e-01    1.066792235e-01
     2437250000   -1.794098169e-01    9.912899882e-02
     2438000000   -1.819477379e-01    9.137364477e-02
     2438750000   -1.842395067e-01    8.353422582e-02
     2439500000   -1.863929331e-01    7.507357001e-02
     2440250000   -1.883015782e-01    6.717203557e-02
     2441000000   -1.897847950e-01    5.875004083e-02
     2441750000   -1.905729175e-01    5.100347474e-02
     2442500000   -1.913998723e-01    4.237895459e-02
     2443250000   -1.920903623e-01    3.418924659e-02
     2444000000   -1.922071576e-01    2.661721408e-02
     2444750000   -1.923146397e-01    1.772869751e-02
     2445500000   -1.921118796e-01    9.260537103e-03
     2446250000   -1.911851168e-01    1.922956202e-03
     2447000000   -1.906784326e-01   -6.398099009e-03
     2447750000   -1.893740445e-01   -1.449828409e-02
     2448500000   -1.877217144e-01   -2.235221490e-02
     2449250000   -1.863436103e-01   -3.018817864e-02
     2450000000   -1.840243638e-01   -3.839682043e-02
     2450750000   -1.816781014e-01   -4.524842650e-02
     2451500000   -1.789256632e-01   -5.301960185e-02
     2452250000   -1.759595424e-01   -6.033142284e-02
     2453000000   -1.722351313e-01   -6.744331867e-02
     2453750000   -1.692942381e-01   -7.502804697e-02
     2454500000   -1.652427316e-01   -8.149711043e-02
     2455250000   -1.607807279e-01   -8.792082965e-02
     2456000000   -1.563469023e-01   -9.457936138e-02
     2456750000   -1.507735699e-01   -1.002819613e-01
     2457500000   -1.462086588e-01   -1.075388417e-01
     2458250000   -1.406964213e-01   -1.121685803e-01
     2459000000   -1.353425086e-01   -1.175424680e-01
     2459750000   -1.300169975e-01   -1.248106658e-01
     2460500000   -1.227937490e-01   -1.277369261e-01
     2461250000   -1.169267073e-01   -1.330673844e-01
     2462000000   -1.100507900e-01   -1.388524473e-01
     2462750000   -1.034725606e-01   -1.410170794e-01
     2463500000   -9.581635892e-02   -1.466718316e-01
     2464250000   -8.923499286e-02   -1.491649598e-01
     2465000000   -8.111353964e-02   -1.524450332e-01
     2465750000   -7.363024354e-02   -1.552374810e-01
     2466500000   -6.606850773e-02   -1.567769796e-01
     2467250000   -5.821214989e-02   -1.586571038e-01
     2468000000   -4.907661676e-02   -1.617745459e-01
     2468750000   -4.158976674e-02   -1.626968980e-01
     2469500000   -3.546600789e-02   -1.618506312e-01
     2470250000   -2.511407249e-02   -1.635511518e-01
     2471000000   -1.473926287e-02   -1.643972397e-01
     2471750000   -7.690989412e-03   -1.637345403e-01
     2472500000   -4.902796936e-04   -1.621770859e-01
     2473250000    1.083492767e-02   -1.624662578e-01
     2474000000    1.911382750e-02   -1.601044536e-01
     2474750000    2.662753686e-02   -1.581449956e-01
     2475500000    3.734990954e-02   -1.562665254e-01
     2476250000    4.435046017e-02   -1.533939391e-01
     2477000000    4.968349263e-02   -1.497387588e-01
     2477750000    6.023637950e-02   -1.464976817e-01
     2478500000    7.051831484e-02   -1.432969272e-01
     2479250000    7.838717103e-02   -1.377215981e-01
     2480000000    8.427058160e-02   -1.339338422e-01
     2480750000    9.441055357e-02   -1.277462691e-01
     2481500000    1.026486084e-01   -1.227490306e-01
     2482250000    1.100489348e-01   -1.170468628e-01
     2483000000    1.175267994e-01   -1.103600934e-01
     2483750000    1.256147325e-01   -1.039815471e-01
     2484500000    1.319499761e-01   -9.729050100e-02
     2485250000    1.391521841e-01   -9.089104086e-02
     2486000000    1.456028968e-01   -8.224584162e-02
     2486750000    1.515891254e-01   -7.469099015e-02
     2487500000    1.576923281e-01   -6.716959178e-02
     2488250000    1.637449712e-01   -5.924693495e-02
     2489000000    1.686299145e-01   -5.252242088e-02
     2489750000    1.747671515e-01   -4.367689416e-02
     2490500000    1.795807779e-01   -3.595597297e-02
     2491250000    1.840722561e-01   -2.704506181e-02
     2492000000    1.883884966e-01   -1.851316169e-02
     2492750000    1.922617853e-01   -1.063408423e-02
     2493500000    1.952698529e-01   -5.251838826e-03
     2494250000    1.980027258e-01    5.702736787e-03
     2495000000    2.013848573e-01    1.279013325e-02
     2495750000    2.035191953e-01    2.042172477e-02
     2496500000    2.043079138e-01    2.918915264e-02
     2497250000    2.063769400e-01    3.631148487e-02
     2498000000    2.070210427e-01    4.384699464e-02
     2498750000    2.065363377e-01    5.425605550e-02
     2499500000    2.069161385e-01    5.996769294e-02
     2500250000    2.055401355e-01    6.797365844e-02
     2501000000    2.067371756e-01    7.216691226e-02
     2501750000    2.029125541e-01    8.184111118e-02
     2502500000    2.004798204e-01    8.855564892e-02
     2503250000    1.974681467e-01    9.537366033e-02
     2504000000    1.929994524e-01    1.022704467e-01
     2504750000    1.908643395e-01    1.078426316e-01
     2505500000    1.869449466e-01    1.135038435e-01
     2506250000    1.832533479e-01    1.188594699e-01
     2507000000    1.751466990e-01    1.265203506e-01
     2507750000    1.718846858e-01    1.311018169e-01
     2508500000    1.676143408e-01    1.357061118e-01
     2509250000    1.593682766e-01    1.416951418e-01
     2510000000    1.536498517e-01    1.461828947e-01
     2510750000    1.464690864e-01    1.515422612e-01
     2511500000    1.403219253e-01    1.554729939e-01
     2512250000    1.330892593e-01    1.594102979e-01
     2513000000    1.261186749e-01    1.630936116e-01
     2513750000    1.182317734e-01    1.666852683e-01
     2514500000    1.105361357e-01    1.698575020e-01
     2515250000    1.041462645e-01    1.736591160e-01
     2516000000    9.418438375e-02    1.752752662e-01
     2516750000    8.647095412e-02    1.771933734e-01
     2517500000    7.816409320e-02    1.797386110e-01
     2518250000    7.042191178e-02    1.814656556e-01
     2519000000    6.239206344e-02    1.825968474e-01
     2519750000    5.385265872e-02    1.834053248e-01
     2520500000    4.620875791e-02    1.842715591e-01
     2521250000    3.745555505e-02    1.841513366e-01
     2522000000    2.907591313e-02    1.838899851e-01
     2522750000    2.173002250e-02    1.835093200e-01
     2523500000    1.343659405e-02    1.829761267e-01
     2524250000    5.528405774e-03    1.810676455e-01
     2525000000   -2.418734366e-03    1.801920086e-01
     2525750000   -1.006316766e-02    1.786333174e-01
     2526500000   -1.778116450e-02    1.763820052e-01
     2527250000   -2.513160743e-02    1.740064770e-01
     2528000000   -3.249931708e-02    1.712826043e-01
     2528750000   -3.907878697e-02    1.682928801e-01
     2529500000   -4.639773071e-02    1.648932397e-01
     2530250000   -5.265601352e-02    1.612639874e-01
     2531000000   -5.917098373e-02    1.581272185e-01
     2531750000   -6.539611518e-02    1.539755613e-01
     2532500000   -7.112134993e-02    1.496618092e-01
     2533250000   -7.627487928e-02    1.450219452e-01
     2534000000   -8.148616552e-02    1.401069611e-01
     2534750000   -8.640498668e-02    1.356835961e-01
     2535500000   -9.105187654e-02    1.305237263e-01
     2536250000   -9.555508941e-02    1.249459162e-01
     2537000000   -9.946330637e-02    1.202104986e-01
     2537750000   -1.030992642e-01    1.142979637e-01
     2538500000   -1.066042408e-01    1.089063510e-01
     2539250000   -1.097479388e-01    1.033694670e-01
     2540000000   -1.130310223e-01    9.725457430e-02
     2540750000   -1.150721088e-01    9.110108018e-02
     2541500000   -1.175266206e-01    8.547639102e-02
     2542250000   -1.199229062e-01    7.888156176e-02
     2543000000   -1.210300326e-01    7.277274877e-02
     2543750000   -1.233135536e-01    6.685352325e-02
     2544500000   -1.237880960e-01    6.022173166e-02
     2545250000   -1.252833754e-01    5.362435803e-02
     2546000000   -1.255612373e-01    4.767399281e-02
     2546750000   -1.260719746e-01    4.105651006e-02
     2547500000   -1.262287647e-01    3.632412478e-02
     2548250000   -1.244027019e-01    2.978554554e-02
     2549000000   -1.258655339e-01    2.347732894e-02
     2549750000   -1.243734583e-01    1.806710102e-02
     2550500000   -1.246465966e-01    1.225498505e-02
     2551250000   -1.222540066e-01    6.049064919e-03
     2552000000   -1.196884885e-01    1.790575334e-03
     2552750000   -1.190052554e-01   -4.457826726e-03
     2553500000   -1.169643328e-01   -9.404740296e-03
     2554250000   -1.140211970e-01   -1.528889034e-02
     2555000000   -1.112289578e-01   -1.932999492e-02
     2555750000   -1.081204489e-01   -2.490479685e-02
     2556500000   -1.048683524e-01   -2.774515375e-02
     2557250000   -1.027588770e-01   -3.529791906e-02
     2558000000   -9.851431102e-02   -3.805997595e-02
     2558750000   -9.451066703e-02   -4.140194133e-02
     2559500000   -9.059406817e-02   -4.624659568e-02
     2560250000   -8.636976033e-02   -4.986641556e-02
     2561000000   -8.222185075e-02   -5.205222592e-02
     2561750000   -7.758256793e-02   -5.754031241e-02
     2562500000   -7.280188054e-02   -6.055987999e-02
     2563250000   -6.783343107e-02   -6.162973866e-02
     2564000000   -6.332988292e-02   -6.633768976e-02
     2564750000   -5.810324848e-02   -6.822696328e-02
     2565500000   -5.200101063e-02   -7.067900896e-02
     2566250000   -4.719238356e-02   -7.098481059e-02
     2567000000   -4.069459438e-02   -7.391744107e-02
     2567750000   -3.608492389e-02   -7.451081276e-02
     2568500000   -3.004870191e-02   -7.739075273e-02
     2569250000   -2.384163812e-02   -7.844875753e-02
     2570000000   -1.804001629e-02   -7.970889658e-02
     2570750000   -1.117817499e-02   -8.075313270e-02
     2571500000   -6.180713885e-03   -8.097634465e-02
     2572250000    9.916579584e-04   -8.132388443e-02
     2573000000    5.465890281e-03   -8.083578199e-02
     2573750000    1.214722823e-02   -8.110713959e-02
     2574500000    1.786847785e-02   -8.056310564e-02
     2575250000    2.542178333e-02   -8.064055443e-02
     2576000000    3.117816709e-02   -7.949101180e-02
     2576750000    3.787760809e-02   -7.842559367e-02
     2577500000    4.332349077e-02   -7.705193013e-02
     2578250000    4.907642305e-02   -7.551503927e-02
     2579000000    5.535480008e-02   -7.510259748e-02
     2579750000    6.077421457e-02   -7.326547801e-02
     2580500000    6.784036011e-02   -7.055702806e-02
     2581250000    7.220313698e-02   -6.867210567e-02
     2582000000    7.816160470e-02   -6.621294469e-02
     2582750000    8.543148637e-02   -6.286419928e-02
     2583500000    8.986301720e-02   -6.093498692e-02
     2584250000    9.470941126e-02   -5.876166373e-02
     2585000000    1.011947840e-01   -5.391850322e-02
     2585750000    1.059222892e-01   -5.261006206e-02
     2586500000    1.104717329e-01   -4.880392924e-02
     2587250000    1.143287569e-01   -4.626936466e-02
     2588000000    1.200164631e-01   -4.181295633e-02
     2588750000    1.249424815e-01   -3.759372607e-02
     2589500000    1.278721392e-01   -3.596469387e-02
     2590250000    1.320728213e-01   -3.100336902e-02
     2591000000    1.360032558e-01   -2.781391516e-02
     2591750000    1.384054422e-01   -2.457282878e-02
     2592500000    1.417490244e-01   -2.020279132e-02
     2593250000    1.435795426e-01   -1.558645722e-02
     2594000000    1.475360096e-01   -1.412253454e-02
     2594750000    1.484268159e-01   -8.367508650e-03
     2595500000    1.501984596e-01   -3.217192600e-03
     2596250000    1.516328901e-01   -2.113273695e-05
     2597000000    1.523573250e-01    4.410582595e-03
     2597750000    1.534996182e-01    7.554561365e-03
     2598500000    1.546395272e-01    1.101030502e-02
     2599250000    1.548834592e-01    1.480230875e-02
     2600000000    1.539781243e-01    1.805679314e-02
