! NanoVNA-App
! Date: 2026-05-15 12:08:34
! Start: 4.8GHz Stop: 6GHz Points: 401
! S-Parameter data: F S11
# Hz S RI R 50
!     Frequency           S11_Real           S11_Imag
     4800000000    4.996385798e-02   -1.014473960e-01
     4803000000    6.271024048e-02   -9.210771322e-02
     4806000000    7.077911496e-02   -8.096018434e-02
     4809000000    7.510012388e-02   -6.857050210e-02
     4812000000    7.337113470e-02   -5.817120150e-02
     4815000000    6.343055516e-02   -4.922581092e-02
     4818000000    5.002016574e-02   -4.372065514e-02
     4821000000    3.439064696e-02   -4.305706918e-02
     4824000000    1.725441962e-02   -4.870497808e-02
     4827000000    2.812125254e-03   -5.962415785e-02
     4830000000   -5.584712606e-03   -6.699670106e-02
     4833000000   -1.151099335e-02   -8.265752345e-02
     4836000000   -1.049417164e-02   -9.644940495e-02
     4839000000   -3.840957535e-03   -1.073336080e-01
     4842000000    7.485579234e-03   -1.156987473e-01
     4845000000    2.157601342e-02   -1.201988086e-01
     4848000000    3.775880113e-02   -1.179291382e-01
     4851000000    5.189008266e-02   -1.170694008e-01
     4854000000    6.292901933e-02   -1.081181765e-01
     4857000000    6.824639440e-02   -9.819301963e-02
     4860000000    7.027088106e-02   -8.806896955e-02
     4863000000    6.130187213e-02   -7.669311017e-02
     4866000000    5.563839525e-02   -6.937976927e-02
     4869000000    3.887455538e-02   -6.606035680e-02
     4872000000    2.680510469e-02   -6.232942268e-02
     4875000000    1.069693454e-02   -6.946896017e-02
     4878000000    8.053440833e-04   -7.870801538e-02
     4881000000   -7.040904835e-03   -8.430384845e-02
     4884000000   -8.870051242e-03   -9.439541399e-02
     4887000000   -7.049275097e-03   -1.032864824e-01
     4890000000    7.885305211e-03   -1.089807823e-01
     4893000000    1.281359885e-02   -1.167441383e-01
     4896000000    2.707250789e-02   -1.191328466e-01
     4899000000    3.862933815e-02   -1.135854870e-01
     4902000000    4.890994728e-02   -1.099098995e-01
     4905000000    5.322618037e-02   -1.014349982e-01
     4908000000    4.901487008e-02   -8.866838366e-02
     4911000000    4.336502030e-02   -7.827483863e-02
     4914000000    2.914492600e-02   -7.005369663e-02
     4917000000    1.868234389e-02   -6.412301958e-02
     4920000000    6.146729575e-04   -6.487381458e-02
     4923000000   -1.635887474e-02   -7.459862530e-02
     4926000000   -2.311476693e-02   -7.757748663e-02
     4929000000   -3.180842102e-02   -8.821803331e-02
     4932000000   -3.360870481e-02   -1.017813906e-01
     4935000000   -3.085003048e-02   -1.135622263e-01
     4938000000   -1.438524667e-02   -1.246980056e-01
     4941000000   -6.548129022e-03   -1.326806843e-01
     4944000000    1.071524061e-02   -1.350708157e-01
     4947000000    2.576142736e-02   -1.340226382e-01
     4950000000    3.607717529e-02   -1.263347417e-01
     4953000000    4.828875884e-02   -1.213249266e-01
     4956000000    5.015161261e-02   -1.059462950e-01
     4959000000    3.604296595e-02   -9.001583606e-02
     4962000000    3.239412233e-02   -7.998055220e-02
     4965000000    1.127133053e-02   -7.113521546e-02
     4968000000   -3.945413511e-03   -6.645058841e-02
     4971000000   -2.223275416e-02   -6.792449951e-02
     4974000000   -3.892743587e-02   -7.482855022e-02
     4977000000   -5.137686431e-02   -8.593355119e-02
     4980000000   -5.699765310e-02   -1.019522548e-01
     4983000000   -5.404651538e-02   -1.186166108e-01
     4986000000   -4.660025984e-02   -1.356277019e-01
     4989000000   -3.628025204e-02   -1.519075632e-01
     4992000000   -1.412381791e-02   -1.570818573e-01
     4995000000    2.390805399e-03   -1.627617180e-01
     4998000000    1.824348979e-02   -1.583949924e-01
     5001000000    3.232105821e-02   -1.544704586e-01
     5004000000    3.785780072e-02   -1.422359794e-01
     5007000000    3.262041509e-02   -1.246662438e-01
     5010000000    2.122570388e-02   -1.070553958e-01
     5013000000    6.671317387e-03   -8.963766694e-02
     5016000000   -9.547297959e-04   -7.444613427e-02
     5019000000   -3.054260835e-02   -7.705201209e-02
     5022000000   -4.550462961e-02   -7.139769197e-02
     5025000000   -6.125695631e-02   -8.215173334e-02
     5028000000   -7.464564592e-02   -9.253510833e-02
     5031000000   -7.929071784e-02   -1.094915047e-01
     5034000000   -7.422471792e-02   -1.267485321e-01
     5037000000   -7.075761259e-02   -1.453610659e-01
     5040000000   -5.328244343e-02   -1.541261524e-01
     5043000000   -3.837296367e-02   -1.635117084e-01
     5046000000   -2.304445393e-02   -1.623833030e-01
     5049000000   -8.618898690e-03   -1.587550938e-01
     5052000000   -1.481995918e-03   -1.437313557e-01
     5055000000    4.787854385e-03   -1.276894212e-01
     5058000000   -4.429158289e-03   -1.062652841e-01
     5061000000   -1.604847983e-02   -8.699324727e-02
     5064000000   -2.779557370e-02   -6.994281709e-02
     5067000000   -4.751767591e-02   -5.748333037e-02
     5070000000   -7.000027597e-02   -5.819490552e-02
     5073000000   -8.832259476e-02   -6.593789160e-02
     5076000000   -1.041470170e-01   -7.376497239e-02
     5079000000   -1.108446121e-01   -9.292951971e-02
     5082000000   -1.136898249e-01   -1.140617132e-01
     5085000000   -1.073045880e-01   -1.338622272e-01
     5088000000   -9.419769049e-02   -1.520592272e-01
     5091000000   -7.925335318e-02   -1.631101519e-01
     5094000000   -6.252034754e-02   -1.705075204e-01
     5097000000   -4.651007056e-02   -1.653708518e-01
     5100000000   -3.655173630e-02   -1.507286727e-01
     5103000000   -2.256815881e-02   -1.374835819e-01
     5106000000   -2.898760140e-02   -1.110980436e-01
     5109000000   -3.434207663e-02   -9.020863473e-02
     5112000000   -3.690016270e-02   -6.933078170e-02
     5115000000   -6.545135379e-02   -5.933234841e-02
     5118000000   -8.107852936e-02   -4.968222231e-02
     5121000000   -1.022343114e-01   -5.025510862e-02
     5124000000   -1.219669878e-01   -5.515890196e-02
     5127000000   -1.283711940e-01   -7.573001832e-02
     5130000000   -1.371907145e-01   -9.412313998e-02
     5133000000   -1.361501068e-01   -1.159914806e-01
     5136000000   -1.258990914e-01   -1.363355517e-01
     5139000000   -1.123460755e-01   -1.514669061e-01
     5142000000   -9.500461817e-02   -1.529589891e-01
     5145000000   -7.706874609e-02   -1.509193182e-01
     5148000000   -6.145647913e-02   -1.420580000e-01
     5151000000   -5.380739644e-02   -1.182714775e-01
     5154000000   -4.885527864e-02   -9.451239556e-02
     5157000000   -5.283191055e-02   -6.884823740e-02
     5160000000   -6.543181092e-02   -4.470824078e-02
     5163000000   -8.497054130e-02   -2.592609823e-02
     5166000000   -1.068528518e-01   -1.401627064e-02
     5169000000   -1.324808151e-01   -1.695194095e-02
     5172000000   -1.521918327e-01   -2.276211046e-02
     5175000000   -1.700167358e-01   -4.043868184e-02
     5178000000   -1.756394655e-01   -6.477747113e-02
     5181000000   -1.801070422e-01   -8.971863985e-02
     5184000000   -1.731778234e-01   -1.163037643e-01
     5187000000   -1.563405246e-01   -1.348562241e-01
     5190000000   -1.365584582e-01   -1.468982697e-01
     5193000000   -1.149502024e-01   -1.477110535e-01
     5196000000   -9.915765375e-02   -1.231231019e-01
     5199000000   -7.317473739e-02   -1.189971566e-01
     5202000000   -6.303290278e-02   -8.861027658e-02
     5205000000   -6.857492775e-02   -5.551781878e-02
     5208000000   -7.176135480e-02   -2.476510964e-02
     5211000000   -8.993571997e-02    7.263966836e-04
     5214000000   -1.143287718e-01    1.759365946e-02
     5217000000   -1.419391036e-01    2.312099561e-02
     5220000000   -1.688748151e-01    1.638533734e-02
     5223000000   -1.936715841e-01    1.098645153e-03
     5226000000   -2.041118741e-01   -2.519162558e-02
     5229000000   -2.146685869e-01   -5.445106328e-02
     5232000000   -2.150192857e-01   -8.686423302e-02
     5235000000   -1.994582415e-01   -1.125352085e-01
     5238000000   -1.769047379e-01   -1.258225292e-01
     5241000000   -1.501027942e-01   -1.301126778e-01
     5244000000   -1.207843721e-01   -1.259310991e-01
     5247000000   -9.744272381e-02   -1.001979038e-01
     5250000000   -7.872905582e-02   -7.074923813e-02
     5253000000   -6.405050308e-02   -3.937612846e-02
     5256000000   -7.739560306e-02   -1.865433413e-03
     5259000000   -8.598012477e-02    3.308029845e-02
     5262000000   -1.145128235e-01    5.517160892e-02
     5265000000   -1.451485008e-01    7.128232718e-02
     5268000000   -1.810492873e-01    7.270760834e-02
     5271000000   -2.093888819e-01    5.512861907e-02
     5274000000   -2.406737953e-01    3.171815723e-02
     5277000000   -2.491093576e-01   -2.160790900e-04
     5280000000   -2.581121624e-01   -3.908415139e-02
     5283000000   -2.508431375e-01   -7.365722954e-02
     5286000000   -2.249437869e-01   -9.678374231e-02
     5289000000   -1.931361705e-01   -1.111143529e-01
     5292000000   -1.565668285e-01   -1.099609435e-01
     5295000000   -1.204264015e-01   -9.611038119e-02
     5298000000   -8.794608712e-02   -6.535089761e-02
     5301000000   -6.562437117e-02   -2.657933533e-02
     5304000000   -5.663908646e-02    1.886641048e-02
     5307000000   -6.508070976e-02    6.087310240e-02
     5310000000   -8.523453772e-02    9.972377121e-02
     5313000000   -1.168504953e-01    1.268808246e-01
     5316000000   -1.557246298e-01    1.346354038e-01
     5319000000   -1.954996288e-01    1.302709728e-01
     5322000000   -2.350953519e-01    1.107003167e-01
     5325000000   -2.650152743e-01    7.752761990e-02
     5328000000   -2.767395675e-01    3.893037513e-02
     5331000000   -2.789650261e-01    8.749817789e-05
     5334000000   -2.672766149e-01   -3.765030950e-02
     5337000000   -2.387157083e-01   -6.673597544e-02
     5340000000   -2.015062273e-01   -7.907323539e-02
     5343000000   -1.586316228e-01   -7.082758844e-02
     5346000000   -1.170764044e-01   -5.008893833e-02
     5349000000   -8.482916653e-02   -1.435150392e-02
     5352000000   -6.031417102e-02    2.834796719e-02
     5355000000   -5.448140949e-02    7.489291579e-02
     5358000000   -6.274076551e-02    1.200112775e-01
     5361000000   -9.134369344e-02    1.532811970e-01
     5364000000   -1.286760718e-01    1.725475490e-01
     5367000000   -1.715938151e-01    1.759384871e-01
     5370000000   -2.145358473e-01    1.624179482e-01
     5373000000   -2.592766881e-01    1.351221055e-01
     5376000000   -2.954271138e-01    9.245645255e-02
     5379000000   -3.012943566e-01    5.118827522e-02
     5382000000   -2.857553959e-01    2.377191186e-02
     5385000000   -2.564135492e-01   -5.517371465e-03
     5388000000   -2.220551968e-01   -5.245346203e-02
     5391000000   -1.720097065e-01   -5.823438242e-02
     5394000000   -1.287904978e-01   -3.124248609e-02
     5397000000   -7.573776692e-02   -1.199950650e-02
     5400000000   -4.098594934e-02    3.088049404e-02
     5403000000   -8.761251345e-03    8.175220340e-02
     5406000000   -2.336212061e-02    1.296380758e-01
     5409000000   -4.189545661e-02    1.758798361e-01
     5412000000   -7.859290391e-02    2.117403895e-01
     5415000000   -1.235847026e-01    2.233608365e-01
     5418000000   -1.804742515e-01    2.258678973e-01
     5421000000   -2.349642217e-01    2.077636719e-01
     5424000000   -2.787379622e-01    1.739312261e-01
     5427000000   -2.933878005e-01    1.342629939e-01
     5430000000   -3.009906113e-01    8.605337143e-02
     5433000000   -2.866390049e-01    3.690554202e-02
     5436000000   -2.449123561e-01    9.116989560e-03
     5439000000   -1.974635869e-01    4.586483818e-03
     5442000000   -1.254404038e-01   -2.246024087e-02
     5445000000   -7.303895056e-02    5.856226664e-03
     5448000000   -3.747999668e-02    4.208768904e-02
     5451000000    4.953760188e-03    8.856990933e-02
     5454000000    1.587052457e-02    1.431192309e-01
     5457000000    2.660663333e-03    1.962258518e-01
     5460000000   -3.159867600e-02    2.447150946e-01
     5463000000   -7.419100404e-02    2.650434077e-01
     5466000000   -1.279853135e-01    2.766032517e-01
     5469000000   -2.081936598e-01    2.724155188e-01
     5472000000   -2.522170544e-01    2.440435141e-01
     5475000000   -2.909060717e-01    2.041149139e-01
     5478000000   -3.216868639e-01    1.381908804e-01
     5481000000   -3.010382652e-01    1.034861505e-01
     5484000000   -2.761156857e-01    4.175113887e-02
     5487000000   -2.248337120e-01    1.584040187e-02
     5490000000   -1.508167684e-01   -1.577771083e-02
     5493000000   -7.342012227e-02   -9.606407024e-03
     5496000000   -2.599347010e-02    2.593021840e-02
     5499000000    3.891612589e-02    7.038390636e-02
     5502000000    6.210273504e-02    1.236110106e-01
     5505000000    6.544548273e-02    1.892754138e-01
     5508000000    4.320373386e-02    2.434205711e-01
     5511000000    5.486014416e-04    2.895522416e-01
     5514000000   -6.266381592e-02    3.204017580e-01
     5517000000   -1.404302716e-01    3.311079144e-01
     5520000000   -2.182325572e-01    3.171636760e-01
     5523000000   -2.654670775e-01    2.809333205e-01
     5526000000   -3.098852634e-01    2.256979793e-01
     5529000000   -3.057450652e-01    1.806511730e-01
     5532000000   -2.955623567e-01    1.038764939e-01
     5535000000   -2.467259467e-01    3.660298884e-02
     5538000000   -1.804713756e-01    1.558484789e-02
     5541000000   -9.009897709e-02   -1.791086793e-02
     5544000000   -2.534428984e-02   -4.039203632e-04
     5547000000    5.090941861e-02    3.047127277e-02
     5550000000    1.076943874e-01    9.222543985e-02
     5553000000    1.197722629e-01    1.423172504e-01
     5556000000    1.142262444e-01    2.325680554e-01
     5559000000    8.261895925e-02    2.970678806e-01
     5562000000    2.234775946e-02    3.508828282e-01
     5565000000   -5.571426824e-02    3.865910470e-01
     5568000000   -1.240560040e-01    3.907370269e-01
     5571000000   -2.129825056e-01    3.689660430e-01
     5574000000   -2.723070383e-01    3.214467466e-01
     5577000000   -3.014995158e-01    2.614234090e-01
     5580000000   -3.092825115e-01    1.691796035e-01
     5583000000   -2.711485326e-01    1.219012216e-01
     5586000000   -2.147576958e-01    5.059243366e-02
     5589000000   -1.280842423e-01   -9.764365852e-03
     5592000000   -5.120756850e-02   -1.880867034e-02
     5595000000    4.067201912e-02   -8.212268353e-03
     5598000000    1.148867086e-01    3.801783919e-02
     5601000000    1.576663405e-01    1.003650427e-01
     5604000000    1.780134439e-01    1.850926578e-01
     5607000000    1.693869829e-01    2.576212585e-01
     5610000000    1.220714822e-01    3.428190947e-01
     5613000000    4.645939544e-02    4.059981108e-01
     5616000000   -3.946966305e-02    4.383958578e-01
     5619000000   -1.163629368e-01    4.373907447e-01
     5622000000   -2.148761004e-01    4.048214257e-01
     5625000000   -2.770375907e-01    3.405072391e-01
     5628000000   -2.953784466e-01    2.725542784e-01
     5631000000   -2.975703776e-01    1.652894616e-01
     5634000000   -2.544340193e-01    9.362695366e-02
     5637000000   -1.829549223e-01    1.546252426e-02
     5640000000   -8.580460399e-02   -3.733962774e-02
     5643000000    7.150388788e-03   -4.946755618e-02
     5646000000    1.042141616e-01   -2.901233546e-02
     5649000000    1.800240874e-01    1.548620500e-02
     5652000000    2.372141629e-01    1.097899154e-01
     5655000000    2.541649938e-01    2.030730844e-01
     5658000000    2.532575428e-01    2.739799321e-01
     5661000000    1.789135486e-01    3.863642812e-01
     5664000000    9.917902946e-02    4.474545717e-01
     5667000000    1.094671525e-02    4.837080538e-01
     5670000000   -1.078645289e-01    4.768503308e-01
     5673000000   -1.895293891e-01    4.380546510e-01
     5676000000   -2.581381202e-01    3.513596058e-01
     5679000000   -2.795424759e-01    2.677871287e-01
     5682000000   -2.688232660e-01    1.754431576e-01
     5685000000   -2.250269055e-01    6.441701204e-02
     5688000000   -1.409195811e-01   -2.697322145e-02
     5691000000   -3.886629269e-02   -8.166770637e-02
     5694000000    6.597092748e-02   -9.873873740e-02
     5697000000    1.765109003e-01   -6.987143308e-02
     5700000000    2.572523654e-01   -1.523308083e-02
     5703000000    3.161118925e-01    7.552415878e-02
     5706000000    3.306076229e-01    1.892500669e-01
     5709000000    3.092190027e-01    2.971956432e-01
     5712000000    2.436119318e-01    3.984267712e-01
     5715000000    1.310115755e-01    4.743091166e-01
     5718000000    6.605182588e-02    5.078397393e-01
     5721000000   -8.126719296e-02    4.915122688e-01
     5724000000   -1.644301265e-01    4.494428933e-01
     5727000000   -2.424226701e-01    3.540189564e-01
     5730000000   -2.730611265e-01    2.415553927e-01
     5733000000   -2.667288780e-01    1.322766095e-01
     5736000000   -2.168535441e-01    2.277872758e-03
     5739000000   -1.227783188e-01   -9.775193781e-02
     5742000000   -1.727375202e-02   -1.587982178e-01
     5745000000    1.024874821e-01   -1.805865467e-01
     5748000000    2.212316841e-01   -1.536604315e-01
     5751000000    3.182535470e-01   -8.534491807e-02
     5754000000    3.774272799e-01    4.519136995e-02
     5757000000    4.041989446e-01    1.497294903e-01
     5760000000    3.677194118e-01    2.898165286e-01
     5763000000    3.094786704e-01    3.984461725e-01
     5766000000    2.013136446e-01    4.786740541e-01
     5769000000    9.490729868e-02    5.283830762e-01
     5772000000   -6.611151248e-02    5.051160455e-01
     5775000000   -1.610793918e-01    4.616321921e-01
     5778000000   -2.445118725e-01    3.538303077e-01
     5781000000   -2.873256207e-01    2.349426746e-01
     5784000000   -2.813847661e-01    8.121420443e-02
     5787000000   -2.363761812e-01   -5.464718863e-02
     5790000000   -1.498274058e-01   -1.675945669e-01
     5793000000   -4.071013257e-02   -2.451385707e-01
     5796000000    1.034536958e-01   -2.615442574e-01
     5799000000    2.375334203e-01   -2.291633040e-01
     5802000000    3.446271122e-01   -1.568718106e-01
     5805000000    4.193187654e-01   -2.944171056e-02
     5808000000    4.535215497e-01    1.055796370e-01
     5811000000    4.206523895e-01    2.598055303e-01
     5814000000    3.582960963e-01    3.880254030e-01
     5817000000    2.506442070e-01    4.905866683e-01
     5820000000    1.077313870e-01    5.419660807e-01
     5823000000   -4.415768012e-02    5.310414433e-01
     5826000000   -1.517127603e-01    4.976513088e-01
     5829000000   -2.642401457e-01    3.651594520e-01
     5832000000   -3.249182403e-01    2.218183279e-01
     5835000000   -3.366980255e-01    6.828837097e-02
     5838000000   -3.099420071e-01   -8.724801987e-02
     5841000000   -2.240498364e-01   -2.207015604e-01
     5844000000   -7.688978314e-02   -2.976494730e-01
     5847000000    5.616597459e-02   -3.375397325e-01
     5850000000    2.009808123e-01   -3.150845170e-01
     5853000000    3.336365223e-01   -2.449407130e-01
     5856000000    4.225016236e-01   -9.469219297e-02
     5859000000    4.728410542e-01    5.018609390e-02
     5862000000    4.596681893e-01    2.130500674e-01
     5865000000    4.086668193e-01    3.572286367e-01
     5868000000    2.888328135e-01    4.762585759e-01
     5871000000    1.473459452e-01    5.417059660e-01
     5874000000   -3.779321676e-03    5.560732484e-01
     5877000000   -1.560868025e-01    5.012862682e-01
     5880000000   -2.795186639e-01    3.847519159e-01
     5883000000   -3.663459718e-01    2.537729740e-01
     5886000000   -4.035265148e-01    8.310979605e-02
     5889000000   -3.719146252e-01   -8.535214514e-02
     5892000000   -2.904020846e-01   -2.283023149e-01
     5895000000   -1.672534645e-01   -3.271650970e-01
     5898000000   -2.317942865e-02   -3.916803002e-01
     5901000000    1.476874053e-01   -3.533155024e-01
     5904000000    2.926313579e-01   -2.933658659e-01
     5907000000    3.982732594e-01   -1.603233367e-01
     5910000000    4.571994841e-01   -4.494260531e-03
     5913000000    4.797504246e-01    1.608526260e-01
     5916000000    4.263145924e-01    3.272125423e-01
     5919000000    3.203511238e-01    4.590157270e-01
     5922000000    1.829896867e-01    5.445190668e-01
     5925000000    1.835006475e-02    5.647183657e-01
     5928000000   -1.401899904e-01    5.292094946e-01
     5931000000   -2.827249765e-01    4.340491295e-01
     5934000000   -3.859435320e-01    2.903558314e-01
     5937000000   -4.347740114e-01    1.232786104e-01
     5940000000   -4.338016212e-01   -4.654628038e-02
     5943000000   -3.552476764e-01   -1.976164430e-01
     5946000000   -2.466428131e-01   -3.224605024e-01
     5949000000   -8.964438736e-02   -3.793415427e-01
     5952000000    7.189279050e-02   -3.757055104e-01
     5955000000    2.316863239e-01   -3.228896558e-01
     5958000000    3.485101461e-01   -2.000298649e-01
     5961000000    4.352672100e-01   -5.250348523e-02
     5964000000    4.575433433e-01    1.235875934e-01
     5967000000    4.186644256e-01    2.913076878e-01
     5970000000    3.488658369e-01    4.437936544e-01
     5973000000    2.028227001e-01    5.322511196e-01
     5976000000    4.704814032e-02    5.699076056e-01
     5979000000   -1.135562435e-01    5.534341931e-01
     5982000000   -2.650248110e-01    4.700198770e-01
     5985000000   -3.819978237e-01    3.376680911e-01
     5988000000   -4.469990730e-01    1.773902923e-01
     5991000000   -4.487924576e-01    1.004753169e-02
     5994000000   -3.975682557e-01   -1.473404467e-01
     5997000000   -2.908096313e-01   -2.673177719e-01
     6000000000   -1.521592289e-01   -3.409964144e-01
