! NanoVNA-App
! Date: 2026-05-15 12:15:38
! Start: 4.8GHz Stop: 0Hz Points: 401
! S-Parameter data: F S11
# Hz S RI R 50
!     Frequency           S11_Real           S11_Imag
     4800000000   -1.399732977e-01    4.845817015e-02
     4803000000   -8.872666955e-02    6.985591725e-03
     4806000000   -2.622006275e-02   -1.045713015e-02
     4809000000    3.712419048e-02   -6.505419500e-03
     4812000000    9.377054125e-02    2.252601646e-02
     4815000000    1.332615912e-01    6.849429756e-02
     4818000000    1.576480716e-01    1.302317232e-01
     4821000000    1.535969973e-01    1.914121956e-01
     4824000000    1.287995577e-01    2.542820275e-01
     4827000000    8.481977880e-02    2.988465726e-01
     4830000000    3.216602653e-02    3.226813376e-01
     4833000000   -2.498556301e-02    3.224601448e-01
     4836000000   -8.171952516e-02    3.002069890e-01
     4839000000   -1.295520961e-01    2.574821711e-01
     4842000000   -1.533410996e-01    2.008298784e-01
     4845000000   -1.601151824e-01    1.344615072e-01
     4848000000   -1.352939010e-01    7.805074006e-02
     4851000000   -9.643667191e-02    2.879724093e-02
     4854000000   -4.290040210e-02   -8.189517073e-03
     4857000000    1.554168854e-02   -1.245822385e-02
     4860000000    8.457399160e-02   -4.499655683e-03
     4863000000    1.257146597e-01    3.080265597e-02
     4866000000    1.668041945e-01    8.499035984e-02
     4869000000    1.800258905e-01    1.452943385e-01
     4872000000    1.704137772e-01    2.170992643e-01
     4875000000    1.404584944e-01    2.588908076e-01
     4878000000    8.756776899e-02    3.027311563e-01
     4881000000    4.065351188e-02    3.108907640e-01
     4884000000   -2.525687031e-02    3.081015050e-01
     4887000000   -1.005478874e-01    2.809467912e-01
     4890000000   -1.166044250e-01    2.331365794e-01
     4893000000   -1.447293460e-01    1.707183868e-01
     4896000000   -1.417908072e-01    1.101824641e-01
     4899000000   -1.160036922e-01    5.193415284e-02
     4902000000   -7.107377052e-02    9.369873442e-03
     4905000000   -1.217440702e-02   -1.672551408e-02
     4908000000    4.974664003e-02   -1.670671254e-02
     4911000000    1.109485105e-01    5.358436145e-03
     4914000000    1.578276455e-01    4.929983243e-02
     4917000000    1.832507551e-01    1.067214236e-01
     4920000000    1.892484277e-01    1.677640229e-01
     4923000000    1.719664037e-01    2.337424159e-01
     4926000000    1.329129934e-01    2.812637985e-01
     4929000000    8.570247889e-02    3.051984608e-01
     4932000000    1.471538190e-02    3.188153207e-01
     4935000000   -3.434475884e-02    2.992407680e-01
     4938000000   -9.181223065e-02    2.611218691e-01
     4941000000   -1.314340383e-01    2.060721666e-01
     4944000000   -1.476586908e-01    1.398473531e-01
     4947000000   -1.284025460e-01    8.721134067e-02
     4950000000   -9.681585431e-02    2.316844463e-02
     4953000000   -4.321790114e-02   -1.655522548e-02
     4956000000    2.207519859e-02   -3.265323862e-02
     4959000000    8.890558034e-02   -2.482395805e-02
     4962000000    1.500171125e-01    5.718712229e-03
     4965000000    1.949135959e-01    5.389634147e-02
     4968000000    2.218053043e-01    1.145682260e-01
     4971000000    2.228231579e-01    1.822058260e-01
     4974000000    2.003412545e-01    2.389113754e-01
     4977000000    1.587998420e-01    2.804160416e-01
     4980000000    1.004624814e-01    3.045316935e-01
     4983000000    3.821654990e-02    3.078383803e-01
     4986000000   -2.528110519e-02    2.875009477e-01
     4989000000   -8.736668527e-02    2.428759187e-01
     4992000000   -1.035386026e-01    1.925644577e-01
     4995000000   -1.207946166e-01    1.206117719e-01
     4998000000   -1.021650806e-01    6.337252259e-02
     5001000000   -6.418858469e-02    1.420675591e-02
     5004000000   -5.254814867e-03   -2.691311389e-02
     5007000000    4.738219455e-02   -3.335423768e-02
     5010000000    1.182856262e-01   -2.746598609e-02
     5013000000    1.734110266e-01    7.305668201e-03
     5016000000    2.198762000e-01    6.640275568e-02
     5019000000    2.305971086e-01    1.085313559e-01
     5022000000    2.252656668e-01    1.803549528e-01
     5025000000    1.991585791e-01    2.253827453e-01
     5028000000    1.520351171e-01    2.653528452e-01
     5031000000    8.830278367e-02    2.871275246e-01
     5034000000    3.420128301e-02    2.823798358e-01
     5037000000   -2.663752437e-02    2.588229477e-01
     5040000000   -6.941222399e-02    2.167361826e-01
     5043000000   -9.773385525e-02    1.569712609e-01
     5046000000   -9.791422635e-02    9.308876097e-02
     5049000000   -7.152135670e-02    4.561979696e-02
     5052000000   -2.729736082e-02   -1.894171350e-03
     5055000000    2.419522032e-02   -2.378269471e-02
     5058000000    9.813635051e-02   -2.922516689e-02
     5061000000    1.506753713e-01   -1.199976169e-02
     5064000000    1.996439099e-01    2.495347522e-02
     5067000000    2.357015759e-01    7.957004011e-02
     5070000000    2.421249300e-01    1.320398599e-01
     5073000000    2.252461612e-01    1.884701103e-01
     5076000000    1.904527545e-01    2.335060388e-01
     5079000000    1.406580359e-01    2.621794939e-01
     5082000000    8.592340350e-02    2.689516246e-01
     5085000000    1.894835941e-02    2.603470683e-01
     5088000000   -3.114644624e-02    2.264979333e-01
     5091000000   -6.390659511e-02    1.800655127e-01
     5094000000   -7.842153311e-02    1.214789674e-01
     5097000000   -6.851812452e-02    6.061252952e-02
     5100000000   -3.878419846e-02    1.066084672e-02
     5103000000    1.233744808e-02   -3.132229671e-02
     5106000000    7.300851494e-02   -5.042931065e-02
     5109000000    1.344581842e-01   -4.599289969e-02
     5112000000    1.848783940e-01   -2.777145058e-02
     5115000000    2.293810546e-01    1.332633942e-02
     5118000000    2.520650029e-01    7.344046235e-02
     5121000000    2.500014305e-01    1.286684722e-01
     5124000000    2.313159555e-01    1.692460626e-01
     5127000000    1.829881370e-01    2.211175710e-01
     5130000000    1.365807801e-01    2.382132113e-01
     5133000000    7.098280638e-02    2.437892705e-01
     5136000000    1.709412597e-02    2.238218933e-01
     5139000000   -2.210495807e-02    1.878893971e-01
     5142000000   -5.093242601e-02    1.328296065e-01
     5145000000   -5.253783241e-02    7.703123987e-02
     5148000000   -3.333384544e-02    1.308677718e-02
     5151000000    4.617869854e-03   -2.898199297e-02
     5154000000    5.937822163e-02   -6.039721891e-02
     5157000000    1.242180839e-01   -7.137380540e-02
     5160000000    1.827371716e-01   -6.083131954e-02
     5163000000    2.358801067e-01   -2.835303918e-02
     5166000000    2.704816163e-01    1.446984150e-02
     5169000000    2.860287428e-01    7.610810548e-02
     5172000000    2.790631652e-01    1.284789145e-01
     5175000000    2.467216551e-01    1.849345267e-01
     5178000000    1.970329136e-01    2.285174131e-01
     5181000000    1.379504055e-01    2.469991297e-01
     5184000000    7.513737679e-02    2.447283864e-01
     5187000000    2.779148333e-02    2.224697918e-01
     5190000000   -1.456555724e-02    1.797838211e-01
     5193000000   -3.641272709e-02    1.195522994e-01
     5196000000   -3.487996757e-02    6.155246124e-02
     5199000000   -1.427918952e-02    8.985733613e-03
     5202000000    3.454990685e-02   -4.296040908e-02
     5205000000    8.561305702e-02   -7.027626783e-02
     5208000000    1.421717554e-01   -8.124815673e-02
     5211000000    2.020657361e-01   -6.773249060e-02
     5214000000    2.446090728e-01   -4.236735776e-02
     5217000000    2.723379731e-01    7.676908746e-03
     5220000000    2.823385894e-01    6.357682496e-02
     5223000000    2.670115232e-01    1.183865145e-01
     5226000000    2.316992283e-01    1.681631356e-01
     5229000000    1.813226193e-01    2.043510824e-01
     5232000000    1.299952269e-01    2.161419094e-01
     5235000000    7.246775180e-02    2.080922574e-01
     5238000000    2.493681014e-02    1.760508865e-01
     5241000000   -7.485418580e-03    1.295177191e-01
     5244000000   -1.872699708e-02    7.571277022e-02
     5247000000   -1.219261996e-02    1.247290336e-02
     5250000000    1.014226396e-02   -3.868518397e-02
     5253000000    6.083153933e-02   -8.213350177e-02
     5256000000    1.050340384e-01   -1.080593392e-01
     5259000000    1.659401953e-01   -1.065171212e-01
     5262000000    2.140509337e-01   -9.414628893e-02
     5265000000    2.554948032e-01   -6.240935624e-02
     5268000000    2.796998024e-01    5.632458255e-03
     5271000000    2.837643921e-01    5.589635670e-02
     5274000000    2.613503933e-01    1.136306077e-01
     5277000000    2.351004332e-01    1.518001854e-01
     5280000000    1.806830764e-01    1.829535216e-01
     5283000000    1.290221363e-01    1.896263659e-01
     5286000000    8.079349250e-02    1.768069565e-01
     5289000000    4.093377292e-02    1.480591595e-01
     5292000000    1.322354749e-02    9.949733317e-02
     5295000000    3.709847573e-03    4.367164150e-02
     5298000000    1.608670689e-02   -1.145928446e-02
     5301000000    4.676529020e-02   -6.265556812e-02
     5304000000    9.220890701e-02   -9.835122526e-02
     5307000000    1.403928101e-01   -1.168512627e-01
     5310000000    1.903253496e-01   -1.147144362e-01
     5313000000    2.344274372e-01   -9.525363892e-02
     5316000000    2.678635716e-01   -5.389542878e-02
     5319000000    2.831427753e-01   -4.010878503e-03
     5322000000    2.793085873e-01    4.728283733e-02
     5325000000    2.573485970e-01    9.580982476e-02
     5328000000    2.194252014e-01    1.343041062e-01
     5331000000    1.743079126e-01    1.528981030e-01
     5334000000    1.239180788e-01    1.517185122e-01
     5337000000    7.942610234e-02    1.300043166e-01
     5340000000    4.219122231e-02    9.292062372e-02
     5343000000    2.121856064e-02    4.318869486e-02
     5346000000    1.357664168e-02   -8.450335823e-03
     5349000000    2.945457585e-02   -6.668997556e-02
     5352000000    6.381024420e-02   -1.131786928e-01
     5355000000    1.108951420e-01   -1.406514496e-01
     5358000000    1.466832310e-01   -1.591009647e-01
     5361000000    2.024738938e-01   -1.404949725e-01
     5364000000    2.443277091e-01   -1.092717499e-01
     5367000000    2.710837424e-01   -8.270367235e-02
     5370000000    2.822427750e-01   -2.206231095e-02
     5373000000    2.641137242e-01    3.570827469e-02
     5376000000    2.545170188e-01    6.843756884e-02
     5379000000    1.975321621e-01    1.033908054e-01
     5382000000    1.688515544e-01    1.176026762e-01
     5385000000    1.136075035e-01    1.080154255e-01
     5388000000    7.478632033e-02    9.849558026e-02
     5391000000    4.044934362e-02    5.251571164e-02
     5394000000    3.012957051e-02   -5.903962534e-03
     5397000000    2.180138789e-02   -5.080472305e-02
     5400000000    5.195566639e-02   -1.041964367e-01
     5403000000    8.613188565e-02   -1.362341493e-01
     5406000000    1.092069894e-01   -1.702617258e-01
     5409000000    1.638472527e-01   -1.642842442e-01
     5412000000    2.063093483e-01   -1.564116627e-01
     5415000000    2.412494421e-01   -1.210202947e-01
     5418000000    2.660857737e-01   -8.579920977e-02
     5421000000    2.731614113e-01   -4.066319019e-02
     5424000000    2.544789314e-01    1.128031034e-02
     5427000000    2.459585965e-01    4.372365773e-02
     5430000000    2.073580325e-01    6.726583838e-02
     5433000000    1.610255986e-01    6.787831336e-02
     5436000000    1.180961430e-01    5.091677234e-02
     5439000000    7.645398378e-02    4.044833407e-02
     5442000000    5.647299066e-02   -1.561705768e-02
     5445000000    3.061647154e-02   -5.703206360e-02
     5448000000    5.631753802e-02   -1.080404371e-01
     5451000000    6.622765213e-02   -1.509446502e-01
     5454000000    9.878375381e-02   -1.799465418e-01
     5457000000    1.372735500e-01   -2.004249245e-01
     5460000000    1.868100166e-01   -1.859067082e-01
     5463000000    2.231127024e-01   -1.750495136e-01
     5466000000    2.558205128e-01   -1.544048935e-01
     5469000000    2.672214806e-01   -9.558984637e-02
     5472000000    2.708074450e-01   -5.812504143e-02
     5475000000    2.475620359e-01   -1.523502264e-02
     5478000000    2.178211212e-01    1.199098956e-02
     5481000000    1.860526502e-01    3.288708627e-02
     5484000000    1.345111579e-01    2.447269857e-02
     5487000000    8.957112581e-02    1.524834428e-02
     5490000000    6.257206947e-02   -2.642462961e-02
     5493000000    2.666726895e-02   -5.969243497e-02
     5496000000    1.641461067e-02   -1.058720797e-01
     5499000000    2.767117135e-02   -1.533475518e-01
     5502000000    5.200421810e-02   -1.895610690e-01
     5505000000    7.618684322e-02   -2.197010368e-01
     5508000000    1.256810129e-01   -2.227836400e-01
     5511000000    1.657505929e-01   -2.133628428e-01
     5514000000    2.035450339e-01   -1.913739890e-01
     5517000000    2.272775173e-01   -1.566296220e-01
     5520000000    2.374080569e-01   -1.156571209e-01
     5523000000    2.366385013e-01   -7.694751024e-02
     5526000000    2.226119936e-01   -4.136753455e-02
     5529000000    1.866686195e-01   -1.881604269e-02
     5532000000    1.462106407e-01   -1.203727443e-02
     5535000000    1.046885327e-01   -1.397211757e-02
     5538000000    6.200904772e-02   -3.329437226e-02
     5541000000    2.219560370e-02   -6.430873275e-02
     5544000000    3.115319461e-02   -1.136967614e-01
     5547000000   -3.434872488e-03   -1.584040225e-01
     5550000000    3.763513267e-02   -1.919628829e-01
     5553000000    5.092914402e-02   -2.301712036e-01
     5556000000    8.584585786e-02   -2.526709139e-01
     5559000000    1.317843050e-01   -2.418632209e-01
     5562000000    1.698306054e-01   -2.430394143e-01
     5565000000    2.020335197e-01   -2.103152126e-01
     5568000000    2.275615782e-01   -1.845945865e-01
     5571000000    2.321523279e-01   -1.423078775e-01
     5574000000    2.213526517e-01   -1.026695818e-01
     5577000000    1.970784515e-01   -7.070822269e-02
     5580000000    1.602791548e-01   -5.133809894e-02
     5583000000    1.167502403e-01   -5.491908640e-02
     5586000000    6.454567611e-02   -5.428663269e-02
     5589000000    3.753502667e-02   -8.958518505e-02
     5592000000    2.825624775e-03   -1.221679598e-01
     5595000000   -1.735878550e-02   -1.634965092e-01
     5598000000   -2.324699453e-04   -2.021076530e-01
     5601000000    6.620948669e-03   -2.439590991e-01
     5604000000    3.084704466e-02   -2.749356627e-01
     5607000000    7.361783087e-02   -2.824444771e-01
     5610000000    1.146427616e-01   -2.823724151e-01
     5613000000    1.523992419e-01   -2.659171522e-01
     5616000000    1.844097525e-01   -2.401752472e-01
     5619000000    2.003700435e-01   -2.017882466e-01
     5622000000    2.053794712e-01   -1.614536494e-01
     5625000000    1.941394806e-01   -1.226252615e-01
     5628000000    1.690192223e-01   -8.866207302e-02
     5631000000    1.328483820e-01   -7.366145402e-02
     5634000000    8.876006305e-02   -6.985499710e-02
     5637000000    4.960480705e-02   -8.499497175e-02
     5640000000    2.020228654e-02   -1.110594124e-01
     5643000000   -1.102755032e-02   -1.469276845e-01
     5646000000   -1.531439368e-02   -1.865542531e-01
     5649000000   -1.477597188e-02   -2.264372110e-01
     5652000000    1.263997797e-02   -2.499234080e-01
     5655000000    2.724456042e-02   -2.928937972e-01
     5658000000    7.194598764e-02   -2.867542803e-01
     5661000000    1.080075055e-01   -2.838166654e-01
     5664000000    1.415309310e-01   -2.689920366e-01
     5667000000    1.670341939e-01   -2.408846468e-01
     5670000000    1.841655374e-01   -2.051310986e-01
     5673000000    1.810140610e-01   -1.661211550e-01
     5676000000    1.610020995e-01   -1.371409148e-01
     5679000000    1.329061091e-01   -1.178345904e-01
     5682000000    9.076400846e-02   -1.003301069e-01
     5685000000    4.809848964e-02   -1.051048115e-01
     5688000000    1.796495728e-02   -1.273133755e-01
     5691000000   -9.024544619e-03   -1.538243592e-01
     5694000000   -3.600598127e-02   -1.909108609e-01
     5697000000   -5.359081924e-02   -2.346418351e-01
     5700000000   -2.619261295e-02   -2.532529235e-01
     5703000000   -1.930933632e-02   -3.025133610e-01
     5706000000    1.226741914e-02   -3.118784726e-01
     5709000000    5.032607913e-02   -3.213556707e-01
     5712000000    8.478119969e-02   -3.048509955e-01
     5715000000    1.119737104e-01   -2.846446335e-01
     5718000000    1.363040954e-01   -2.521257699e-01
     5721000000    1.390105188e-01   -2.196955383e-01
     5724000000    1.318744123e-01   -1.807951331e-01
     5727000000    1.101805717e-01   -1.571137309e-01
     5730000000    7.905312628e-02   -1.354582310e-01
     5733000000    4.158109799e-02   -1.306978315e-01
     5736000000   -3.803145664e-04   -1.357562989e-01
     5739000000   -4.004849494e-02   -1.543236822e-01
     5742000000   -6.197298691e-02   -1.837795824e-01
     5745000000   -7.727699727e-02   -2.178243995e-01
     5748000000   -7.862730324e-02   -2.556283772e-01
     5751000000   -6.401427090e-02   -2.827594876e-01
     5754000000   -4.084290937e-02   -3.145554364e-01
     5757000000   -8.834699169e-03   -3.176119924e-01
     5760000000    2.690027654e-02   -3.201690614e-01
     5763000000    7.200922072e-02   -3.071660697e-01
     5766000000    9.009885788e-02   -2.844362557e-01
     5769000000    1.114948094e-01   -2.486971319e-01
     5772000000    1.111602113e-01   -2.141696960e-01
     5775000000    1.009518430e-01   -1.908531040e-01
     5778000000    7.471372932e-02   -1.586858332e-01
     5781000000    4.149659723e-02   -1.472344398e-01
     5784000000    2.330727293e-04   -1.447175890e-01
     5787000000   -3.924064338e-02   -1.579976678e-01
     5790000000   -6.864014268e-02   -1.797232479e-01
     5793000000   -1.003066003e-01   -2.096443474e-01
     5796000000   -1.042510718e-01   -2.363435924e-01
     5799000000   -1.059392914e-01   -2.740360200e-01
     5802000000   -8.950689435e-02   -2.997043431e-01
     5805000000   -6.246837601e-02   -3.228129745e-01
     5808000000   -3.070237115e-02   -3.306551874e-01
     5811000000    5.524936132e-04   -3.257364631e-01
     5814000000    3.330525011e-02   -3.088907897e-01
     5817000000    5.089776218e-02   -2.856442630e-01
     5820000000    6.299768388e-02   -2.567688525e-01
     5823000000    5.673267320e-02   -2.296851724e-01
     5826000000    3.150197491e-02   -1.864223480e-01
     5829000000    2.132773958e-02   -1.890319437e-01
     5832000000   -1.652056165e-02   -1.731161773e-01
     5835000000   -5.990651995e-02   -1.729303747e-01
     5838000000   -1.010550559e-01   -1.880048513e-01
     5841000000   -1.187758222e-01   -2.076109797e-01
     5844000000   -1.393158734e-01   -2.330130786e-01
     5847000000   -1.366967708e-01   -2.557438910e-01
     5850000000   -1.320171207e-01   -2.901965976e-01
     5853000000   -1.130533740e-01   -3.147878945e-01
     5856000000   -8.153577149e-02   -3.237472475e-01
     5859000000   -4.966952652e-02   -3.239553571e-01
     5862000000   -1.798583940e-02   -3.147147000e-01
     5865000000    5.903411657e-03   -2.960510254e-01
     5868000000    2.147493511e-02   -2.698538601e-01
     5871000000    2.721007355e-02   -2.486510277e-01
     5874000000    1.450856403e-02   -2.132770419e-01
     5877000000   -9.587345645e-03   -1.875990480e-01
     5880000000   -3.114973754e-02   -1.813804954e-01
     5883000000   -6.664826721e-02   -1.743863821e-01
     5886000000   -9.012442827e-02   -1.804698557e-01
     5889000000   -1.340665370e-01   -1.961017549e-01
     5892000000   -1.605968773e-01   -2.201830894e-01
     5895000000   -1.641539335e-01   -2.414879054e-01
     5898000000   -1.620888114e-01   -2.733036578e-01
     5901000000   -1.438691318e-01   -2.967961729e-01
     5904000000   -1.175243407e-01   -3.181391358e-01
     5907000000   -8.960814774e-02   -3.239111304e-01
     5910000000   -5.301997811e-02   -3.214094639e-01
     5913000000   -2.418443747e-02   -3.093012571e-01
     5916000000   -9.109721286e-04   -2.837706208e-01
     5919000000    4.647643305e-03   -2.675637901e-01
     5922000000    3.157292027e-03   -2.373477668e-01
     5925000000   -1.283688471e-02   -2.105178982e-01
     5928000000   -3.853061795e-02   -1.913975626e-01
     5931000000   -6.767869741e-02   -1.803882420e-01
     5934000000   -9.210088104e-02   -1.778779477e-01
     5937000000   -1.449627131e-01   -1.833496839e-01
     5940000000   -1.622418761e-01   -1.958281100e-01
     5943000000   -1.966096908e-01   -2.264558077e-01
     5946000000   -1.915633082e-01   -2.452964783e-01
     5949000000   -1.859795898e-01   -2.674665749e-01
     5952000000   -1.693243533e-01   -2.940381765e-01
     5955000000   -1.432222128e-01   -3.049144149e-01
     5958000000   -1.232929528e-01   -3.103327155e-01
     5961000000   -9.182548523e-02   -3.008877635e-01
     5964000000   -6.771767139e-02   -2.833500206e-01
     5967000000   -5.354165658e-02   -2.855107486e-01
     5970000000   -5.273563787e-02   -2.492001206e-01
     5973000000   -6.055010855e-02   -2.209050506e-01
     5976000000   -6.522391737e-02   -2.113957405e-01
     5979000000   -1.040002778e-01   -1.874207556e-01
     5982000000   -1.342468411e-01   -1.800763458e-01
     5985000000   -1.905605644e-01   -1.798464209e-01
              0   -5.222990513e-01    3.275694549e-01
              0   -5.240981579e-01    3.243885636e-01
              0   -5.264206529e-01    3.214209676e-01
              0   -5.292059779e-01    3.179389834e-01
              0   -5.292094946e-01    3.179345429e-01
