! NanoVNA-App
! Date: 2026-05-15 12:13:11
! Start: 2.3GHz Stop: 2.6GHz Points: 401
! S-Parameter data: F S11
# Hz S RI R 50
!     Frequency           S11_Real           S11_Imag
     2300000000   -2.564744838e-02    2.266063392e-01
     2300750000   -3.009871952e-02    2.185107917e-01
     2301500000   -3.693455458e-02    2.103553265e-01
     2302250000   -3.880316019e-02    1.995474547e-01
     2303000000   -4.426034540e-02    1.892666668e-01
     2303750000   -4.787361249e-02    1.769884080e-01
     2304500000   -5.214978382e-02    1.644951999e-01
     2305250000   -5.421671271e-02    1.509195715e-01
     2306000000   -5.829313025e-02    1.375704408e-01
     2306750000   -5.997785181e-02    1.238688305e-01
     2307500000   -6.129012257e-02    1.099942550e-01
     2308250000   -6.356884539e-02    9.674096107e-02
     2309000000   -6.439308822e-02    8.345906436e-02
     2309750000   -6.428090483e-02    7.069109380e-02
     2310500000   -6.392513216e-02    5.880319700e-02
     2311250000   -6.197814643e-02    4.765133560e-02
     2312000000   -6.027201936e-02    3.677674010e-02
     2312750000   -5.693161115e-02    2.724068612e-02
     2313500000   -5.420793965e-02    1.783665083e-02
     2314250000   -4.994748533e-02    9.938413277e-03
     2315000000   -4.411702976e-02    3.233575728e-03
     2315750000   -3.882165253e-02   -3.284544218e-03
     2316500000   -3.281861544e-02   -8.961674757e-03
     2317250000   -2.535884641e-02   -1.216623839e-02
     2318000000   -1.788106933e-02   -1.489202864e-02
     2318750000   -1.037671231e-02   -1.746156812e-02
     2319500000   -3.186913906e-03   -2.052254416e-02
     2320250000    5.891526118e-03   -1.774279214e-02
     2321000000    1.410640031e-02   -1.650506258e-02
     2321750000    2.260463126e-02   -1.411525626e-02
     2322500000    3.127173707e-02   -1.136115752e-02
     2323250000    3.932761773e-02   -4.652476404e-03
     2324000000    4.821372405e-02    7.593499031e-04
     2324750000    5.710760131e-02    7.293910719e-03
     2325500000    6.548503786e-02    1.623766683e-02
     2326250000    7.459104806e-02    2.500856668e-02
     2327000000    8.381206542e-02    3.425299004e-02
     2327750000    9.271681309e-02    4.487777501e-02
     2328500000    1.019656807e-01    5.504488200e-02
     2329250000    1.111817285e-01    6.500689685e-02
     2330000000    1.187523231e-01    7.475838065e-02
     2330750000    1.283732951e-01    8.320886642e-02
     2331500000    1.353479177e-01    9.111475945e-02
     2332250000    1.398676485e-01    9.780794382e-02
     2333000000    1.430070996e-01    1.040948853e-01
     2333750000    1.445770562e-01    1.094476059e-01
     2334500000    1.432082653e-01    1.162974462e-01
     2335250000    1.405741572e-01    1.228037477e-01
     2336000000    1.361356080e-01    1.303384453e-01
     2336750000    1.308278143e-01    1.382820457e-01
     2337500000    1.250840127e-01    1.460578442e-01
     2338250000    1.191294268e-01    1.542645395e-01
     2339000000    1.119613349e-01    1.619462520e-01
     2339750000    1.047242582e-01    1.694064289e-01
     2340500000    9.731710702e-02    1.773207337e-01
     2341250000    8.903238922e-02    1.833572388e-01
     2342000000    8.142333478e-02    1.872743666e-01
     2342750000    7.343270630e-02    1.912237108e-01
     2343500000    6.454569846e-02    1.955127418e-01
     2344250000    5.509576574e-02    1.980220824e-01
     2345000000    4.675688595e-02    1.975430548e-01
     2345750000    3.768105432e-02    1.983983070e-01
     2346500000    2.883184515e-02    1.977967918e-01
     2347250000    2.143709362e-02    1.941521913e-01
     2348000000    1.204196084e-02    1.910603344e-01
     2348750000    1.588002197e-03    1.880883276e-01
     2349500000   -5.037531257e-03    1.809801906e-01
     2350250000   -1.450425200e-02    1.751282662e-01
     2351000000   -2.103633061e-02    1.666056812e-01
     2351750000   -3.314480558e-02    1.591684669e-01
     2352500000   -3.885502368e-02    1.494281441e-01
     2353250000   -4.233358428e-02    1.379094571e-01
     2354000000   -5.567044020e-02    1.294556707e-01
     2354750000   -5.853840709e-02    1.179529503e-01
     2355500000   -6.762566417e-02    1.079285964e-01
     2356250000   -7.149104029e-02    9.717935324e-02
     2357000000   -7.723309845e-02    8.691116422e-02
     2357750000   -8.272707462e-02    7.659121603e-02
     2358500000   -8.526649326e-02    6.692688167e-02
     2359250000   -8.479011804e-02    5.836646259e-02
     2360000000   -8.837132901e-02    4.823253304e-02
     2360750000   -9.006264061e-02    3.849992901e-02
     2361500000   -8.865321428e-02    3.120688722e-02
     2362250000   -8.787254989e-02    2.256925963e-02
     2363000000   -8.475662023e-02    1.563262381e-02
     2363750000   -8.045221120e-02    9.791908786e-03
     2364500000   -7.683469355e-02    3.554412164e-03
     2365250000   -7.134125382e-02   -1.598237082e-03
     2366000000   -6.631696969e-02   -6.679232698e-03
     2366750000   -5.944230780e-02   -9.590651840e-03
     2367500000   -5.342003331e-02   -1.290372107e-02
     2368250000   -4.559605196e-02   -1.369037759e-02
     2369000000   -3.755176440e-02   -1.513582002e-02
     2369750000   -2.913038619e-02   -1.433821674e-02
     2370500000   -2.035725676e-02   -1.340595726e-02
     2371250000   -1.143362466e-02   -1.145127229e-02
     2372000000   -2.248967765e-03   -6.307223812e-03
     2372750000    7.540662773e-03   -2.539035399e-03
     2373500000    1.756597497e-02    3.209930845e-03
     2374250000    2.755088918e-02    9.256431833e-03
     2375000000    3.841242939e-02    1.570168696e-02
     2375750000    4.984337464e-02    2.247634530e-02
     2376500000    6.085107476e-02    2.983007580e-02
     2377250000    7.097154111e-02    3.721434996e-02
     2378000000    8.173353970e-02    4.341593012e-02
     2378750000    9.075561911e-02    4.970735684e-02
     2379500000    9.959372878e-02    5.506305024e-02
     2380250000    1.063064039e-01    6.058969721e-02
     2381000000    1.107836440e-01    6.499711424e-02
     2381750000    1.123707071e-01    6.964543462e-02
     2382500000    1.147330329e-01    7.709157467e-02
     2383250000    1.131794080e-01    8.387619257e-02
     2384000000    1.097651124e-01    9.023289382e-02
     2384750000    1.079557762e-01    1.007748917e-01
     2385500000    1.039454117e-01    1.092107669e-01
     2386250000    1.007064059e-01    1.188760549e-01
     2387000000    9.644555300e-02    1.291058660e-01
     2387750000    9.174783528e-02    1.371498108e-01
     2388500000    8.595682681e-02    1.439740062e-01
     2389250000    8.079256862e-02    1.543007493e-01
     2390000000    7.459206134e-02    1.596681476e-01
     2390750000    6.716527790e-02    1.670919955e-01
     2391500000    6.052305922e-02    1.693260521e-01
     2392250000    5.222399905e-02    1.745063812e-01
     2393000000    4.352272302e-02    1.785073280e-01
     2393750000    3.445319086e-02    1.811366826e-01
     2394500000    2.524778619e-02    1.824257672e-01
     2395250000    1.587186940e-02    1.827318072e-01
     2396000000    6.937321741e-03    1.807437092e-01
     2396750000   -2.837151522e-03    1.792623997e-01
     2397500000   -1.382869948e-02    1.763845086e-01
     2398250000   -2.398878708e-02    1.726711392e-01
     2399000000   -3.428882360e-02    1.683046222e-01
     2399750000   -4.344158247e-02    1.623432189e-01
     2400500000   -5.582893267e-02    1.580118239e-01
     2401250000   -6.442066282e-02    1.512111276e-01
     2402000000   -7.423489541e-02    1.443303376e-01
     2402750000   -8.368537575e-02    1.373645961e-01
     2403500000   -9.245658666e-02    1.304559261e-01
     2404250000   -1.001054645e-01    1.233114973e-01
     2405000000   -1.060564816e-01    1.152172610e-01
     2405750000   -1.121034324e-01    1.073031425e-01
     2406500000   -1.159091890e-01    9.987197816e-02
     2407250000   -1.207275391e-01    9.051375091e-02
     2408000000   -1.226638556e-01    8.232145011e-02
     2408750000   -1.244677752e-01    7.371143252e-02
     2409500000   -1.252686381e-01    6.418862194e-02
     2410250000   -1.248043776e-01    5.612830818e-02
     2411000000   -1.240616292e-01    4.763386026e-02
     2411750000   -1.223368570e-01    3.931381181e-02
     2412500000   -1.200082824e-01    3.128464893e-02
     2413250000   -1.172893718e-01    2.398238145e-02
     2414000000   -1.143646613e-01    1.511670556e-02
     2414750000   -1.088952422e-01    1.039253827e-02
     2415500000   -1.049422324e-01    5.881331861e-03
     2416250000   -9.896442294e-02    1.712982194e-03
     2417000000   -9.320537001e-02   -1.932306448e-03
     2417750000   -8.626405150e-02   -3.643239615e-03
     2418500000   -7.888565958e-02   -3.826694563e-03
     2419250000   -7.024934143e-02   -3.537384095e-03
     2420000000   -6.182537973e-02   -3.028558567e-03
     2420750000   -5.224560201e-02   -1.273096423e-03
     2421500000   -4.183926061e-02    1.960859634e-03
     2422250000   -3.024494275e-02    5.256265402e-03
     2423000000   -1.878658123e-02    1.028462220e-02
     2423750000   -7.620656863e-03    1.500333194e-02
     2424500000    5.096695386e-03    1.927243173e-02
     2425250000    1.698947698e-02    2.365914546e-02
     2426000000    2.864470333e-02    2.772196010e-02
     2426750000    3.894455358e-02    3.142203391e-02
     2427500000    4.759399965e-02    3.541666642e-02
     2428250000    5.631201714e-02    3.899413720e-02
     2429000000    6.173993647e-02    4.339892045e-02
     2429750000    6.561376154e-02    4.844453931e-02
     2430500000    6.917755306e-02    5.580414459e-02
     2431250000    7.137381285e-02    6.327710301e-02
     2432000000    7.147791237e-02    7.183215022e-02
     2432750000    7.217283547e-02    8.223915845e-02
     2433500000    7.237543166e-02    9.222972393e-02
     2434250000    7.325025648e-02    1.041049063e-01
     2435000000    7.203473896e-02    1.127374023e-01
     2435750000    7.219371200e-02    1.241520122e-01
     2436500000    7.198875397e-02    1.358202994e-01
     2437250000    7.008049637e-02    1.418502927e-01
     2438000000    6.756381691e-02    1.513360888e-01
     2438750000    6.666915119e-02    1.563038081e-01
     2439500000    6.101084128e-02    1.663438976e-01
     2440250000    5.757913738e-02    1.690376103e-01
     2441000000    5.196957663e-02    1.735368520e-01
     2441750000    4.574334249e-02    1.756416410e-01
     2442500000    3.641333058e-02    1.802195162e-01
     2443250000    3.194886819e-02    1.775394529e-01
     2444000000    2.065215632e-02    1.816259921e-01
     2444750000    1.102825906e-02    1.819554865e-01
     2445500000    2.266888740e-03    1.807455122e-01
     2446250000   -7.537190802e-03    1.781553328e-01
     2447000000   -1.935649663e-02    1.773826331e-01
     2447750000   -3.073676303e-02    1.744166017e-01
     2448500000   -4.153205827e-02    1.709167361e-01
     2449250000   -5.191724002e-02    1.674564630e-01
     2450000000   -6.186021492e-02    1.641129106e-01
     2450750000   -7.208243757e-02    1.596584320e-01
     2451500000   -8.252706379e-02    1.547403038e-01
     2452250000   -9.079965949e-02    1.504785717e-01
     2453000000   -9.744688123e-02    1.446976364e-01
     2453750000   -1.046869308e-01    1.388647258e-01
     2454500000   -1.127558500e-01    1.320414543e-01
     2455250000   -1.137274578e-01    1.263253987e-01
     2456000000   -1.175779104e-01    1.193832383e-01
     2456750000   -1.213331968e-01    1.114374176e-01
     2457500000   -1.238775253e-01    1.028250381e-01
     2458250000   -1.218445674e-01    9.552693367e-02
     2459000000   -1.226489618e-01    8.618254960e-02
     2459750000   -1.209264547e-01    7.758316398e-02
     2460500000   -1.204089522e-01    6.676628441e-02
     2461250000   -1.153146327e-01    6.103182957e-02
     2462000000   -1.132511497e-01    4.855076596e-02
     2462750000   -1.074775606e-01    4.221052304e-02
     2463500000   -1.041381285e-01    3.105698153e-02
     2464250000   -9.750133008e-02    2.589194477e-02
     2465000000   -9.128174186e-02    2.060003206e-02
     2465750000   -8.550175279e-02    9.031603113e-03
     2466500000   -7.777923346e-02    6.000929512e-03
     2467250000   -7.027396560e-02    1.356756198e-03
     2468000000   -6.245245039e-02   -4.476597533e-04
     2468750000   -5.323070288e-02   -5.802758038e-03
     2469500000   -4.327084497e-02   -9.832279757e-03
     2470250000   -3.372798860e-02   -9.045130573e-03
     2471000000   -2.418702841e-02   -9.291652590e-03
     2471750000   -1.239995286e-02   -1.238987502e-02
     2472500000   -2.478251467e-03   -1.207356993e-02
     2473250000    8.220846765e-03   -1.294628438e-02
     2474000000    1.766378619e-02   -1.210522279e-02
     2474750000    2.634246089e-02   -1.227011997e-02
     2475500000    3.355418146e-02   -1.093500108e-02
     2476250000    3.932248801e-02   -8.473002352e-03
     2477000000    4.313831776e-02   -5.153527949e-03
     2477750000    4.798818007e-02   -4.861295165e-04
     2478500000    5.237918720e-02    6.450769957e-03
     2479250000    5.312604457e-02    1.416858751e-02
     2480000000    5.571979657e-02    2.302317694e-02
     2480750000    5.774783716e-02    3.392349556e-02
     2481500000    5.931656808e-02    4.446686804e-02
     2482250000    6.097858399e-02    5.655741319e-02
     2483000000    6.335948408e-02    6.872800738e-02
     2483750000    6.457177550e-02    8.098915219e-02
     2484500000    6.609663367e-02    9.194353968e-02
     2485250000    6.690173596e-02    1.032664478e-01
     2486000000    6.699706614e-02    1.134381592e-01
     2486750000    6.698428094e-02    1.236127093e-01
     2487500000    6.508952379e-02    1.320213228e-01
     2488250000    6.355291605e-02    1.403427571e-01
     2489000000    6.044533849e-02    1.459634900e-01
     2489750000    5.718502775e-02    1.539601535e-01
     2490500000    5.184343457e-02    1.588645279e-01
     2491250000    4.600631073e-02    1.635159850e-01
     2492000000    3.907749429e-02    1.676730812e-01
     2492750000    3.060435876e-02    1.714663208e-01
     2493500000    2.408895269e-02    1.716032922e-01
     2494250000    1.458675973e-02    1.736230850e-01
     2495000000    3.670102451e-03    1.752008051e-01
     2495750000   -6.855101325e-03    1.764673889e-01
     2496500000   -1.459412929e-02    1.744481027e-01
     2497250000   -2.803110890e-02    1.757864356e-01
     2498000000   -3.915582597e-02    1.746916473e-01
     2498750000   -4.937708750e-02    1.733779311e-01
     2499500000   -5.622048676e-02    1.715569049e-01
     2500250000   -6.857837737e-02    1.684541255e-01
     2501000000   -7.603477687e-02    1.655845344e-01
     2501750000   -8.684790879e-02    1.614655405e-01
     2502500000   -9.270618856e-02    1.585602015e-01
     2503250000   -9.960392118e-02    1.534316987e-01
     2504000000   -1.071752012e-01    1.464027315e-01
     2504750000   -1.085230187e-01    1.405336708e-01
     2505500000   -1.106331125e-01    1.341772825e-01
     2506250000   -1.174637973e-01    1.238267422e-01
     2507000000   -1.182515621e-01    1.164578721e-01
     2507750000   -1.172456890e-01    1.083292589e-01
     2508500000   -1.183550581e-01    9.800159186e-02
     2509250000   -1.199324355e-01    8.682398498e-02
     2510000000   -1.157683805e-01    7.950666547e-02
     2510750000   -1.141190454e-01    6.924124807e-02
     2511500000   -1.119717434e-01    5.911901593e-02
     2512250000   -1.085560992e-01    4.845965654e-02
     2513000000   -1.046778709e-01    3.964180127e-02
     2513750000   -1.004886627e-01    3.114250489e-02
     2514500000   -9.600335360e-02    2.286627889e-02
     2515250000   -9.056770802e-02    1.382420398e-02
     2516000000   -8.422324061e-02    5.851250142e-03
     2516750000   -7.777906209e-02   -7.325372426e-04
     2517500000   -7.015638053e-02   -6.353383884e-03
     2518250000   -6.344842166e-02   -1.233775634e-02
     2519000000   -5.566109344e-02   -1.783323102e-02
     2519750000   -4.795655236e-02   -2.227066830e-02
     2520500000   -3.987157717e-02   -2.719435096e-02
     2521250000   -3.419368714e-02   -2.862920240e-02
     2522000000   -2.688585967e-02   -3.126410022e-02
     2522750000   -2.075738460e-02   -3.122871183e-02
     2523500000   -1.401424594e-02   -3.124283254e-02
     2524250000   -8.103917353e-03   -2.923798189e-02
     2525000000   -3.519993043e-03   -2.537509426e-02
     2525750000    1.040315372e-03   -2.084942162e-02
     2526500000    6.225265563e-03   -1.407237258e-02
     2527250000    1.166199986e-02   -7.030882407e-03
     2528000000    1.640159823e-02    1.595149632e-03
     2528750000    2.121226490e-02    1.103533711e-02
     2529500000    2.639901824e-02    2.092070505e-02
     2530250000    3.158989176e-02    3.173815086e-02
     2531000000    3.619261086e-02    4.263366386e-02
     2531750000    4.004180431e-02    5.200074241e-02
     2532500000    4.444397986e-02    6.330481172e-02
     2533250000    4.807224125e-02    7.380259782e-02
     2534000000    5.084410310e-02    8.342020214e-02
     2534750000    5.230581015e-02    9.290932864e-02
     2535500000    5.329246446e-02    1.016807631e-01
     2536250000    5.278582871e-02    1.114951596e-01
     2537000000    5.108728260e-02    1.197468713e-01
     2537750000    4.866071418e-02    1.274382174e-01
     2538500000    4.556175694e-02    1.355276406e-01
     2539250000    4.145374894e-02    1.427158862e-01
     2540000000    3.616683185e-02    1.506668180e-01
     2540750000    3.000589833e-02    1.573397368e-01
     2541500000    2.374622971e-02    1.618065089e-01
     2542250000    1.685736328e-02    1.673859358e-01
     2543000000    8.139072917e-03    1.735209674e-01
     2543750000    3.236038538e-05    1.768255681e-01
     2544500000   -7.986729033e-03    1.801312417e-01
     2545250000   -1.665334031e-02    1.826983392e-01
     2546000000   -2.699549496e-02    1.862312406e-01
     2546750000   -3.579081595e-02    1.867980659e-01
     2547500000   -4.391552508e-02    1.881698817e-01
     2548250000   -5.165545270e-02    1.877968162e-01
     2549000000   -6.058812514e-02    1.867167503e-01
     2549750000   -6.998725981e-02    1.847350597e-01
     2550500000   -7.411252707e-02    1.822431237e-01
     2551250000   -8.047502488e-02    1.775467694e-01
     2552000000   -9.014666826e-02    1.730491519e-01
     2552750000   -9.369477630e-02    1.675301045e-01
     2553500000   -1.030451432e-01    1.593764871e-01
     2554250000   -1.061194316e-01    1.531588733e-01
     2555000000   -1.098774746e-01    1.452758610e-01
     2555750000   -1.161896288e-01    1.357344538e-01
     2556500000   -1.156189367e-01    1.277065426e-01
     2557250000   -1.235393658e-01    1.157548428e-01
     2558000000   -1.246067435e-01    1.064375713e-01
     2558750000   -1.273883432e-01    9.546971321e-02
     2559500000   -1.261716038e-01    8.870748430e-02
     2560250000   -1.291829497e-01    7.605033368e-02
     2561000000   -1.306998283e-01    6.482490897e-02
     2561750000   -1.289758980e-01    5.697026849e-02
     2562500000   -1.267862916e-01    5.127818882e-02
     2563250000   -1.262370646e-01    3.971606866e-02
     2564000000   -1.234691218e-01    3.205353767e-02
     2564750000   -1.188071221e-01    2.449219860e-02
     2565500000   -1.140083373e-01    2.247051522e-02
     2566250000   -1.082010716e-01    1.133020502e-02
     2567000000   -1.028928980e-01    8.770740591e-03
     2567750000   -9.636773914e-02    3.922763746e-03
     2568500000   -8.924413472e-02    7.345090853e-04
     2569250000   -8.134005964e-02   -3.068737220e-03
     2570000000   -7.233300805e-02   -6.956340745e-03
     2570750000   -6.536565721e-02   -7.517467719e-03
     2571500000   -5.614645034e-02   -8.561749943e-03
     2572250000   -4.724034294e-02   -7.837463170e-03
     2573000000   -3.834068030e-02   -5.963102449e-03
     2573750000   -3.043735400e-02   -4.420616664e-03
     2574500000   -2.028694935e-02   -1.259801793e-03
     2575250000   -1.105117984e-02    2.319017891e-03
     2576000000   -1.915953006e-03    7.546962705e-03
     2576750000    6.485118065e-03    1.223235298e-02
     2577500000    1.582967490e-02    1.840043999e-02
     2578250000    2.435586974e-02    2.469829097e-02
     2579000000    3.344222158e-02    3.168479726e-02
     2579750000    4.134164378e-02    3.850047663e-02
     2580500000    4.926227033e-02    4.605116323e-02
     2581250000    5.534464493e-02    5.218479037e-02
     2582000000    6.207936257e-02    5.872404203e-02
     2582750000    6.720920652e-02    6.641048193e-02
     2583500000    7.070425153e-02    7.253149152e-02
     2584250000    7.452305406e-02    8.079658449e-02
     2585000000    7.594003528e-02    8.637423813e-02
     2585750000    7.625428587e-02    9.404800087e-02
     2586500000    7.627964765e-02    9.975869954e-02
     2587250000    7.450564951e-02    1.070335954e-01
     2588000000    7.210908085e-02    1.146656349e-01
     2588750000    6.845439225e-02    1.220992282e-01
     2589500000    6.466813385e-02    1.300397366e-01
     2590250000    6.110091507e-02    1.340123117e-01
     2591000000    5.521462485e-02    1.393864751e-01
     2591750000    4.837302119e-02    1.465518326e-01
     2592500000    4.466506094e-02    1.483571529e-01
     2593250000    3.596591577e-02    1.540823728e-01
     2594000000    2.934172191e-02    1.556104124e-01
     2594750000    2.107383683e-02    1.599561423e-01
     2595500000    1.439836342e-02    1.605985612e-01
     2596250000    6.096691359e-03    1.620996594e-01
     2597000000   -8.277767920e-04    1.606931090e-01
     2597750000   -1.185584348e-02    1.609602123e-01
     2598500000   -1.762483642e-02    1.588866562e-01
     2599250000   -2.331977151e-02    1.558163464e-01
     2600000000   -3.222457692e-02    1.517106146e-01
