! NanoVNA-App
! Date: 2026-05-15 12:15:18
! Start: 2.3GHz Stop: 2.6GHz Points: 401
! S-Parameter data: F S11
# Hz S RI R 50
!     Frequency           S11_Real           S11_Imag
     2300000000    7.074496150e-02    1.299551576e-01
     2300750000    6.323040277e-02    1.252781153e-01
     2301500000    5.682385713e-02    1.190443039e-01
     2302250000    5.068802461e-02    1.123331189e-01
     2303000000    4.442693666e-02    1.047575325e-01
     2303750000    3.999011964e-02    9.568513930e-02
     2304500000    3.652255237e-02    8.526764810e-02
     2305250000    3.209499270e-02    7.527171075e-02
     2306000000    2.846342325e-02    6.494923681e-02
     2306750000    2.559142560e-02    5.424987525e-02
     2307500000    2.151180059e-02    4.390926659e-02
     2308250000    1.934933476e-02    3.360405937e-02
     2309000000    1.823430695e-02    2.398854680e-02
     2309750000    1.753226668e-02    1.479791291e-02
     2310500000    1.826011576e-02    7.153937593e-03
     2311250000    1.843645051e-02   -9.149758989e-05
     2312000000    2.128798701e-02   -6.328544114e-03
     2312750000    2.438526228e-02   -1.174625754e-02
     2313500000    2.891411446e-02   -1.609569788e-02
     2314250000    3.490331396e-02   -1.912570372e-02
     2315000000    4.194130003e-02   -2.220300585e-02
     2315750000    5.072228238e-02   -2.327471413e-02
     2316500000    5.938449875e-02   -2.473448776e-02
     2317250000    6.977875531e-02   -2.463906445e-02
     2318000000    8.097672462e-02   -2.389370091e-02
     2318750000    9.314757586e-02   -2.275058813e-02
     2319500000    1.052899137e-01   -2.148568258e-02
     2320250000    1.186132804e-01   -1.798805036e-02
     2321000000    1.321936697e-01   -1.593170688e-02
     2321750000    1.459358484e-01   -1.170478482e-02
     2322500000    1.597611457e-01   -7.048766129e-03
     2323250000    1.732751131e-01   -2.640176099e-03
     2324000000    1.878254265e-01    9.529730305e-04
     2324750000    2.020559758e-01    7.256599143e-03
     2325500000    2.150277942e-01    1.264771912e-02
     2326250000    2.282024473e-01    1.752565429e-02
     2327000000    2.423284948e-01    2.361493371e-02
     2327750000    2.534843981e-01    2.809215151e-02
     2328500000    2.658906877e-01    3.348021582e-02
     2329250000    2.754703462e-01    3.690603748e-02
     2330000000    2.823349237e-01    3.920557722e-02
     2330750000    2.908756137e-01    4.366207123e-02
     2331500000    2.948627770e-01    4.614426568e-02
     2332250000    2.971083224e-01    4.870761931e-02
     2333000000    2.971178293e-01    5.155262351e-02
     2333750000    2.952132821e-01    5.455106124e-02
     2334500000    2.899635136e-01    5.824671686e-02
     2335250000    2.846050262e-01    6.353193521e-02
     2336000000    2.774229050e-01    6.904220581e-02
     2336750000    2.697497904e-01    7.530083507e-02
     2337500000    2.609874904e-01    8.041134477e-02
     2338250000    2.513054907e-01    8.759616315e-02
     2339000000    2.413569093e-01    9.468985349e-02
     2339750000    2.306059599e-01    9.977281094e-02
     2340500000    2.195166498e-01    1.061352268e-01
     2341250000    2.085258961e-01    1.109082773e-01
     2342000000    1.967679411e-01    1.158272773e-01
     2342750000    1.860715449e-01    1.212808862e-01
     2343500000    1.750308722e-01    1.252564043e-01
     2344250000    1.636290699e-01    1.305707842e-01
     2345000000    1.533780545e-01    1.323345155e-01
     2345750000    1.427197158e-01    1.352858543e-01
     2346500000    1.339533925e-01    1.381472945e-01
     2347250000    1.269626766e-01    1.335307062e-01
     2348000000    1.171853319e-01    1.359283924e-01
     2348750000    1.106724739e-01    1.319358051e-01
     2349500000    1.050569192e-01    1.262548715e-01
     2350250000    9.985230118e-02    1.191527322e-01
     2351000000    9.446312487e-02    1.104807481e-01
     2351750000    8.535518497e-02    1.049214751e-01
     2352500000    8.095955849e-02    9.317974001e-02
     2353250000    7.687596977e-02    8.109301329e-02
     2354000000    6.952069700e-02    7.060728222e-02
     2354750000    6.363959610e-02    5.880876631e-02
     2355500000    5.803419277e-02    4.653391615e-02
     2356250000    5.168098584e-02    3.578363732e-02
     2357000000    4.649369046e-02    2.550715581e-02
     2357750000    4.324474558e-02    1.498725172e-02
     2358500000    3.800817952e-02    6.196706090e-03
     2359250000    3.625373915e-02   -2.766818507e-03
     2360000000    3.546969220e-02   -1.014558785e-02
     2360750000    3.395680711e-02   -1.680659503e-02
     2361500000    3.540800139e-02   -2.289788611e-02
     2362250000    3.799977526e-02   -2.780058235e-02
     2363000000    4.074497148e-02   -3.239412606e-02
     2363750000    4.600495845e-02   -3.600931540e-02
     2364500000    5.181478709e-02   -3.904868290e-02
     2365250000    5.876750872e-02   -4.190331325e-02
     2366000000    6.670820713e-02   -4.350582138e-02
     2366750000    7.551596314e-02   -4.524122924e-02
     2367500000    8.495407552e-02   -4.550097883e-02
     2368250000    9.581628442e-02   -4.545920715e-02
     2369000000    1.062174290e-01   -4.495177418e-02
     2369750000    1.177209541e-01   -4.388487339e-02
     2370500000    1.297287196e-01   -4.184179008e-02
     2371250000    1.417649686e-01   -3.954498842e-02
     2372000000    1.544421613e-01   -3.693583980e-02
     2372750000    1.664442271e-01   -3.332579881e-02
     2373500000    1.794371307e-01   -2.957894839e-02
     2374250000    1.912868172e-01   -2.546534128e-02
     2375000000    2.036014795e-01   -2.139769867e-02
     2375750000    2.158446908e-01   -1.687435433e-02
     2376500000    2.253826708e-01   -1.392443106e-02
     2377250000    2.364574224e-01   -1.049386803e-02
     2378000000    2.464096546e-01   -6.089398172e-03
     2378750000    2.524059415e-01   -4.470125772e-03
     2379500000    2.584857643e-01   -1.330994302e-03
     2380250000    2.607212961e-01    1.071903971e-03
     2381000000    2.608135045e-01    3.895818023e-03
     2381750000    2.626252770e-01    1.144917775e-02
     2382500000    2.588427067e-01    1.562331244e-02
     2383250000    2.521404922e-01    1.845904626e-02
     2384000000    2.482711077e-01    2.868795581e-02
     2384750000    2.404434830e-01    3.467852622e-02
     2385500000    2.326921672e-01    4.235946015e-02
     2386250000    2.254280001e-01    5.098951235e-02
     2387000000    2.162055522e-01    6.007092819e-02
     2387750000    2.078545243e-01    7.133650780e-02
     2388500000    1.965852678e-01    7.831901312e-02
     2389250000    1.867165118e-01    8.771628141e-02
     2390000000    1.757987589e-01    9.562394023e-02
     2390750000    1.648857296e-01    1.068741232e-01
     2391500000    1.552932113e-01    1.133271754e-01
     2392250000    1.439342797e-01    1.216391325e-01
     2393000000    1.349901557e-01    1.277171224e-01
     2393750000    1.253975779e-01    1.355502605e-01
     2394500000    1.166140363e-01    1.398710608e-01
     2395250000    1.091687456e-01    1.418853998e-01
     2396000000    1.009512544e-01    1.444333941e-01
     2396750000    9.328623861e-02    1.460796595e-01
     2397500000    8.688902110e-02    1.437025666e-01
     2398250000    7.876992226e-02    1.415822655e-01
     2399000000    7.191725075e-02    1.371161938e-01
     2399750000    6.439519674e-02    1.328335553e-01
     2400500000    5.722676218e-02    1.269354820e-01
     2401250000    4.923675582e-02    1.208319739e-01
     2402000000    4.311010987e-02    1.136210188e-01
     2402750000    3.678937256e-02    1.063083857e-01
     2403500000    2.866885439e-02    9.972981364e-02
     2404250000    2.360115014e-02    9.259734303e-02
     2405000000    1.867861487e-02    8.514562994e-02
     2405750000    1.715005003e-02    7.820402086e-02
     2406500000    1.430822909e-02    7.195615768e-02
     2407250000    1.383434422e-02    6.538496912e-02
     2408000000    1.376675908e-02    5.933973938e-02
     2408750000    1.572493091e-02    5.270410702e-02
     2409500000    1.809999906e-02    4.625406861e-02
     2410250000    2.508230507e-02    4.043617845e-02
     2411000000    3.009467199e-02    3.355520591e-02
     2411750000    3.705536202e-02    2.661304548e-02
     2412500000    4.523177817e-02    2.003010362e-02
     2413250000    5.510712788e-02    1.370366849e-02
     2414000000    6.514653563e-02    7.309867069e-03
     2414750000    7.534684241e-02    9.468106437e-04
     2415500000    8.653162420e-02   -5.159854889e-03
     2416250000    9.776020795e-02   -1.123970933e-02
     2417000000    1.095871478e-01   -1.634474471e-02
     2417750000    1.219863594e-01   -2.102805115e-02
     2418500000    1.345224082e-01   -2.544546314e-02
     2419250000    1.467761397e-01   -2.956594154e-02
     2420000000    1.590411365e-01   -3.313578665e-02
     2420750000    1.718239486e-01   -3.642137721e-02
     2421500000    1.839020252e-01   -3.839702532e-02
     2422250000    1.957042068e-01   -4.127173126e-02
     2423000000    2.066817880e-01   -4.288846999e-02
     2423750000    2.186578661e-01   -4.387508333e-02
     2424500000    2.270156741e-01   -4.461573437e-02
     2425250000    2.354094237e-01   -4.508672655e-02
     2426000000    2.420929670e-01   -4.545617104e-02
     2426750000    2.480581254e-01   -4.442209005e-02
     2427500000    2.518033981e-01   -4.240307584e-02
     2428250000    2.533676922e-01   -3.929980099e-02
     2429000000    2.529877722e-01   -3.560856357e-02
     2429750000    2.532473505e-01   -3.019043803e-02
     2430500000    2.513259649e-01   -2.285395004e-02
     2431250000    2.499827594e-01   -1.390088815e-02
     2432000000    2.482882291e-01   -2.885824768e-03
     2432750000    2.414252609e-01    2.612924902e-03
     2433500000    2.383789420e-01    1.464069262e-02
     2434250000    2.349801362e-01    2.733806334e-02
     2435000000    2.293271869e-01    3.625773638e-02
     2435750000    2.225727290e-01    4.601616412e-02
     2436500000    2.185432762e-01    6.162762269e-02
     2437250000    2.113189548e-01    6.687255204e-02
     2438000000    2.050531954e-01    7.806171477e-02
     2438750000    1.986229569e-01    9.050724655e-02
     2439500000    1.914914995e-01    1.021081582e-01
     2440250000    1.857769638e-01    1.084779948e-01
     2441000000    1.796518862e-01    1.130408347e-01
     2441750000    1.713707894e-01    1.239118725e-01
     2442500000    1.652684361e-01    1.273608655e-01
     2443250000    1.593538523e-01    1.299028993e-01
     2444000000    1.527785212e-01    1.328019649e-01
     2444750000    1.455880553e-01    1.332412809e-01
     2445500000    1.384865940e-01    1.320490688e-01
     2446250000    1.316242963e-01    1.288795322e-01
     2447000000    1.247742847e-01    1.233384758e-01
     2447750000    1.132759824e-01    1.223067492e-01
     2448500000    1.059470475e-01    1.145502254e-01
     2449250000    9.666896611e-02    1.070514172e-01
     2450000000    8.767941594e-02    1.000868157e-01
     2450750000    7.830087841e-02    9.226191044e-02
     2451500000    6.815831363e-02    8.355561644e-02
     2452250000    5.823359266e-02    7.560380548e-02
     2453000000    5.001537129e-02    6.656110287e-02
     2453750000    4.187333956e-02    5.873750895e-02
     2454500000    3.470140323e-02    5.076059699e-02
     2455250000    2.794191241e-02    4.308013991e-02
     2456000000    2.237933502e-02    3.564091772e-02
     2456750000    1.837300323e-02    2.807009593e-02
     2457500000    1.603510045e-02    2.012716420e-02
     2458250000    1.480238885e-02    1.277774852e-02
     2459000000    1.571264677e-02    6.064148620e-03
     2459750000    1.616766304e-02   -2.123096026e-03
     2460500000    1.848964766e-02   -9.892649017e-03
     2461250000    2.186295949e-02   -1.787854359e-02
     2462000000    2.734900266e-02   -2.413867600e-02
     2462750000    3.201472014e-02   -3.268203139e-02
     2463500000    3.876372054e-02   -3.816888854e-02
     2464250000    4.604282603e-02   -4.580919445e-02
     2465000000    5.324534699e-02   -5.325999111e-02
     2465750000    6.156933680e-02   -5.834500864e-02
     2466500000    7.049292326e-02   -6.518780440e-02
     2467250000    7.885098457e-02   -7.008014619e-02
     2468000000    8.832131326e-02   -7.440252602e-02
     2468750000    9.842699021e-02   -7.909256965e-02
     2469500000    1.081310660e-01   -8.316089958e-02
     2470250000    1.171094775e-01   -8.584712446e-02
     2471000000    1.251074076e-01   -8.780817688e-02
     2471750000    1.369091570e-01   -9.022013843e-02
     2472500000    1.445011497e-01   -9.116733074e-02
     2473250000    1.514047235e-01   -9.188094735e-02
     2474000000    1.576528698e-01   -9.079359472e-02
     2474750000    1.647586077e-01   -8.979674429e-02
     2475500000    1.723552942e-01   -8.635114878e-02
     2476250000    1.728525758e-01   -8.366576582e-02
     2477000000    1.755335778e-01   -7.904532552e-02
     2477750000    1.816105992e-01   -7.086160779e-02
     2478500000    1.802081019e-01   -6.481266022e-02
     2479250000    1.822872758e-01   -5.698359758e-02
     2480000000    1.809783280e-01   -4.830489308e-02
     2480750000    1.830453873e-01   -3.705341741e-02
     2481500000    1.828269809e-01   -2.626695856e-02
     2482250000    1.820213944e-01   -1.513440628e-02
     2483000000    1.799030006e-01   -4.212786444e-03
     2483750000    1.789934933e-01    6.847096141e-03
     2484500000    1.764251888e-01    1.839592680e-02
     2485250000    1.742814481e-01    3.031301312e-02
     2486000000    1.707553566e-01    4.103758186e-02
     2486750000    1.679482460e-01    5.281789601e-02
     2487500000    1.629092991e-01    6.279775500e-02
     2488250000    1.587123126e-01    7.183346897e-02
     2489000000    1.546088606e-01    8.228006214e-02
     2489750000    1.493207216e-01    9.113737196e-02
     2490500000    1.453908235e-01    9.606727213e-02
     2491250000    1.392947733e-01    1.019030735e-01
     2492000000    1.336061656e-01    1.080261916e-01
     2492750000    1.275461316e-01    1.102660820e-01
     2493500000    1.189820617e-01    1.145415977e-01
     2494250000    1.123182997e-01    1.134442315e-01
     2495000000    1.032746881e-01    1.133887023e-01
     2495750000    9.382905066e-02    1.136081889e-01
     2496500000    8.562529832e-02    1.105882078e-01
     2497250000    7.573851943e-02    1.075043678e-01
     2498000000    6.404113024e-02    1.057785451e-01
     2498750000    5.662426725e-02    9.988112003e-02
     2499500000    4.669023678e-02    9.716091305e-02
     2500250000    3.375229239e-02    9.381978214e-02
     2501000000    2.499682456e-02    8.928055316e-02
     2501750000    1.961522736e-02    8.349358290e-02
     2502500000    1.024405193e-02    7.901593298e-02
     2503250000    1.607231214e-03    7.344336808e-02
     2504000000   -2.638411941e-03    6.784127653e-02
     2504750000   -7.116199937e-03    6.211578101e-02
     2505500000   -1.304732263e-02    5.450583994e-02
     2506250000   -1.515432354e-02    4.804465175e-02
     2507000000   -1.722600125e-02    4.076809436e-02
     2507750000   -1.658161543e-02    3.403377160e-02
     2508500000   -1.810944267e-02    2.535958588e-02
     2509250000   -1.577234827e-02    1.823031716e-02
     2510000000   -1.478798036e-02    1.045153756e-02
     2510750000   -1.226710062e-02    2.128146123e-03
     2511500000   -8.742922917e-03   -5.097448360e-03
     2512250000   -4.470336717e-03   -1.263811067e-02
     2513000000   -6.227931008e-04   -2.063516341e-02
     2513750000    5.473394878e-03   -2.633086964e-02
     2514500000    1.153564360e-02   -3.239727393e-02
     2515250000    1.931318268e-02   -3.760686517e-02
     2516000000    2.651909366e-02   -4.235166684e-02
     2516750000    3.480908275e-02   -4.798550159e-02
     2517500000    4.349634051e-02   -5.061319843e-02
     2518250000    5.282736570e-02   -5.432526395e-02
     2519000000    6.273093075e-02   -5.744749680e-02
     2519750000    7.266836613e-02   -6.065405905e-02
     2520500000    8.101670444e-02   -6.136722490e-02
     2521250000    9.064890444e-02   -6.239495426e-02
     2522000000    9.962361306e-02   -6.318244338e-02
     2522750000    1.100507006e-01   -6.193809584e-02
     2523500000    1.194964424e-01   -6.119266525e-02
     2524250000    1.267034262e-01   -5.891429260e-02
     2525000000    1.348365843e-01   -5.629637837e-02
     2525750000    1.419800073e-01   -5.249923468e-02
     2526500000    1.490525752e-01   -4.698016495e-02
     2527250000    1.567918807e-01   -4.158817977e-02
     2528000000    1.608053595e-01   -3.535196930e-02
     2528750000    1.667931527e-01   -2.928386070e-02
     2529500000    1.707379967e-01   -2.292723395e-02
     2530250000    1.747582555e-01   -1.550607756e-02
     2531000000    1.783088148e-01   -8.141051978e-03
     2531750000    1.794500798e-01   -1.655723609e-04
     2532500000    1.812687218e-01    7.699235808e-03
     2533250000    1.811442971e-01    1.649897359e-02
     2534000000    1.804348528e-01    2.491394058e-02
     2534750000    1.792940199e-01    3.319374472e-02
     2535500000    1.777283102e-01    4.164974019e-02
     2536250000    1.751288027e-01    4.979355261e-02
     2537000000    1.728169769e-01    6.050953642e-02
     2537750000    1.694977880e-01    6.770715117e-02
     2538500000    1.661700308e-01    7.530602068e-02
     2539250000    1.613178402e-01    8.244930953e-02
     2540000000    1.564149708e-01    8.842699230e-02
     2540750000    1.514171362e-01    9.232445806e-02
     2541500000    1.445277929e-01    9.581990540e-02
     2542250000    1.382053643e-01    9.816855937e-02
     2543000000    1.300173849e-01    9.982356429e-02
     2543750000    1.206753328e-01    1.021654308e-01
     2544500000    1.123746485e-01    1.019366309e-01
     2545250000    1.029044017e-01    1.010658443e-01
     2546000000    8.997366577e-02    1.037082598e-01
     2546750000    7.992646098e-02    1.010348350e-01
     2547500000    6.820861995e-02    1.014917567e-01
     2548250000    5.871718749e-02    9.932205081e-02
     2549000000    4.619120806e-02    9.888611734e-02
     2549750000    3.657437861e-02    9.715930372e-02
     2550500000    2.740455419e-02    9.570017457e-02
     2551250000    1.898116060e-02    9.452543408e-02
     2552000000    1.001170743e-02    9.224811941e-02
     2552750000    5.623253062e-03    8.988245577e-02
     2553500000   -6.532137049e-04    8.688790351e-02
     2554250000   -6.308128126e-03    8.339821547e-02
     2555000000   -1.044425368e-02    7.867921144e-02
     2555750000   -1.156003494e-02    7.439017296e-02
     2556500000   -1.211297326e-02    6.920863688e-02
     2557250000   -1.435504667e-02    6.234073639e-02
     2558000000   -1.349849720e-02    5.636538938e-02
     2558750000   -1.131776627e-02    4.997352883e-02
     2559500000   -8.097531274e-03    4.335039482e-02
     2560250000   -6.500430405e-03    3.548900411e-02
     2561000000   -4.813482985e-03    2.582388930e-02
     2561750000   -2.015788632e-04    2.054873109e-02
     2562500000    4.637245554e-03    1.418304909e-02
     2563250000    9.779022075e-03    5.695118569e-03
     2564000000    1.469541714e-02   -1.943851355e-03
     2564750000    2.087809891e-02   -8.351906203e-03
     2565500000    2.652643807e-02   -1.308375224e-02
     2566250000    3.291787207e-02   -1.947959885e-02
     2567000000    3.986577690e-02   -2.627407201e-02
     2567750000    4.623970017e-02   -3.007840365e-02
     2568500000    5.173217133e-02   -3.294137865e-02
     2569250000    5.948200449e-02   -3.657511249e-02
     2570000000    6.719709188e-02   -3.911630809e-02
     2570750000    7.312779874e-02   -4.081445932e-02
     2571500000    7.973497361e-02   -4.115699977e-02
     2572250000    8.606082946e-02   -4.073268548e-02
     2573000000    9.149090946e-02   -3.859709576e-02
     2573750000    9.733389318e-02   -3.662234917e-02
     2574500000    1.044639349e-01   -3.296179697e-02
     2575250000    1.103144512e-01   -2.856681868e-02
     2576000000    1.148657128e-01   -2.319043316e-02
     2576750000    1.212532744e-01   -1.777381264e-02
     2577500000    1.255377382e-01   -1.228920463e-02
     2578250000    1.300027370e-01   -5.655329674e-03
     2579000000    1.363740265e-01    1.860573073e-03
     2579750000    1.395225227e-01    9.386999533e-03
     2580500000    1.423533410e-01    1.603876613e-02
     2581250000    1.449843943e-01    2.314502373e-02
     2582000000    1.470782608e-01    3.051076457e-02
     2582750000    1.477288753e-01    3.823151067e-02
     2583500000    1.486724913e-01    4.568522796e-02
     2584250000    1.466926783e-01    5.402319133e-02
     2585000000    1.448291987e-01    6.071047857e-02
     2585750000    1.432770938e-01    6.816516072e-02
     2586500000    1.397128999e-01    7.515053451e-02
     2587250000    1.353825182e-01    8.180864155e-02
     2588000000    1.308166087e-01    8.576069772e-02
     2588750000    1.250787973e-01    9.357709438e-02
     2589500000    1.184361726e-01    1.009005979e-01
     2590250000    1.121925116e-01    1.043140665e-01
     2591000000    1.043747514e-01    1.105923951e-01
     2591750000    9.799000621e-02    1.125241444e-01
     2592500000    8.849575371e-02    1.183557138e-01
     2593250000    7.983722538e-02    1.219161600e-01
     2594000000    6.963831186e-02    1.269254237e-01
     2594750000    6.181104854e-02    1.291083694e-01
     2595500000    5.607148260e-02    1.300070584e-01
     2596250000    4.320307449e-02    1.343036741e-01
     2597000000    3.678830341e-02    1.343903691e-01
     2597750000    2.937867492e-02    1.354718357e-01
     2598500000    2.367038280e-02    1.348213702e-01
     2599250000    1.431447733e-02    1.358620077e-01
     2600000000    1.090310235e-02    1.335497350e-01
