! NanoVNA-App
! Date: 2026-05-22 19:58:13
! Start: 2.3GHz Stop: 2.6GHz Points: 401
! S-Parameter data: F S11
# Hz S RI R 50
!     Frequency           S11_Real           S11_Imag
     2300000000    9.636068344e-02    2.309419811e-01
     2300750000    8.606550097e-02    2.366537303e-01
     2301500000    7.334218919e-02    2.429845184e-01
     2302250000    6.285577267e-02    2.473958731e-01
     2303000000    5.077007785e-02    2.520242631e-01
     2303750000    3.899466619e-02    2.558305264e-01
     2304500000    2.762615308e-02    2.589043677e-01
     2305250000    1.663896628e-02    2.601237297e-01
     2306000000    7.603532635e-03    2.605374157e-01
     2306750000   -4.115191754e-03    2.614793479e-01
     2307500000   -1.561479177e-02    2.605969310e-01
     2308250000   -2.669059299e-02    2.599257231e-01
     2309000000   -3.755343333e-02    2.587669492e-01
     2309750000   -4.509346932e-02    2.559686303e-01
     2310500000   -5.694693327e-02    2.532497942e-01
     2311250000   -6.510679424e-02    2.498278171e-01
     2312000000   -7.599322498e-02    2.460970581e-01
     2312750000   -8.605500311e-02    2.408412397e-01
     2313500000   -9.169985354e-02    2.372325659e-01
     2314250000   -1.017242000e-01    2.308763117e-01
     2315000000   -1.110727340e-01    2.245768905e-01
     2315750000   -1.205388457e-01    2.170958519e-01
     2316500000   -1.259614527e-01    2.117092013e-01
     2317250000   -1.324265003e-01    2.048360854e-01
     2318000000   -1.409536153e-01    1.957899332e-01
     2318750000   -1.470428258e-01    1.885991693e-01
     2319500000   -1.524232030e-01    1.807630211e-01
     2320250000   -1.587001383e-01    1.721171737e-01
     2321000000   -1.640777588e-01    1.642267853e-01
     2321750000   -1.672007293e-01    1.589212418e-01
     2322500000   -1.726558656e-01    1.490193605e-01
     2323250000   -1.764465570e-01    1.394408196e-01
     2324000000   -1.798660010e-01    1.313242912e-01
     2324750000   -1.792941839e-01    1.238396987e-01
     2325500000   -1.824182868e-01    1.164441481e-01
     2326250000   -1.850139946e-01    1.060721651e-01
     2327000000   -1.871592999e-01    9.851539880e-02
     2327750000   -1.886013299e-01    8.896045387e-02
     2328500000   -1.894646436e-01    8.293101937e-02
     2329250000   -1.913001835e-01    7.415057719e-02
     2330000000   -1.916049868e-01    6.541720033e-02
     2330750000   -1.909545362e-01    5.493996665e-02
     2331500000   -1.916626841e-01    4.853894934e-02
     2332250000   -1.918907911e-01    4.155024514e-02
     2333000000   -1.906234324e-01    3.226904199e-02
     2333750000   -1.894571930e-01    2.411383577e-02
     2334500000   -1.882547736e-01    1.633351110e-02
     2335250000   -1.871937811e-01    8.319116198e-03
     2336000000   -1.854484975e-01    6.056464626e-04
     2336750000   -1.838466078e-01   -6.391681731e-03
     2337500000   -1.822752059e-01   -1.414629538e-02
     2338250000   -1.802473366e-01   -2.149905264e-02
     2339000000   -1.782882512e-01   -2.832218446e-02
     2339750000   -1.758719236e-01   -3.528143093e-02
     2340500000   -1.730774194e-01   -4.295738041e-02
     2341250000   -1.701841950e-01   -4.941441119e-02
     2342000000   -1.681458056e-01   -5.556586012e-02
     2342750000   -1.647896320e-01   -6.199151650e-02
     2343500000   -1.606703103e-01   -6.881864369e-02
     2344250000   -1.577645242e-01   -7.495378703e-02
     2345000000   -1.535585225e-01   -8.067367226e-02
     2345750000   -1.501429826e-01   -8.642860502e-02
     2346500000   -1.456120908e-01   -9.221155196e-02
     2347250000   -1.410580426e-01   -9.787650406e-02
     2348000000   -1.367749870e-01   -1.033379883e-01
     2348750000   -1.322145760e-01   -1.091129333e-01
     2349500000   -1.269649118e-01   -1.142470539e-01
     2350250000   -1.221525744e-01   -1.194670275e-01
     2351000000   -1.167513952e-01   -1.237573177e-01
     2351750000   -1.114912033e-01   -1.284618080e-01
     2352500000   -1.062273681e-01   -1.327513158e-01
     2353250000   -9.965609014e-02   -1.372133493e-01
     2354000000   -9.352552891e-02   -1.412881315e-01
     2354750000   -8.760498464e-02   -1.447166204e-01
     2355500000   -8.059075475e-02   -1.485058814e-01
     2356250000   -7.424961776e-02   -1.518981606e-01
     2357000000   -6.856322289e-02   -1.554936767e-01
     2357750000   -6.051130220e-02   -1.581005454e-01
     2358500000   -5.376970395e-02   -1.615408510e-01
     2359250000   -4.661090672e-02   -1.636841297e-01
     2360000000   -3.959420323e-02   -1.659657061e-01
     2360750000   -3.188206628e-02   -1.678492129e-01
     2361500000   -2.471854165e-02   -1.692453474e-01
     2362250000   -1.641117781e-02   -1.702439189e-01
     2363000000   -9.052902460e-03   -1.713822037e-01
     2363750000   -1.143039786e-03   -1.707545668e-01
     2364500000    6.638849154e-03   -1.714613885e-01
     2365250000    1.480121911e-02   -1.708360910e-01
     2366000000    2.326350659e-02   -1.701463014e-01
     2366750000    3.107336536e-02   -1.686970145e-01
     2367500000    3.942338750e-02   -1.674106419e-01
     2368250000    4.795183614e-02   -1.654222012e-01
     2369000000    5.594642833e-02   -1.623055786e-01
     2369750000    6.356884539e-02   -1.591822058e-01
     2370500000    7.248888165e-02   -1.560149193e-01
     2371250000    8.097771555e-02   -1.524645984e-01
     2372000000    8.838669956e-02   -1.478289068e-01
     2372750000    9.621684253e-02   -1.426539570e-01
     2373500000    1.041584164e-01   -1.380528361e-01
     2374250000    1.106059849e-01   -1.320596337e-01
     2375000000    1.178165153e-01   -1.259347945e-01
     2375750000    1.250292659e-01   -1.199532822e-01
     2376500000    1.308556348e-01   -1.133679301e-01
     2377250000    1.377668828e-01   -1.059194803e-01
     2378000000    1.422175467e-01   -9.921414405e-02
     2378750000    1.471665353e-01   -9.066095203e-02
     2379500000    1.545648426e-01   -8.196410537e-02
     2380250000    1.574613005e-01   -7.445222139e-02
     2381000000    1.622163355e-01   -6.498216838e-02
     2381750000    1.647617370e-01   -5.669580027e-02
     2382500000    1.692108959e-01   -4.724513367e-02
     2383250000    1.720260382e-01   -3.698311746e-02
     2384000000    1.736259162e-01   -2.681411989e-02
     2384750000    1.756379902e-01   -1.755314320e-02
     2385500000    1.763637364e-01   -7.763469126e-03
     2386250000    1.769151390e-01    2.153749345e-03
     2387000000    1.771012396e-01    1.260794513e-02
     2387750000    1.779365093e-01    2.554083243e-02
     2388500000    1.764242798e-01    3.278553486e-02
     2389250000    1.758321226e-01    4.540501162e-02
     2390000000    1.736935824e-01    5.437865481e-02
     2390750000    1.717283428e-01    6.336008012e-02
     2391500000    1.686019152e-01    7.511667907e-02
     2392250000    1.662062407e-01    8.527883142e-02
     2393000000    1.620290726e-01    9.494187683e-02
     2393750000    1.582578868e-01    1.050502285e-01
     2394500000    1.545601189e-01    1.110069454e-01
     2395250000    1.495804787e-01    1.214236915e-01
     2396000000    1.449892968e-01    1.286990345e-01
     2396750000    1.390058547e-01    1.377063841e-01
     2397500000    1.334012896e-01    1.457520723e-01
     2398250000    1.286652386e-01    1.510502845e-01
     2399000000    1.220354587e-01    1.581771374e-01
     2399750000    1.155882627e-01    1.642178446e-01
     2400500000    1.100884303e-01    1.695284545e-01
     2401250000    1.031950414e-01    1.745301485e-01
     2402000000    9.596083313e-02    1.786233932e-01
     2402750000    8.890461922e-02    1.823037416e-01
     2403500000    8.096505702e-02    1.861001849e-01
     2404250000    7.584542036e-02    1.881782711e-01
     2405000000    6.578454375e-02    1.908844262e-01
     2405750000    5.914063752e-02    1.924275756e-01
     2406500000    5.148579180e-02    1.932850927e-01
     2407250000    4.406041652e-02    1.941941977e-01
     2408000000    3.740762547e-02    1.944326609e-01
     2408750000    3.111467697e-02    1.944129914e-01
     2409500000    2.317391336e-02    1.934849918e-01
     2410250000    1.497847214e-02    1.922442317e-01
     2411000000    8.020908572e-03    1.908347756e-01
     2411750000    5.032737972e-04    1.893354952e-01
     2412500000   -6.667464040e-03    1.869654059e-01
     2413250000   -1.351652667e-02    1.844417751e-01
     2414000000   -2.072560787e-02    1.812919229e-01
     2414750000   -2.568790130e-02    1.791666597e-01
     2415500000   -3.259945661e-02    1.753913462e-01
     2416250000   -3.758452833e-02    1.722728908e-01
     2417000000   -4.292742535e-02    1.684863269e-01
     2417750000   -4.889411479e-02    1.640752107e-01
     2418500000   -5.359964073e-02    1.604885161e-01
     2419250000   -5.862836167e-02    1.562101394e-01
     2420000000   -6.348251551e-02    1.517871916e-01
     2420750000   -6.761671603e-02    1.472764164e-01
     2421500000   -7.181660831e-02    1.428616494e-01
     2422250000   -7.544785738e-02    1.380814463e-01
     2423000000   -7.958189398e-02    1.331232488e-01
     2423750000   -8.239549398e-02    1.283030957e-01
     2424500000   -8.565614372e-02    1.239984110e-01
     2425250000   -8.856616169e-02    1.175110489e-01
     2426000000   -9.121888876e-02    1.121944860e-01
     2426750000   -9.392909706e-02    1.093320996e-01
     2427500000   -9.579673409e-02    1.036563069e-01
     2428250000   -9.720255435e-02    9.753475338e-02
     2429000000   -1.001761258e-01    9.420987219e-02
     2429750000   -1.018951014e-01    8.930967003e-02
     2430500000   -1.028771251e-01    8.418427408e-02
     2431250000   -1.033218801e-01    7.886160165e-02
     2432000000   -1.053848043e-01    7.443763316e-02
     2432750000   -1.075626239e-01    6.998944283e-02
     2433500000   -1.076635718e-01    6.490457803e-02
     2434250000   -1.081173494e-01    6.004354358e-02
     2435000000   -1.101702154e-01    5.580339208e-02
     2435750000   -1.100958809e-01    5.121951550e-02
     2436500000   -1.112986356e-01    4.640973359e-02
     2437250000   -1.111469865e-01    4.212588444e-02
     2438000000   -1.116059050e-01    3.777391836e-02
     2438750000   -1.122056991e-01    3.361437470e-02
     2439500000   -1.124264747e-01    2.929205634e-02
     2440250000   -1.131097302e-01    2.465776168e-02
     2441000000   -1.130523086e-01    2.038668096e-02
     2441750000   -1.127683744e-01    1.669241115e-02
     2442500000   -1.127999797e-01    1.184818707e-02
     2443250000   -1.126736403e-01    7.788931951e-03
     2444000000   -1.125016287e-01    3.654303029e-03
     2444750000   -1.124134958e-01   -9.685709374e-04
     2445500000   -1.120364666e-01   -5.059186835e-03
     2446250000   -1.117653623e-01   -9.095608257e-03
     2447000000   -1.106520817e-01   -1.339674741e-02
     2447750000   -1.100341454e-01   -1.779912226e-02
     2448500000   -1.092625037e-01   -2.191003039e-02
     2449250000   -1.085637286e-01   -2.622870915e-02
     2450000000   -1.069986895e-01   -3.049951419e-02
     2450750000   -1.055629030e-01   -3.458544239e-02
     2451500000   -1.043713391e-01   -3.862276673e-02
     2452250000   -1.026810780e-01   -4.304231703e-02
     2453000000   -1.001533568e-01   -4.678389058e-02
     2453750000   -9.783793986e-02   -5.067713931e-02
     2454500000   -9.601161629e-02   -5.530456454e-02
     2455250000   -9.330022335e-02   -5.928195268e-02
     2456000000   -8.954443038e-02   -6.214093417e-02
     2456750000   -8.698843420e-02   -6.654344499e-02
     2457500000   -8.433708549e-02   -7.112725079e-02
     2458250000   -8.023982495e-02   -7.437644899e-02
     2459000000   -7.619634271e-02   -7.802603394e-02
     2459750000   -7.232351601e-02   -8.168907464e-02
     2460500000   -6.746783853e-02   -8.346877992e-02
     2461250000   -6.389675289e-02   -8.814419061e-02
     2462000000   -5.858090892e-02   -9.051150084e-02
     2462750000   -5.347101390e-02   -9.221677482e-02
     2463500000   -4.809855670e-02   -9.547811747e-02
     2464250000   -4.289683327e-02   -9.777321666e-02
     2465000000   -3.680432960e-02   -1.003720611e-01
     2465750000   -3.148243576e-02   -1.005085185e-01
     2466500000   -2.514313534e-02   -1.034729332e-01
     2467250000   -1.939951815e-02   -1.025607511e-01
     2468000000   -1.212605368e-02   -1.054176092e-01
     2468750000   -6.567612290e-03   -1.039993688e-01
     2469500000    2.733359288e-04   -1.048391163e-01
     2470250000    4.789049737e-03   -1.020954996e-01
     2471000000    1.467709523e-02   -1.040604934e-01
     2471750000    1.943686418e-02   -1.012723595e-01
     2472500000    2.603193372e-02   -1.001243591e-01
     2473250000    3.324124217e-02   -9.793553501e-02
     2474000000    4.024052620e-02   -9.599635750e-02
     2474750000    4.537564516e-02   -9.246050566e-02
     2475500000    5.257100239e-02   -8.919749409e-02
     2476250000    5.881457403e-02   -8.610504121e-02
     2477000000    6.429689378e-02   -8.243989944e-02
     2477750000    7.025234401e-02   -7.766152918e-02
     2478500000    7.705152035e-02   -7.311646640e-02
     2479250000    8.270391822e-02   -6.738492101e-02
     2480000000    8.575019240e-02   -6.277085096e-02
     2480750000    9.231523424e-02   -5.626606569e-02
     2481500000    9.643436968e-02   -5.006805807e-02
     2482250000    1.009587571e-01   -4.351864383e-02
     2483000000    1.039779857e-01   -3.754952922e-02
     2483750000    1.085207537e-01   -2.982534096e-02
     2484500000    1.117641330e-01   -2.325647138e-02
     2485250000    1.150610223e-01   -1.490998827e-02
     2486000000    1.177718714e-01   -7.169304881e-03
     2486750000    1.201542839e-01   -4.729163193e-04
     2487500000    1.218788326e-01    7.995922118e-03
     2488250000    1.240957826e-01    1.494136825e-02
     2489000000    1.253899336e-01    2.259542421e-02
     2489750000    1.258100718e-01    3.018901497e-02
     2490500000    1.266380548e-01    3.837748244e-02
     2491250000    1.267583370e-01    4.559896141e-02
     2492000000    1.266519427e-01    5.285520107e-02
     2492750000    1.263349503e-01    5.942518637e-02
     2493500000    1.250458807e-01    6.586142629e-02
     2494250000    1.236228645e-01    7.218565047e-02
     2495000000    1.209295467e-01    8.002855629e-02
     2495750000    1.186568812e-01    8.499292284e-02
     2496500000    1.171354055e-01    8.965642750e-02
     2497250000    1.136383116e-01    9.560360759e-02
     2498000000    1.093922779e-01    1.006215140e-01
     2498750000    1.053580269e-01    1.053837463e-01
     2499500000    1.020941138e-01    1.085326076e-01
     2500250000    9.860962629e-02    1.115236655e-01
     2501000000    9.130645543e-02    1.155980304e-01
     2501750000    8.783235401e-02    1.181441545e-01
     2502500000    8.305638283e-02    1.196433604e-01
     2503250000    7.661798596e-02    1.218466014e-01
     2504000000    6.877350807e-02    1.237142086e-01
     2504750000    6.482576579e-02    1.249927804e-01
     2505500000    5.849693716e-02    1.262023747e-01
     2506250000    5.201903731e-02    1.260803491e-01
     2507000000    4.604087025e-02    1.266824305e-01
     2507750000    4.063509032e-02    1.266175658e-01
     2508500000    3.366526961e-02    1.262931973e-01
     2509250000    2.784560993e-02    1.255436093e-01
     2510000000    2.109184675e-02    1.236471161e-01
     2510750000    1.480309293e-02    1.223143712e-01
     2511500000    7.931995206e-03    1.192930490e-01
     2512250000    4.323875066e-03    1.187810898e-01
     2513000000   -2.089537680e-03    1.156829223e-01
     2513750000   -7.399798371e-03    1.129097864e-01
     2514500000   -1.202499866e-02    1.100085601e-01
     2515250000   -1.767485961e-02    1.060590148e-01
     2516000000   -2.173601091e-02    1.036946625e-01
     2516750000   -2.668735944e-02    9.963023663e-02
     2517500000   -3.047476709e-02    9.677686542e-02
     2518250000   -3.450431302e-02    9.362429380e-02
     2519000000   -3.797107935e-02    8.928836137e-02
     2519750000   -4.099727795e-02    8.481264114e-02
     2520500000   -4.437419772e-02    8.076663315e-02
     2521250000   -4.722318798e-02    7.740675658e-02
     2522000000   -4.908439144e-02    7.306346297e-02
     2522750000   -5.118925497e-02    6.878723204e-02
     2523500000   -5.300472304e-02    6.465468556e-02
     2524250000   -5.420307443e-02    6.066641212e-02
     2525000000   -5.523915961e-02    5.663060769e-02
     2525750000   -5.619635060e-02    5.289827660e-02
     2526500000   -5.712965131e-02    4.919172078e-02
     2527250000   -5.756626651e-02    4.503091425e-02
     2528000000   -5.754968897e-02    4.117259383e-02
     2528750000   -5.742887408e-02    3.824266046e-02
     2529500000   -5.755296722e-02    3.459525108e-02
     2530250000   -5.596492812e-02    3.092898615e-02
     2531000000   -5.601893365e-02    2.762686089e-02
     2531750000   -5.512338132e-02    2.503945865e-02
     2532500000   -5.416164547e-02    2.212253772e-02
     2533250000   -5.286165327e-02    1.898129843e-02
     2534000000   -5.192835256e-02    1.592832617e-02
     2534750000   -5.020330101e-02    1.366595272e-02
     2535500000   -4.871508107e-02    1.099007018e-02
     2536250000   -4.722705111e-02    8.146477863e-03
     2537000000   -4.584813118e-02    6.196712609e-03
     2537750000   -4.390960559e-02    3.979840316e-03
     2538500000   -4.238271341e-02    1.869742875e-03
     2539250000   -4.086896405e-02    1.658925758e-04
     2540000000   -3.981804103e-02   -1.716687810e-03
     2540750000   -3.766049817e-02   -3.898098832e-03
     2541500000   -3.675102815e-02   -5.079478957e-03
     2542250000   -3.509468958e-02   -6.740446202e-03
     2543000000   -3.342395648e-02   -7.853053510e-03
     2543750000   -3.238101676e-02   -9.106453508e-03
     2544500000   -3.103835322e-02   -9.828325361e-03
     2545250000   -2.977073751e-02   -1.137729269e-02
     2546000000   -2.793622017e-02   -1.216052193e-02
     2546750000   -2.640437707e-02   -1.322519407e-02
     2547500000   -2.491969429e-02   -1.381275896e-02
     2548250000   -2.410836145e-02   -1.481039263e-02
     2549000000   -2.185432613e-02   -1.646854356e-02
     2549750000   -2.214301005e-02   -1.634032838e-02
     2550500000   -2.010329068e-02   -1.734912954e-02
     2551250000   -1.834096760e-02   -1.788271405e-02
     2552000000   -1.691212505e-02   -1.839548722e-02
     2552750000   -1.592319645e-02   -1.921095140e-02
     2553500000   -1.505478565e-02   -1.995845325e-02
     2554250000   -1.273230184e-02   -2.039129660e-02
     2555000000   -1.148897689e-02   -2.132808603e-02
     2555750000   -9.104204364e-03   -2.123509906e-02
     2556500000   -7.543627638e-03   -2.185747586e-02
     2557250000   -5.540233571e-03   -2.307884023e-02
     2558000000   -3.854983486e-03   -2.349917404e-02
     2558750000   -1.276312396e-03   -2.416799776e-02
     2559500000    7.139303489e-04   -2.495777607e-02
     2560250000    2.573873382e-03   -2.480600774e-02
     2561000000    5.694297142e-03   -2.493437193e-02
     2561750000    7.560787722e-03   -2.602839097e-02
     2562500000    9.557289071e-03   -2.760349400e-02
     2563250000    1.285753306e-02   -2.726576664e-02
     2564000000    1.554683223e-02   -2.735312283e-02
     2564750000    1.828095876e-02   -2.759110741e-02
     2565500000    2.126201056e-02   -2.773287334e-02
     2566250000    2.398725785e-02   -2.643305250e-02
     2567000000    2.769009210e-02   -2.752934583e-02
     2567750000    3.066043742e-02   -2.618750744e-02
     2568500000    3.347834200e-02   -2.642766386e-02
     2569250000    3.627872840e-02   -2.586209960e-02
     2570000000    3.993783891e-02   -2.463816851e-02
     2570750000    4.371041805e-02   -2.435164154e-02
     2571500000    4.680545628e-02   -2.352582663e-02
     2572250000    5.025417730e-02   -2.146750316e-02
     2573000000    5.359591171e-02   -1.971189678e-02
     2573750000    5.699261278e-02   -1.840316691e-02
     2574500000    6.088948622e-02   -1.700400934e-02
     2575250000    6.384689361e-02   -1.427069213e-02
     2576000000    6.786998361e-02   -1.161368005e-02
     2576750000    7.120893151e-02   -9.366404265e-03
     2577500000    7.532217354e-02   -5.934832618e-03
     2578250000    7.866661251e-02   -3.298533149e-03
     2579000000    8.169109374e-02   -1.020965501e-04
     2579750000    8.316969872e-02    1.633433043e-03
     2580500000    8.729659021e-02    4.983006511e-03
     2581250000    9.036323428e-02    9.377406910e-03
     2582000000    9.229130298e-02    1.137002278e-02
     2582750000    9.448321164e-02    1.493329555e-02
     2583500000    9.708829969e-02    1.964494213e-02
     2584250000    9.908528626e-02    2.315196022e-02
     2585000000    1.020022705e-01    2.653572895e-02
     2585750000    1.025334075e-01    3.012371063e-02
     2586500000    1.039535627e-01    3.330474719e-02
     2587250000    1.041102037e-01    3.801609203e-02
     2588000000    1.052189246e-01    4.020420462e-02
     2588750000    1.051223353e-01    4.336536303e-02
     2589500000    1.053284332e-01    4.889609665e-02
     2590250000    1.042343378e-01    5.224042013e-02
     2591000000    1.038967893e-01    5.485371128e-02
     2591750000    1.028786078e-01    5.743321776e-02
     2592500000    9.977968037e-02    6.247605011e-02
     2593250000    9.845172614e-02    6.535740942e-02
     2594000000    9.683725238e-02    6.669138372e-02
     2594750000    9.369473159e-02    6.968513131e-02
     2595500000    8.995983750e-02    7.419128716e-02
     2596250000    8.636912704e-02    7.655127347e-02
     2597000000    8.365454525e-02    7.779695839e-02
     2597750000    7.926978171e-02    8.059131354e-02
     2598500000    7.773017883e-02    8.123133332e-02
     2599250000    7.093185931e-02    8.436670899e-02
     2600000000    6.789553165e-02    8.575056493e-02
