! NanoVNA-App
! Date: 2026-05-22 19:48:53
! Start: 2.3GHz Stop: 2.6GHz Points: 401
! S-Parameter data: F S11
# Hz S RI R 50
!     Frequency           S11_Real           S11_Imag
     2300000000    4.029660299e-02    2.480186224e-01
     2300750000    1.642212458e-02    2.509652376e-01
     2301500000   -5.783614703e-03    2.512165010e-01
     2302250000   -3.203340992e-02    2.506412566e-01
     2303000000   -5.609855428e-02    2.469199896e-01
     2303750000   -7.641141117e-02    2.405993193e-01
     2304500000   -1.020910293e-01    2.326196730e-01
     2305250000   -1.225204170e-01    2.229158729e-01
     2306000000   -1.430612206e-01    2.109328359e-01
     2306750000   -1.629177183e-01    1.962390691e-01
     2307500000   -1.799520850e-01    1.807605326e-01
     2308250000   -1.961738020e-01    1.634674519e-01
     2309000000   -2.107601315e-01    1.436295658e-01
     2309750000   -2.228513360e-01    1.238740012e-01
     2310500000   -2.333244383e-01    1.025436372e-01
     2311250000   -2.422503531e-01    8.001676947e-02
     2312000000   -2.485562116e-01    5.726488680e-02
     2312750000   -2.522861958e-01    3.364333883e-02
     2313500000   -2.542531490e-01    9.534848854e-03
     2314250000   -2.550837100e-01   -1.473469101e-02
     2315000000   -2.517088652e-01   -3.961874545e-02
     2315750000   -2.463919371e-01   -6.180725619e-02
     2316500000   -2.393062115e-01   -8.645450324e-02
     2317250000   -2.299593240e-01   -1.062333360e-01
     2318000000   -2.185922712e-01   -1.299403012e-01
     2318750000   -2.046656460e-01   -1.510125101e-01
     2319500000   -1.909745634e-01   -1.661290824e-01
     2320250000   -1.726328880e-01   -1.865353286e-01
     2321000000   -1.546137780e-01   -1.992659420e-01
     2321750000   -1.338050514e-01   -2.155252099e-01
     2322500000   -1.142194048e-01   -2.247371823e-01
     2323250000   -9.093578905e-02   -2.358727306e-01
     2324000000   -6.960108131e-02   -2.419667989e-01
     2324750000   -4.276423156e-02   -2.508753240e-01
     2325500000   -2.136365883e-02   -2.514149845e-01
     2326250000    3.491002833e-03   -2.521898150e-01
     2327000000    2.952688001e-02   -2.521254420e-01
     2327750000    5.251506716e-02   -2.483189851e-01
     2328500000    7.705176622e-02   -2.433581650e-01
     2329250000    9.693614393e-02   -2.347727120e-01
     2330000000    1.186469272e-01   -2.239717096e-01
     2330750000    1.415285468e-01   -2.131751627e-01
     2331500000    1.628147960e-01   -1.976419389e-01
     2332250000    1.813726723e-01   -1.812493950e-01
     2333000000    1.975390464e-01   -1.650721878e-01
     2333750000    2.135587931e-01   -1.455092579e-01
     2334500000    2.245942950e-01   -1.261818409e-01
     2335250000    2.369550616e-01   -1.036834121e-01
     2336000000    2.459414899e-01   -8.134803921e-02
     2336750000    2.532978356e-01   -5.773049220e-02
     2337500000    2.569049597e-01   -3.498255834e-02
     2338250000    2.593982816e-01   -1.023287047e-02
     2339000000    2.601175010e-01    1.631348394e-02
     2339750000    2.573488057e-01    3.917860985e-02
     2340500000    2.529388070e-01    6.528364122e-02
     2341250000    2.461164743e-01    8.620004356e-02
     2342000000    2.377805561e-01    1.100603864e-01
     2342750000    2.268638462e-01    1.324875504e-01
     2343500000    2.138991058e-01    1.533665508e-01
     2344250000    1.989853829e-01    1.718649566e-01
     2345000000    1.818079948e-01    1.920590550e-01
     2345750000    1.628322452e-01    2.091641128e-01
     2346500000    1.433344334e-01    2.243590504e-01
     2347250000    1.230737939e-01    2.359388918e-01
     2348000000    1.007820219e-01    2.460890859e-01
     2348750000    7.618372142e-02    2.561841011e-01
     2349500000    5.324560776e-02    2.626292109e-01
     2350250000    2.722949907e-02    2.673434019e-01
     2351000000    4.436690360e-03    2.691773176e-01
     2351750000   -2.248364128e-02    2.697179914e-01
     2352500000   -4.433479160e-02    2.662328482e-01
     2353250000   -7.233360410e-02    2.624047697e-01
     2354000000   -9.795825183e-02    2.543748617e-01
     2354750000   -1.178816333e-01    2.453391701e-01
     2355500000   -1.399751008e-01    2.336329520e-01
     2356250000   -1.622187793e-01    2.206685394e-01
     2357000000   -1.833082139e-01    2.052650452e-01
     2357750000   -2.024850249e-01    1.871046871e-01
     2358500000   -2.158126086e-01    1.696821451e-01
     2359250000   -2.311177999e-01    1.490290165e-01
     2360000000   -2.439016998e-01    1.276391000e-01
     2360750000   -2.551292181e-01    1.043279693e-01
     2361500000   -2.638202012e-01    8.004634082e-02
     2362250000   -2.689145803e-01    5.681172386e-02
     2363000000   -2.734012306e-01    3.135408461e-02
     2363750000   -2.755303681e-01    4.350127187e-03
     2364500000   -2.745160758e-01   -2.005593292e-02
     2365250000   -2.713254094e-01   -4.594763368e-02
     2366000000   -2.657409310e-01   -6.998774409e-02
     2366750000   -2.580815256e-01   -9.551672637e-02
     2367500000   -2.477238923e-01   -1.186322793e-01
     2368250000   -2.357697636e-01   -1.417885572e-01
     2369000000   -2.220200598e-01   -1.627629399e-01
     2369750000   -2.056841105e-01   -1.838775277e-01
     2370500000   -1.874239892e-01   -2.017498016e-01
     2371250000   -1.683130711e-01   -2.184192985e-01
     2372000000   -1.467032880e-01   -2.352594435e-01
     2372750000   -1.239448041e-01   -2.488897890e-01
     2373500000   -1.008947268e-01   -2.595460713e-01
     2374250000   -7.796500623e-02   -2.678543925e-01
     2375000000   -5.326393619e-02   -2.742293179e-01
     2375750000   -2.650558762e-02   -2.794997990e-01
     2376500000   -6.474778056e-04   -2.811155617e-01
     2377250000    2.809596434e-02   -2.811036706e-01
     2378000000    4.999031872e-02   -2.773543298e-01
     2378750000    8.049429953e-02   -2.726029158e-01
     2379500000    1.031681597e-01   -2.654486895e-01
     2380250000    1.281997114e-01   -2.553595304e-01
     2381000000    1.477936953e-01   -2.442508191e-01
     2381750000    1.749191582e-01   -2.284687161e-01
     2382500000    1.934783310e-01   -2.139271200e-01
     2383250000    2.142793387e-01   -1.942179352e-01
     2384000000    2.298710346e-01   -1.760909110e-01
     2384750000    2.461548299e-01   -1.546582580e-01
     2385500000    2.603713870e-01   -1.313824654e-01
     2386250000    2.710217535e-01   -1.077642217e-01
     2387000000    2.803682685e-01   -8.209495991e-02
     2387750000    2.860154808e-01   -6.074679643e-02
     2388500000    2.919734418e-01   -3.205873072e-02
     2389250000    2.939420342e-01   -6.423696410e-03
     2390000000    2.938163877e-01    1.976576447e-02
     2390750000    2.910786867e-01    4.758296907e-02
     2391500000    2.856767476e-01    7.216495275e-02
     2392250000    2.791234255e-01    9.756550193e-02
     2393000000    2.683990598e-01    1.232064962e-01
     2393750000    2.565718889e-01    1.463023722e-01
     2394500000    2.430042475e-01    1.677133143e-01
     2395250000    2.269198000e-01    1.879492551e-01
     2396000000    2.093874812e-01    2.089890987e-01
     2396750000    1.893258393e-01    2.276392728e-01
     2397500000    1.689539701e-01    2.420597523e-01
     2398250000    1.444675773e-01    2.574598789e-01
     2399000000    1.225962043e-01    2.676300704e-01
     2399750000    9.539691359e-02    2.784303129e-01
     2400500000    7.098501921e-02    2.851511836e-01
     2401250000    4.334776476e-02    2.905820012e-01
     2402000000    1.697985642e-02    2.930676341e-01
     2402750000   -7.969860919e-03    2.916156650e-01
     2403500000   -3.517315164e-02    2.889938056e-01
     2404250000   -6.414403766e-02    2.848353386e-01
     2405000000   -9.115900099e-02    2.775596976e-01
     2405750000   -1.155427396e-01    2.675629854e-01
     2406500000   -1.400822848e-01    2.550720572e-01
     2407250000   -1.616194993e-01    2.421184927e-01
     2408000000   -1.849693656e-01    2.259036005e-01
     2408750000   -2.055905014e-01    2.078030854e-01
     2409500000   -2.249919027e-01    1.879366040e-01
     2410250000   -2.400306612e-01    1.676347703e-01
     2411000000   -2.573811412e-01    1.422735006e-01
     2411750000   -2.689465582e-01    1.200582683e-01
     2412500000   -2.792420685e-01    9.479723871e-02
     2413250000   -2.882308066e-01    6.958924234e-02
     2414000000   -2.929620147e-01    4.419199377e-02
     2414750000   -2.974824011e-01    1.599538513e-02
     2415500000   -2.993525267e-01   -1.198218018e-02
     2416250000   -2.971319556e-01   -3.848429024e-02
     2417000000   -2.937056124e-01   -6.671649218e-02
     2417750000   -2.872210145e-01   -9.224116057e-02
     2418500000   -2.777785361e-01   -1.185156778e-01
     2419250000   -2.677207589e-01   -1.422750503e-01
     2420000000   -2.546387017e-01   -1.656512022e-01
     2420750000   -2.382136583e-01   -1.905578971e-01
     2421500000   -2.223159969e-01   -2.096459121e-01
     2422250000   -2.027450204e-01   -2.282349914e-01
     2423000000   -1.819666028e-01   -2.460326999e-01
     2423750000   -1.594417393e-01   -2.620395422e-01
     2424500000   -1.359445602e-01   -2.765424848e-01
     2425250000   -1.115792394e-01   -2.872641087e-01
     2426000000   -8.399482816e-02   -2.979400158e-01
     2426750000   -5.946224183e-02   -3.037808239e-01
     2427500000   -3.205752373e-02   -3.086101711e-01
     2428250000   -8.869037963e-03   -3.099089563e-01
     2429000000    2.343918383e-02   -3.099390864e-01
     2429750000    4.813298583e-02   -3.070780039e-01
     2430500000    7.633643597e-02   -3.013729155e-01
     2431250000    1.019937322e-01   -2.943377495e-01
     2432000000    1.290901899e-01   -2.830902338e-01
     2432750000    1.487233490e-01   -2.733613849e-01
     2433500000    1.768877655e-01   -2.568711042e-01
     2434250000    1.982859522e-01   -2.412439436e-01
     2435000000    2.167063057e-01   -2.238701880e-01
     2435750000    2.383523583e-01   -2.021688819e-01
     2436500000    2.547846437e-01   -1.803247184e-01
     2437250000    2.684743106e-01   -1.584359556e-01
     2438000000    2.796933949e-01   -1.376023591e-01
     2438750000    2.919735610e-01   -1.095608696e-01
     2439500000    2.997676730e-01   -8.430977911e-02
     2440250000    3.051536679e-01   -5.811341107e-02
     2441000000    3.090788424e-01   -2.922490425e-02
     2441750000    3.091976643e-01   -4.244246054e-03
     2442500000    3.079467416e-01    2.260624804e-02
     2443250000    3.035020828e-01    4.962433502e-02
     2444000000    2.976786196e-01    7.513930649e-02
     2444750000    2.886609733e-01    1.008430198e-01
     2445500000    2.775233686e-01    1.250964999e-01
     2446250000    2.653799057e-01    1.476141810e-01
     2447000000    2.508133352e-01    1.695328951e-01
     2447750000    2.325986326e-01    1.912370771e-01
     2448500000    2.141921520e-01    2.100732625e-01
     2449250000    1.946378201e-01    2.268982828e-01
     2450000000    1.723619252e-01    2.428290546e-01
     2450750000    1.495704502e-01    2.562550902e-01
     2451500000    1.253803968e-01    2.678557038e-01
     2452250000    9.930997342e-02    2.772767544e-01
     2453000000    7.359695435e-02    2.843329012e-01
     2453750000    4.653382674e-02    2.893984020e-01
     2454500000    2.306565456e-02    2.904137969e-01
     2455250000   -4.266513046e-03    2.912222743e-01
     2456000000   -3.123901784e-02    2.881787121e-01
     2456750000   -5.942960083e-02    2.833315432e-01
     2457500000   -8.201333880e-02    2.765575349e-01
     2458250000   -1.055409610e-01    2.694334984e-01
     2459000000   -1.331004053e-01    2.555289865e-01
     2459750000   -1.525333673e-01    2.434948087e-01
     2460500000   -1.740927547e-01    2.286565453e-01
     2461250000   -1.932099611e-01    2.119169980e-01
     2462000000   -2.134964317e-01    1.915625185e-01
     2462750000   -2.295829803e-01    1.713566929e-01
     2463500000   -2.422512472e-01    1.516255140e-01
     2464250000   -2.557428777e-01    1.284280717e-01
     2465000000   -2.654255331e-01    1.062000841e-01
     2465750000   -2.739605904e-01    7.949923724e-02
     2466500000   -2.797599733e-01    5.805712938e-02
     2467250000   -2.837632298e-01    3.081303090e-02
     2468000000   -2.846942842e-01    3.863760736e-03
     2468750000   -2.844171822e-01   -1.939993910e-02
     2469500000   -2.814182043e-01   -4.300609231e-02
     2470250000   -2.761564553e-01   -6.811334193e-02
     2471000000   -2.680561841e-01   -9.350308031e-02
     2471750000   -2.594972253e-01   -1.150505170e-01
     2472500000   -2.483166158e-01   -1.365905702e-01
     2473250000   -2.341586947e-01   -1.581757814e-01
     2474000000   -2.196968943e-01   -1.767135262e-01
     2474750000   -2.027113885e-01   -1.941699386e-01
     2475500000   -1.837638021e-01   -2.118903100e-01
     2476250000   -1.635154933e-01   -2.251202166e-01
     2477000000   -1.450608820e-01   -2.366079241e-01
     2477750000   -1.210531816e-01   -2.477054149e-01
     2478500000   -9.907404333e-02   -2.565822303e-01
     2479250000   -7.522884011e-02   -2.628607452e-01
     2480000000   -5.306079239e-02   -2.666071951e-01
     2480750000   -2.668902650e-02   -2.686579227e-01
     2481500000   -4.165595863e-03   -2.689038217e-01
     2482250000    1.989091560e-02   -2.667228580e-01
     2483000000    4.295546934e-02   -2.622422278e-01
     2483750000    6.691043079e-02   -2.557796240e-01
     2484500000    8.923749626e-02   -2.474685162e-01
     2485250000    1.096166819e-01   -2.378086150e-01
     2486000000    1.298714876e-01   -2.252624780e-01
     2486750000    1.492813677e-01   -2.115370035e-01
     2487500000    1.668197513e-01   -1.970152110e-01
     2488250000    1.826308519e-01   -1.794209629e-01
     2489000000    1.970680505e-01   -1.611505151e-01
     2489750000    2.102383673e-01   -1.407471597e-01
     2490500000    2.210308015e-01   -1.213423982e-01
     2491250000    2.301225513e-01   -9.793735296e-02
     2492000000    2.370414585e-01   -7.920209318e-02
     2492750000    2.423609197e-01   -5.590010807e-02
     2493500000    2.449696958e-01   -3.339382634e-02
     2494250000    2.462060750e-01   -9.777128696e-03
     2495000000    2.457229048e-01    1.171579305e-02
     2495750000    2.392379194e-01    3.701281548e-02
     2496500000    2.335001081e-01    6.067174301e-02
     2497250000    2.270827293e-01    8.022124320e-02
     2498000000    2.186701298e-01    1.002428681e-01
     2498750000    2.080551088e-01    1.192543283e-01
     2499500000    1.957323700e-01    1.380427629e-01
     2500250000    1.824905127e-01    1.548942029e-01
     2501000000    1.665013134e-01    1.700764894e-01
     2501750000    1.487293988e-01    1.849896610e-01
     2502500000    1.333626658e-01    1.970398426e-01
     2503250000    1.168904006e-01    2.067376673e-01
     2504000000    9.288306534e-02    2.170465738e-01
     2504750000    7.554353029e-02    2.235141397e-01
     2505500000    5.496712774e-02    2.292241305e-01
     2506250000    3.205575794e-02    2.318497449e-01
     2507000000    1.031775959e-02    2.338064462e-01
     2507750000   -6.955219433e-03    2.335764170e-01
     2508500000   -2.870710380e-02    2.316134572e-01
     2509250000   -5.216708407e-02    2.262516916e-01
     2510000000   -7.041022927e-02    2.207895517e-01
     2510750000   -8.812285215e-02    2.145671844e-01
     2511500000   -1.091302186e-01    2.021883130e-01
     2512250000   -1.250439137e-01    1.917121708e-01
     2513000000   -1.422235817e-01    1.786736101e-01
     2513750000   -1.574122161e-01    1.648965776e-01
     2514500000   -1.695972532e-01    1.508522481e-01
     2515250000   -1.821743846e-01    1.333473474e-01
     2516000000   -1.920226812e-01    1.177973077e-01
     2516750000   -2.016251832e-01    9.845869988e-02
     2517500000   -2.091877013e-01    8.048195392e-02
     2518250000   -2.142249495e-01    5.962746590e-02
     2519000000   -2.181640565e-01    3.953792900e-02
     2519750000   -2.204042673e-01    2.083236538e-02
     2520500000   -2.199248523e-01    3.796381134e-05
     2521250000   -2.179967612e-01   -1.957411319e-02
     2522000000   -2.147907168e-01   -3.942127898e-02
     2522750000   -2.093047649e-01   -5.852122977e-02
     2523500000   -2.018772066e-01   -7.764988393e-02
     2524250000   -1.938854307e-01   -9.545481950e-02
     2525000000   -1.838341206e-01   -1.117858961e-01
     2525750000   -1.725305170e-01   -1.273162812e-01
     2526500000   -1.592526436e-01   -1.426413059e-01
     2527250000   -1.461990625e-01   -1.552413702e-01
     2528000000   -1.304463595e-01   -1.687690467e-01
     2528750000   -1.155835912e-01   -1.783557683e-01
     2529500000   -9.696801007e-02   -1.880429685e-01
     2530250000   -8.023564517e-02   -1.958304197e-01
     2531000000   -6.215182692e-02   -2.008617967e-01
     2531750000   -4.280422255e-02   -2.055360526e-01
     2532500000   -2.547184378e-02   -2.081371695e-01
     2533250000   -6.474564783e-03   -2.089103907e-01
     2534000000    1.292340364e-02   -2.086351365e-01
     2534750000    3.153503686e-02   -2.056399286e-01
     2535500000    4.906618595e-02   -2.011677027e-01
     2536250000    6.583546847e-02   -1.967489868e-01
     2537000000    8.396475017e-02   -1.888718903e-01
     2537750000    9.993580729e-02   -1.808545887e-01
     2538500000    1.160334200e-01   -1.703139991e-01
     2539250000    1.297693253e-01   -1.591712236e-01
     2540000000    1.436707377e-01   -1.452942491e-01
     2540750000    1.549142152e-01   -1.333560944e-01
     2541500000    1.656065583e-01   -1.184759885e-01
     2542250000    1.755587906e-01   -1.029020622e-01
     2543000000    1.835355312e-01   -8.780535311e-02
     2543750000    1.889780164e-01   -7.135283947e-02
     2544500000    1.939506382e-01   -5.384714156e-02
     2545250000    1.974385232e-01   -3.704218939e-02
     2546000000    1.985710263e-01   -1.863559522e-02
     2546750000    1.995838881e-01   -3.106246004e-03
     2547500000    1.980881393e-01    1.361181401e-02
     2548250000    1.947570145e-01    3.076290712e-02
     2549000000    1.913449466e-01    4.587627202e-02
     2549750000    1.842626184e-01    6.356790662e-02
     2550500000    1.790861338e-01    7.680205256e-02
     2551250000    1.673776954e-01    9.345746785e-02
     2552000000    1.593462378e-01    1.048956588e-01
     2552750000    1.489576250e-01    1.180919409e-01
     2553500000    1.383279115e-01    1.291378587e-01
     2554250000    1.221098825e-01    1.407185495e-01
     2555000000    1.120830178e-01    1.482187361e-01
     2555750000    9.627132118e-02    1.567678005e-01
     2556500000    8.067347854e-02    1.640760303e-01
     2557250000    6.536990404e-02    1.684587300e-01
     2558000000    5.268058181e-02    1.728416085e-01
     2558750000    3.549332172e-02    1.747425944e-01
     2559500000    1.939563081e-02    1.758981794e-01
     2560250000    4.571225028e-03    1.753374934e-01
     2561000000   -9.655115195e-03    1.747671217e-01
     2561750000   -2.550672181e-02    1.705934405e-01
     2562500000   -3.946280107e-02    1.674388349e-01
     2563250000   -5.352128297e-02    1.606887281e-01
     2564000000   -6.764444709e-02    1.533138305e-01
     2564750000   -7.980363071e-02    1.444347203e-01
     2565500000   -9.114642441e-02    1.362224221e-01
     2566250000   -1.016305983e-01    1.269464344e-01
     2567000000   -1.113515720e-01    1.162835583e-01
     2567750000   -1.200057566e-01    1.063112170e-01
     2568500000   -1.273334324e-01    9.208577871e-02
     2569250000   -1.345426589e-01    8.052521199e-02
     2570000000   -1.395072490e-01    6.495764107e-02
     2570750000   -1.434458196e-01    5.313951150e-02
     2571500000   -1.463019848e-01    3.886490688e-02
     2572250000   -1.473039836e-01    2.525843866e-02
     2573000000   -1.474515945e-01    1.135501545e-02
     2573750000   -1.465209275e-01   -2.250458347e-03
     2574500000   -1.448450685e-01   -1.537168212e-02
     2575250000   -1.419628412e-01   -2.826474048e-02
     2576000000   -1.371958107e-01   -4.083830491e-02
     2576750000   -1.321080327e-01   -5.283948779e-02
     2577500000   -1.260655075e-01   -6.379040331e-02
     2578250000   -1.192604825e-01   -7.359166443e-02
     2579000000   -1.102537438e-01   -8.403481543e-02
     2579750000   -1.022265628e-01   -9.231251478e-02
     2580500000   -9.269247949e-02   -9.974148870e-02
     2581250000   -8.287490159e-02   -1.071356684e-01
     2582000000   -7.222139835e-02   -1.124391109e-01
     2582750000   -6.228932366e-02   -1.172751039e-01
     2583500000   -5.025681853e-02   -1.209793091e-01
     2584250000   -3.934789822e-02   -1.236414537e-01
     2585000000   -2.734425105e-02   -1.253924668e-01
     2585750000   -1.478309836e-02   -1.246740445e-01
     2586500000   -4.188210238e-03   -1.253010184e-01
     2587250000    7.414103020e-03   -1.225534901e-01
     2588000000    1.835387386e-02   -1.218685508e-01
     2588750000    2.903795242e-02   -1.175683215e-01
     2589500000    3.953800350e-02   -1.127379090e-01
     2590250000    4.850814864e-02   -1.087204814e-01
     2591000000    5.731702223e-02   -1.034097373e-01
     2591750000    6.526271999e-02   -9.735886753e-02
     2592500000    7.291594148e-02   -8.944983035e-02
     2593250000    7.935091853e-02   -8.151250333e-02
     2594000000    8.592706174e-02   -7.387996465e-02
     2594750000    9.009464085e-02   -6.460297108e-02
     2595500000    9.518599510e-02   -5.753286183e-02
     2596250000    9.719785303e-02   -4.701957852e-02
     2597000000    9.986764193e-02   -3.813817352e-02
     2597750000    1.010494456e-01   -2.862210386e-02
     2598500000    1.022308320e-01   -2.007995360e-02
     2599250000    1.005526111e-01   -9.787702002e-03
     2600000000    9.997644275e-02   -1.769965980e-03
