! NanoVNA-App
! Date: 2026-05-22 19:49:48
! Start: 4.8GHz Stop: 6GHz Points: 401
! S-Parameter data: F S11
# Hz S RI R 50
!     Frequency           S11_Real           S11_Imag
     4800000000   -2.602931261e-01    3.474430740e-01
     4803000000   -3.663694263e-01    2.329808176e-01
     4806000000   -4.235085249e-01    9.058425575e-02
     4809000000   -4.240342677e-01   -6.793082505e-02
     4812000000   -3.761501908e-01   -2.113657892e-01
     4815000000   -2.759134769e-01   -3.295913041e-01
     4818000000   -1.458616704e-01   -4.042831361e-01
     4821000000    8.241462638e-04   -4.291015565e-01
     4824000000    1.522685587e-01   -3.967943490e-01
     4827000000    2.808975279e-01   -3.202362359e-01
     4830000000    3.749156594e-01   -1.989372820e-01
     4833000000    4.200727344e-01   -5.667844415e-02
     4836000000    4.103537500e-01    9.620137513e-02
     4839000000    3.507915437e-01    2.315191776e-01
     4842000000    2.458026558e-01    3.318472803e-01
     4845000000    1.193125322e-01    4.052723348e-01
     4848000000   -4.090467095e-02    4.154904485e-01
     4851000000   -1.828916371e-01    3.732304275e-01
     4854000000   -3.029157519e-01    2.876889706e-01
     4857000000   -3.843667209e-01    1.633128226e-01
     4860000000   -4.149481952e-01    1.369313709e-02
     4863000000   -3.938051164e-01   -1.309727281e-01
     4866000000   -3.234786093e-01   -2.588531971e-01
     4869000000   -2.138872296e-01   -3.563689291e-01
     4872000000   -7.653275877e-02   -4.066821933e-01
     4875000000    8.024070412e-02   -4.000869393e-01
     4878000000    2.098647654e-01   -3.576025963e-01
     4881000000    3.201738000e-01   -2.521401644e-01
     4884000000    3.854333162e-01   -1.272789538e-01
     4887000000    4.062273502e-01    1.477257814e-02
     4890000000    3.780099750e-01    1.535430998e-01
     4893000000    2.929955423e-01    2.772743106e-01
     4896000000    1.793346852e-01    3.611148596e-01
     4899000000    4.039685428e-02    3.972450793e-01
     4902000000   -9.844817221e-02    3.894964159e-01
     4905000000   -2.305049598e-01    3.257566690e-01
     4908000000   -3.273522854e-01    2.215357274e-01
     4911000000   -3.819402456e-01    9.171999991e-02
     4914000000   -3.909967244e-01   -4.685411230e-02
     4917000000   -3.425967097e-01   -1.826102436e-01
     4920000000   -2.659346163e-01   -2.902517617e-01
     4923000000   -1.387838274e-01   -3.585870266e-01
     4926000000   -6.230894942e-03   -3.842227161e-01
     4929000000    1.279067248e-01   -3.593207002e-01
     4932000000    2.419008166e-01   -2.948011160e-01
     4935000000    3.255398571e-01   -1.866313666e-01
     4938000000    3.690830767e-01   -6.185013056e-02
     4941000000    3.605747819e-01    7.469096035e-02
     4944000000    3.153321147e-01    1.942234784e-01
     4947000000    2.204852700e-01    2.853716016e-01
     4950000000    1.037376374e-01    3.486768305e-01
     4953000000   -2.592455596e-02    3.573399484e-01
     4956000000   -1.481117755e-01    3.212514222e-01
     4959000000   -2.497919947e-01    2.476616353e-01
     4962000000   -3.187254965e-01    1.429262906e-01
     4965000000   -3.460231125e-01    2.093032934e-02
     4968000000   -3.291558325e-01   -1.011253074e-01
     4971000000   -2.677231133e-01   -2.090692520e-01
     4974000000   -1.749160290e-01   -2.862222493e-01
     4977000000   -6.100429967e-02   -3.285755217e-01
     4980000000    5.934826285e-02   -3.254473507e-01
     4983000000    1.693285108e-01   -2.785343230e-01
     4986000000    2.599946260e-01   -2.033444196e-01
     4989000000    3.109460473e-01   -9.517557174e-02
     4992000000    3.201351464e-01    1.979300939e-02
     4995000000    2.903881669e-01    1.302854717e-01
     4998000000    2.245946974e-01    2.240924984e-01
     5001000000    1.283454299e-01    2.866470516e-01
     5004000000    1.862865128e-02    3.152903020e-01
     5007000000   -8.905372024e-02    2.952439189e-01
     5010000000   -1.872684211e-01    2.420440465e-01
     5013000000   -2.625920177e-01    1.600012034e-01
     5016000000   -2.928831279e-01    5.717695504e-02
     5019000000   -2.940618396e-01   -5.040434375e-02
     5022000000   -2.576887906e-01   -1.517961770e-01
     5025000000   -1.842941046e-01   -2.267880142e-01
     5028000000   -9.177414328e-02   -2.756533027e-01
     5031000000    1.060415525e-02   -2.875491679e-01
     5034000000    1.113919318e-01   -2.614903450e-01
     5037000000    1.918642968e-01   -2.023930252e-01
     5040000000    2.528538704e-01   -1.190307811e-01
     5043000000    2.717520893e-01   -2.505184524e-02
     5046000000    2.627090216e-01    7.555272430e-02
     5049000000    2.149883360e-01    1.602650285e-01
     5052000000    1.436196715e-01    2.209691256e-01
     5055000000    5.501047522e-02    2.571507692e-01
     5058000000   -3.846136853e-02    2.567140162e-01
     5061000000   -1.239365488e-01    2.231949270e-01
     5064000000   -1.915039867e-01    1.625517607e-01
     5067000000   -2.337973863e-01    8.189534396e-02
     5070000000   -2.434714735e-01   -5.002647173e-03
     5073000000   -2.216638625e-01   -9.051514417e-02
     5076000000   -1.714471430e-01   -1.614891738e-01
     5079000000   -1.026508585e-01   -2.072005719e-01
     5082000000   -2.212199382e-02   -2.269280553e-01
     5085000000    6.168532372e-02   -2.164115161e-01
     5088000000    1.302503049e-01   -1.781624854e-01
     5091000000    1.824583411e-01   -1.170241237e-01
     5094000000    2.104797512e-01   -4.490514472e-02
     5097000000    2.073816657e-01    3.495117649e-02
     5100000000    1.805705279e-01    1.019947603e-01
     5103000000    1.309177130e-01    1.558917016e-01
     5106000000    6.528715789e-02    1.888280660e-01
     5109000000   -6.186957005e-03    1.961074024e-01
     5112000000   -7.226211578e-02    1.757337898e-01
     5115000000   -1.298957765e-01    1.303675622e-01
     5118000000   -1.629099995e-01    8.116482943e-02
     5121000000   -1.760808527e-01    9.310289286e-03
     5124000000   -1.681741029e-01   -4.907898977e-02
     5127000000   -1.283957213e-01   -1.085268781e-01
     5130000000   -8.435926586e-02   -1.435259581e-01
     5133000000   -2.779481001e-02   -1.611931622e-01
     5136000000    3.288791329e-02   -1.579536647e-01
     5139000000    8.661270142e-02   -1.331120580e-01
     5142000000    1.222515628e-01   -9.211728722e-02
     5145000000    1.455342025e-01   -4.025423899e-02
     5148000000    1.473004222e-01    1.387733221e-02
     5151000000    1.262678206e-01    6.464905292e-02
     5154000000    9.338052571e-02    1.036639884e-01
     5157000000    4.822499305e-02    1.264411956e-01
     5160000000    4.701369908e-04    1.342191547e-01
     5163000000   -4.888814688e-02    1.189154387e-01
     5166000000   -8.465149999e-02    9.013357013e-02
     5169000000   -1.082621813e-01    5.794361606e-02
     5172000000   -1.170618236e-01    1.230970304e-02
     5175000000   -1.105553135e-01   -2.845437638e-02
     5178000000   -8.740480989e-02   -6.367552280e-02
     5181000000   -5.583808571e-02   -8.821447939e-02
     5184000000   -1.746585220e-02   -9.578558058e-02
     5187000000    1.933619380e-02   -9.330990165e-02
     5190000000    5.091098323e-02   -7.673464715e-02
     5193000000    7.211941481e-02   -5.063723400e-02
     5196000000    8.246725053e-02   -1.969742030e-02
     5199000000    7.423289865e-02    1.958475262e-02
     5202000000    6.881066412e-02    4.113983735e-02
     5205000000    4.291510954e-02    6.099903584e-02
     5208000000    1.589409634e-02    7.142502815e-02
     5211000000   -1.058604475e-02    6.977695227e-02
     5214000000   -3.571511433e-02    5.882547051e-02
     5217000000   -5.374133587e-02    3.909395635e-02
     5220000000   -6.064003706e-02    1.296941563e-02
     5223000000   -5.939134955e-02   -1.044723112e-02
     5226000000   -4.551607370e-02   -2.984878793e-02
     5229000000   -2.609166689e-02   -4.497362673e-02
     5232000000   -4.007555544e-03   -4.996672645e-02
     5235000000    1.374985650e-02   -4.841343313e-02
     5238000000    3.366329893e-02   -3.536360338e-02
     5241000000    4.491077363e-02   -1.608022302e-02
     5244000000    4.553270712e-02    4.560065456e-03
     5247000000    4.065218195e-02    2.469471283e-02
     5250000000    2.845263109e-02    3.663242608e-02
     5253000000    1.334335934e-02    4.608595371e-02
     5256000000   -1.246010140e-02    4.537273943e-02
     5259000000   -2.298532799e-02    4.426503554e-02
     5262000000   -4.536464810e-02    2.480436116e-02
     5265000000   -5.334644020e-02    6.329038180e-03
     5268000000   -5.238375813e-02   -1.773735881e-02
     5271000000   -4.479140043e-02   -3.337739035e-02
     5274000000   -2.055354044e-02   -5.445497856e-02
     5277000000   -9.351981804e-03   -5.700489134e-02
     5280000000    1.720045879e-02   -5.640705675e-02
     5283000000    4.229700193e-02   -4.325268790e-02
     5286000000    5.209181830e-02   -2.828882448e-02
     5289000000    6.005517021e-02   -6.184794009e-03
     5292000000    5.666551366e-02    2.190083265e-02
     5295000000    4.418094829e-02    4.160624370e-02
     5298000000    2.848499641e-02    5.527820066e-02
     5301000000    1.038148417e-03    6.492223591e-02
     5304000000   -2.430904470e-02    6.206739321e-02
     5307000000   -4.799753428e-02    4.938662425e-02
     5310000000   -6.794205308e-02    2.759616263e-02
     5313000000   -7.490813732e-02    2.860185923e-03
     5316000000   -7.227426767e-02   -2.773847803e-02
     5319000000   -5.843848735e-02   -5.287873000e-02
     5322000000   -3.810148314e-02   -7.306808978e-02
     5325000000   -8.320578374e-03   -8.490863442e-02
     5328000000    2.070020884e-02   -8.302938938e-02
     5331000000    5.122756213e-02   -7.207383215e-02
     5334000000    7.663872838e-02   -4.498597607e-02
     5337000000    8.691569418e-02   -1.925236732e-02
     5340000000    8.957927674e-02    1.318998262e-02
     5343000000    7.881477475e-02    4.383905232e-02
     5346000000    5.767308548e-02    7.077750564e-02
     5349000000    2.858364023e-02    8.809293061e-02
     5352000000   -2.528321929e-04    9.637168795e-02
     5355000000   -4.524494708e-02    8.434808254e-02
     5358000000   -7.023648918e-02    6.933560222e-02
     5361000000   -8.981429040e-02    4.269784689e-02
     5364000000   -9.930471331e-02    1.578176953e-02
     5367000000   -9.079474211e-02   -3.318161517e-02
     5370000000   -8.128295839e-02   -5.738737434e-02
     5373000000   -5.345742404e-02   -8.308641613e-02
     5376000000   -1.148173399e-02   -9.508741647e-02
     5379000000    2.316431515e-02   -9.873671830e-02
     5382000000    6.048084050e-02   -8.232136816e-02
     5385000000    8.546964079e-02   -5.497709289e-02
     5388000000    9.955081344e-02   -1.484812517e-02
     5391000000    1.066370085e-01    1.095635537e-02
     5394000000    9.565424174e-02    4.779639840e-02
     5397000000    6.891530007e-02    8.220049739e-02
     5400000000    3.350253776e-02    1.012477651e-01
     5403000000    2.103717998e-03    1.118174046e-01
     5406000000   -3.967446834e-02    1.050202176e-01
     5409000000   -7.563441992e-02    8.102675527e-02
     5412000000   -1.008368507e-01    5.511422828e-02
     5415000000   -1.133208126e-01    1.523969043e-02
     5418000000   -1.140510663e-01   -2.655918151e-02
     5421000000   -9.222128242e-02   -6.500350684e-02
     5424000000   -7.221037894e-02   -9.639652073e-02
     5427000000   -3.700942546e-02   -1.164050549e-01
     5430000000    1.071692165e-02   -1.182881892e-01
     5433000000    5.214075744e-02   -1.056709588e-01
     5436000000    8.386740834e-02   -7.438700646e-02
     5439000000    1.095143855e-01   -5.233653262e-02
     5442000000    1.177212745e-01   -6.325266790e-03
     5445000000    1.134485081e-01    3.477169573e-02
     5448000000    9.087619931e-02    7.056713104e-02
     5451000000    7.132651657e-02    1.065405458e-01
     5454000000    2.102630772e-02    1.121058539e-01
     5457000000   -1.926323026e-02    1.189346761e-01
     5460000000   -6.164683402e-02    1.081406996e-01
     5463000000   -9.294467419e-02    7.854168117e-02
     5466000000   -1.144720539e-01    4.156135395e-02
     5469000000   -1.261124611e-01   -1.434123405e-04
     5472000000   -1.133459434e-01   -4.451342300e-02
     5475000000   -9.639040381e-02   -8.367802203e-02
     5478000000   -5.426073819e-02   -1.020800844e-01
     5481000000   -2.132374607e-02   -1.291287839e-01
     5484000000    2.542851679e-02   -1.202096120e-01
     5487000000    6.615465134e-02   -1.072569862e-01
     5490000000    9.986834228e-02   -7.676293701e-02
     5493000000    1.238856092e-01   -3.858284280e-02
     5496000000    1.233003214e-01    5.364981480e-03
     5499000000    1.213061288e-01    5.318674818e-02
     5502000000    9.291021526e-02    8.477431536e-02
     5505000000    6.395154446e-02    1.194833741e-01
     5508000000    1.869410276e-02    1.284827739e-01
     5511000000   -2.460194193e-02    1.260698438e-01
     5514000000   -6.663737446e-02    1.131602302e-01
     5517000000   -1.014432535e-01    8.256256580e-02
     5520000000   -1.212769151e-01    4.301849008e-02
     5523000000   -1.203046367e-01    5.268868525e-03
     5526000000   -1.271807551e-01   -4.901838303e-02
     5529000000   -9.884025902e-02   -7.168101519e-02
     5532000000   -6.843079627e-02   -1.084109396e-01
     5535000000   -2.698445320e-02   -1.260006577e-01
     5538000000    1.842062920e-02   -1.328800023e-01
     5541000000    5.284488574e-02   -1.142973155e-01
     5544000000    9.339964390e-02   -9.164910018e-02
     5547000000    1.106308624e-01   -5.680692568e-02
     5550000000    1.216529533e-01   -1.770483889e-02
     5553000000    1.244097352e-01    3.047787026e-02
     5556000000    1.038664430e-01    6.982102245e-02
     5559000000    7.641813904e-02    9.798755497e-02
     5562000000    4.386142269e-02    1.082209945e-01
     5565000000    1.238187688e-04    1.191035360e-01
     5568000000   -4.148478806e-02    1.086247638e-01
     5571000000   -7.461009920e-02    9.119080007e-02
     5574000000   -1.048220843e-01    5.929991230e-02
     5577000000   -1.125001460e-01    2.697742917e-02
     5580000000   -1.172285378e-01   -2.586482279e-02
     5583000000   -1.016957611e-01   -4.764054716e-02
     5586000000   -7.768021524e-02   -8.172713220e-02
     5589000000   -5.012201145e-02   -9.889636189e-02
     5592000000   -1.103654969e-02   -1.061010063e-01
     5595000000    2.663093060e-02   -1.046303883e-01
     5598000000    5.147131532e-02   -9.134025872e-02
     5601000000    8.251801878e-02   -6.205398217e-02
     5604000000    9.431044012e-02   -3.719788045e-02
     5607000000    9.833803028e-02   -1.033809036e-02
     5610000000    8.612039685e-02    3.956516087e-02
     5613000000    8.337802440e-02    5.126667395e-02
     5616000000    4.899414256e-02    7.710344344e-02
     5619000000    2.184570581e-02    8.643334359e-02
     5622000000   -6.459951866e-03    8.581712097e-02
     5625000000   -3.509714082e-02    7.928889245e-02
     5628000000   -5.792551115e-02    6.664158404e-02
     5631000000   -7.270971686e-02    3.396756202e-02
     5634000000   -8.037050068e-02    5.048055667e-03
     5637000000   -7.243906707e-02   -2.736824006e-02
     5640000000   -6.815636903e-02   -4.741498455e-02
     5643000000   -6.100620702e-02   -6.664782017e-02
     5646000000   -2.249786071e-02   -7.956060022e-02
     5649000000   -1.460878993e-03   -8.610456437e-02
     5652000000    3.363944218e-02   -7.442700118e-02
     5655000000    5.219097063e-02   -7.674386352e-02
     5658000000    6.935611367e-02   -3.685515746e-02
     5661000000    8.227407187e-02   -1.562299579e-02
     5664000000    7.917191833e-02    1.190776564e-02
     5667000000    7.521818578e-02    3.926466033e-02
     5670000000    6.188255921e-02    6.062641367e-02
     5673000000    3.355876356e-02    7.383820415e-02
     5676000000    8.870580234e-03    8.488481492e-02
     5679000000   -1.837952435e-02    8.971448988e-02
     5682000000   -4.687253013e-02    7.900986820e-02
     5685000000   -6.713916361e-02    5.995649844e-02
     5688000000   -7.770225406e-02    3.251269460e-02
     5691000000   -8.214789629e-02    4.994162824e-03
     5694000000   -8.330567181e-02   -2.450657263e-02
     5697000000   -6.860379130e-02   -4.649053887e-02
     5700000000   -5.674619228e-02   -7.788789272e-02
     5703000000   -2.579421364e-02   -7.676617801e-02
     5706000000    1.926976140e-03   -8.451385051e-02
     5709000000    3.515627980e-02   -8.808055520e-02
     5712000000    4.358633608e-02   -5.993792787e-02
     5715000000    6.966125220e-02   -4.496945441e-02
     5718000000    8.139736950e-02   -1.759165712e-02
     5721000000    8.707462996e-02    1.276326925e-02
     5724000000    7.313387096e-02    3.647982329e-02
     5727000000    5.534581468e-02    6.080127880e-02
     5730000000    2.910073474e-02    7.956188172e-02
     5733000000    1.935361070e-03    8.050025254e-02
     5736000000   -3.458697721e-02    8.207618445e-02
     5739000000   -5.360830948e-02    6.597320735e-02
     5742000000   -7.752606273e-02    4.657327011e-02
     5745000000   -9.104071558e-02    1.659204811e-02
     5748000000   -8.809171617e-02   -3.567997133e-03
     5751000000   -8.360686898e-02   -4.683200642e-02
     5754000000   -6.963197142e-02   -5.223804712e-02
     5757000000   -3.203894570e-02   -9.153714031e-02
     5760000000   -1.249547955e-02   -8.821501583e-02
     5763000000    1.714861766e-02   -8.745532483e-02
     5766000000    5.005049333e-02   -7.422448695e-02
     5769000000    6.654351950e-02   -5.638596043e-02
     5772000000    8.536369354e-02   -2.360264957e-02
     5775000000    8.909834176e-02    1.938890782e-03
     5778000000    8.270577341e-02    3.257204220e-02
     5781000000    6.964889169e-02    5.477176234e-02
     5784000000    3.584687784e-02    8.214744925e-02
     5787000000    7.387587335e-03    8.841534704e-02
     5790000000   -2.190671675e-02    8.443156630e-02
     5793000000   -4.906444252e-02    7.226514071e-02
     5796000000   -7.486282289e-02    4.626552761e-02
     5799000000   -8.622574806e-02    1.998915337e-02
     5802000000   -8.802513033e-02   -1.019034535e-02
     5805000000   -7.857848704e-02   -4.470308498e-02
     5808000000   -5.893633515e-02   -6.879971921e-02
     5811000000   -3.495765477e-02   -8.455129713e-02
     5814000000   -4.998729564e-03   -9.444463253e-02
     5817000000    3.203840554e-02   -8.652435243e-02
     5820000000    5.930512398e-02   -6.857559830e-02
     5823000000    7.969327271e-02   -4.418715462e-02
     5826000000    9.112725407e-02   -8.602924645e-03
     5829000000    9.391462058e-02    1.483520400e-02
     5832000000    7.203288376e-02    5.435698479e-02
     5835000000    5.122911930e-02    7.706128061e-02
     5838000000    2.490570396e-02    9.116497636e-02
     5841000000   -1.683245413e-02    9.367893636e-02
     5844000000   -4.355801642e-02    9.369716793e-02
     5847000000   -7.701189816e-02    5.566033348e-02
     5850000000   -9.873776138e-02    4.218089581e-02
     5853000000   -1.046416983e-01    6.561084883e-04
     5856000000   -9.840764105e-02   -3.641808033e-02
     5859000000   -8.470733464e-02   -6.752873957e-02
     5862000000   -4.355356470e-02   -9.239389002e-02
     5865000000   -1.382094342e-02   -1.069209278e-01
     5868000000    2.560063824e-02   -1.052861139e-01
     5871000000    6.254678220e-02   -9.291984886e-02
     5874000000    9.417066723e-02   -6.642701477e-02
     5877000000    1.105989292e-01   -2.942010574e-02
     5880000000    1.088011935e-01    1.403758489e-02
     5883000000    1.146646738e-01    5.082761124e-02
     5886000000    7.015681267e-02    8.153716475e-02
     5889000000    4.703935981e-02    1.100987643e-01
     5892000000    6.967937108e-03    1.219183952e-01
     5895000000   -3.671980277e-02    1.112404615e-01
     5898000000   -7.650171965e-02    9.366494417e-02
     5901000000   -1.059526950e-01    6.450829655e-02
     5904000000   -1.076401398e-01    1.411967818e-02
     5907000000   -1.237726137e-01   -2.507157810e-02
     5910000000   -1.093568355e-01   -6.647867709e-02
     5913000000   -7.149931788e-02   -9.714762866e-02
     5916000000   -3.841469437e-02   -1.255064905e-01
     5919000000    1.047251280e-02   -1.128927842e-01
     5922000000    5.643908307e-02   -1.200276315e-01
     5925000000    9.105295688e-02   -9.005458653e-02
     5928000000    1.202211156e-01   -5.246973783e-02
     5931000000    1.314437389e-01   -7.433278020e-03
     5934000000    1.202796325e-01    3.838681430e-02
     5937000000    1.006754562e-01    7.998561114e-02
     5940000000    6.881698966e-02    1.118110269e-01
     5943000000    2.082511410e-02    1.238608733e-01
     5946000000   -2.546583861e-02    1.308144182e-01
     5949000000   -6.985156983e-02    1.102360860e-01
     5952000000   -1.039871797e-01    7.624401897e-02
     5955000000   -1.359907389e-01    3.740874305e-02
     5958000000   -1.284668446e-01   -1.247378346e-02
     5961000000   -1.148713082e-01   -5.361653119e-02
     5964000000   -9.888008982e-02   -1.101239994e-01
     5967000000   -5.203878880e-02   -1.227916181e-01
     5970000000   -2.886236878e-03   -1.386387795e-01
     5973000000    3.946632519e-02   -1.211056486e-01
     5976000000    9.142000973e-02   -1.031001136e-01
     5979000000    1.225876883e-01   -6.255692989e-02
     5982000000    1.279046088e-01   -1.574497484e-02
     5985000000    1.268826872e-01    3.245541453e-02
     5988000000    1.096749231e-01    8.120851219e-02
     5991000000    7.601372153e-02    1.249874905e-01
     5994000000    3.034996986e-02    1.276193410e-01
     5997000000   -2.433033474e-02    1.411489844e-01
     6000000000   -7.227951288e-02    1.223261803e-01
