! NanoVNA-App
! Date: 2026-05-22 19:49:07
! Start: 4.8GHz Stop: 6GHz Points: 401
! S-Parameter data: F S11
# Hz S RI R 50
!     Frequency           S11_Real           S11_Imag
     4800000000   -3.009985089e-01    2.999963164e-01
     4803000000   -3.850544989e-01    1.783303022e-01
     4806000000   -4.197682738e-01    3.379113972e-02
     4809000000   -4.008934796e-01   -1.214025393e-01
     4812000000   -3.398362696e-01   -2.445493490e-01
     4815000000   -2.312946469e-01   -3.475497961e-01
     4818000000   -9.930048138e-02   -4.027310014e-01
     4821000000    5.444432423e-02   -4.077986181e-01
     4824000000    1.886288524e-01   -3.642237484e-01
     4827000000    3.027435541e-01   -2.752388418e-01
     4830000000    3.766869605e-01   -1.493487060e-01
     4833000000    4.018665850e-01   -7.746035233e-03
     4836000000    3.776255250e-01    1.353560388e-01
              0    3.135597408e-01   -1.006575301e-02
              0    3.148523569e-01   -8.054571226e-03
     4845000000    6.261769682e-02    3.887155056e-01
     4848000000   -7.764085382e-02    3.825238645e-01
     4851000000   -2.044842243e-01    3.276124001e-01
     4854000000   -3.048306108e-01    2.346796691e-01
     4857000000   -3.647415340e-01    1.071732193e-01
     4860000000   -3.777221441e-01   -2.458024211e-02
     4863000000   -3.401779830e-01   -1.602043062e-01
     4866000000   -2.596691847e-01   -2.661279142e-01
     4869000000   -1.596920192e-01   -3.396742642e-01
     4872000000   -1.838585548e-02   -3.686479032e-01
     4875000000    1.024768502e-01   -3.563306034e-01
     4878000000    2.217633575e-01   -2.960039675e-01
     4881000000    3.068814874e-01   -1.944093555e-01
     4884000000    3.520028591e-01   -7.388402522e-02
     4887000000    3.524452746e-01    5.854958296e-02
     4890000000    3.057030141e-01    1.781204641e-01
     4893000000    2.209617049e-01    2.728001177e-01
     4896000000    1.104369536e-01    3.349301219e-01
     4899000000   -1.453489531e-02    3.485388160e-01
     4902000000   -1.364682764e-01    3.201955259e-01
     4905000000   -2.393385172e-01    2.496207654e-01
     4908000000   -3.091821671e-01    1.443339884e-01
     4911000000   -3.405396640e-01    3.092101216e-02
     4914000000   -3.272649348e-01   -9.060981125e-02
     4917000000   -2.709946334e-01   -1.990773976e-01
     4920000000   -1.821228564e-01   -2.802507579e-01
     4923000000   -6.841696054e-02   -3.216730952e-01
     4926000000    4.946400970e-02   -3.251126111e-01
     4929000000    1.591092497e-01   -2.880747616e-01
     4932000000    2.466948628e-01   -2.102762461e-01
     4935000000    3.024160266e-01   -1.037132740e-01
     4938000000    3.181501031e-01    9.366073646e-03
     4941000000    2.943846285e-01    1.200159043e-01
     4944000000    2.364724576e-01    2.145992368e-01
     4947000000    1.393401921e-01    2.751589417e-01
     4950000000    3.189518303e-02    3.107290566e-01
     4953000000   -7.703214884e-02    2.974442840e-01
     4956000000   -1.750592440e-01    2.453198284e-01
     4959000000   -2.499173731e-01    1.629744321e-01
     4962000000   -2.896663249e-01    6.545460224e-02
     4965000000   -2.923043966e-01   -4.188171029e-02
     4968000000   -2.568109035e-01   -1.421468556e-01
     4971000000   -1.878842860e-01   -2.237875164e-01
     4974000000   -9.619481862e-02   -2.719034553e-01
     4977000000    6.434979849e-03   -2.871915698e-01
     4980000000    1.064163521e-01   -2.678683102e-01
     4983000000    1.907689869e-01   -2.079362273e-01
     4986000000    2.508264780e-01   -1.282871217e-01
     4989000000    2.778280377e-01   -3.028220497e-02
     4992000000    2.658547759e-01    6.938444823e-02
     4995000000    2.212624252e-01    1.542494148e-01
     4998000000    1.515276581e-01    2.203981131e-01
     5001000000    5.962070823e-02    2.560065985e-01
     5004000000   -3.499473259e-02    2.608832121e-01
     5007000000   -1.211515516e-01    2.277549058e-01
     5010000000   -1.921554506e-01    1.665740609e-01
     5013000000   -2.373954058e-01    8.557153493e-02
     5016000000   -2.493439019e-01   -3.374397987e-03
     5019000000   -2.306938469e-01   -9.079436958e-02
     5022000000   -1.815134436e-01   -1.633176804e-01
     5025000000   -1.104578376e-01   -2.149080932e-01
     5028000000   -2.678998187e-02   -2.368382514e-01
     5031000000    5.659702793e-02   -2.276690155e-01
     5034000000    1.315208375e-01   -1.879397333e-01
     5037000000    1.890393645e-01   -1.293689609e-01
     5040000000    2.209743857e-01   -5.222060159e-02
     5043000000    2.181180716e-01    2.712700143e-02
     5046000000    1.918738037e-01    1.027559042e-01
     5049000000    1.405720860e-01    1.623958647e-01
     5052000000    7.171632349e-02    1.991434693e-01
     5055000000   -1.995926723e-03    2.076098323e-01
     5058000000   -7.510066032e-02    1.917112619e-01
     5061000000   -1.334620565e-01    1.505959034e-01
     5064000000   -1.731581986e-01    9.209679812e-02
     5067000000   -1.927974075e-01    2.288297564e-02
     5070000000   -1.830174327e-01   -4.350250959e-02
     5073000000   -1.507322788e-01   -1.056333482e-01
     5076000000   -1.005771011e-01   -1.488257796e-01
     5079000000   -3.974320367e-02   -1.709299386e-01
     5082000000    2.438581549e-02   -1.699940264e-01
     5085000000    8.197665960e-02   -1.469128132e-01
     5088000000    1.284450591e-01   -1.047295332e-01
     5091000000    1.512609571e-01   -5.391163006e-02
     5094000000    1.584530920e-01    6.799225230e-03
     5097000000    1.422959119e-01    5.730362982e-02
     5100000000    1.075186953e-01    1.056161374e-01
     5103000000    6.413149089e-02    1.308335662e-01
     5106000000    9.227287956e-03    1.404136717e-01
     5109000000   -3.843241185e-02    1.304867119e-01
     5112000000   -8.220677078e-02    1.018398330e-01
     5115000000   -1.068084612e-01    6.612574309e-02
     5118000000   -1.193928719e-01    1.816751994e-02
     5121000000   -1.136930510e-01   -2.361717075e-02
     5124000000   -9.273224324e-02   -6.296670437e-02
     5127000000   -5.728381500e-02   -9.228815138e-02
     5130000000   -1.727695391e-02   -1.023665071e-01
     5133000000    1.535081398e-02   -9.889094532e-02
     5136000000    5.576050654e-02   -8.081162721e-02
     5139000000    7.860317826e-02   -5.146817863e-02
     5142000000    8.905306458e-02   -2.010427043e-02
     5145000000    8.620581776e-02    1.854377799e-02
     5148000000    6.898514926e-02    4.702959210e-02
     5151000000    4.310717806e-02    6.798258424e-02
     5154000000    1.351283770e-02    7.861258835e-02
     5157000000   -2.078433335e-02    7.419505715e-02
     5160000000   -4.705028236e-02    6.033976376e-02
     5163000000   -6.813383102e-02    3.663668036e-02
     5166000000   -7.346828282e-02    1.045945007e-02
     5169000000   -7.030174881e-02   -1.840574108e-02
     5172000000   -5.599700287e-02   -4.700093716e-02
     5175000000   -3.317232057e-02   -5.964103714e-02
     5178000000   -6.506255595e-04   -7.050988078e-02
     5181000000    2.064828761e-02   -6.515840441e-02
     5184000000    4.683393613e-02   -5.062856898e-02
     5187000000    5.655207485e-02   -3.119078651e-02
     5190000000    6.688910723e-02    3.659028560e-03
     5193000000    5.940474197e-02    2.194732986e-02
     5196000000    4.501391947e-02    4.532907903e-02
     5199000000    2.205095254e-02    5.807803199e-02
     5202000000   -5.084234290e-03    6.434798986e-02
     5205000000   -2.761695534e-02    5.617426336e-02
     5208000000   -5.027517304e-02    4.082611948e-02
     5211000000   -6.118312106e-02    1.841642521e-02
     5214000000   -6.356143206e-02   -6.724502426e-03
     5217000000   -5.665865913e-02   -3.154879063e-02
     5220000000   -3.838764876e-02   -5.278198421e-02
     5223000000   -1.645884290e-02   -6.035361066e-02
     5226000000    1.232188568e-02   -6.576626748e-02
     5229000000    3.593739495e-02   -5.437536165e-02
     5232000000    5.706439167e-02   -3.524547443e-02
     5235000000    6.831842661e-02   -1.039436366e-02
     5238000000    6.616279483e-02    1.697713695e-02
     5241000000    5.685720965e-02    4.439239204e-02
     5244000000    3.598926216e-02    6.334742159e-02
     5247000000    5.723705981e-03    8.169596642e-02
     5250000000   -1.709811762e-02    7.521908730e-02
     5253000000   -5.055723712e-02    6.424085796e-02
     5256000000   -7.126576453e-02    4.255337268e-02
     5259000000   -8.427054435e-02    1.379733533e-02
     5262000000   -8.725462854e-02   -2.242648974e-02
     5265000000   -7.477035373e-02   -5.283057690e-02
     5268000000   -5.304923281e-02   -6.975366920e-02
     5271000000   -2.029832453e-02   -9.263384342e-02
     5274000000    1.161101181e-02   -9.087730199e-02
     5277000000    5.312741920e-02   -8.220478147e-02
     5280000000    7.004939765e-02   -5.887253582e-02
     5283000000    9.734065086e-02   -2.491251566e-02
     5286000000    9.307291359e-02    8.823852986e-03
     5289000000    8.769455552e-02    4.831107706e-02
     5292000000    6.479552388e-02    7.806725800e-02
     5295000000    2.937533148e-02    1.011696532e-01
     5298000000   -4.164425191e-03    1.031341553e-01
     5301000000   -4.589962959e-02    9.830078483e-02
     5304000000   -7.936124504e-02    7.658551633e-02
     5307000000   -1.017557159e-01    4.297384247e-02
     5310000000   -1.139296591e-01    1.147017581e-03
     5313000000   -1.084894687e-01   -4.082715884e-02
     5316000000   -8.744455129e-02   -8.385714144e-02
     5319000000   -5.244135857e-02   -1.100841761e-01
     5322000000   -1.423313748e-02   -1.233347580e-01
     5325000000    3.000761196e-02   -1.226656586e-01
     5328000000    7.422734797e-02   -1.053951010e-01
     5331000000    1.061938182e-01   -7.563422620e-02
     5334000000    1.285104603e-01   -3.197290376e-02
     5337000000    1.315190792e-01    1.191794686e-02
     5340000000    1.178327054e-01    5.765651166e-02
     5343000000    9.044342488e-02    9.641809016e-02
     5346000000    4.851312563e-02    1.227966473e-01
     5349000000    2.207432117e-04    1.321108788e-01
     5352000000   -4.685888812e-02    1.218640506e-01
     5355000000   -8.563540876e-02    9.922683984e-02
     5358000000   -1.174633875e-01    5.980350822e-02
     5361000000   -1.356068403e-01    1.125341002e-02
     5364000000   -1.272604764e-01   -3.148425370e-02
     5367000000   -1.086833179e-01   -7.704696059e-02
     5370000000   -7.433494925e-02   -1.115271896e-01
     5373000000   -2.100549825e-02   -1.331929713e-01
     5376000000    2.700608037e-02   -1.343453377e-01
     5379000000    6.989017874e-02   -1.201297045e-01
     5382000000    1.093720496e-01   -8.663014323e-02
     5385000000    1.258072704e-01   -5.286374688e-02
     5388000000    1.393618584e-01    7.465887815e-03
     5391000000    1.271152347e-01    5.666035786e-02
     5394000000    1.033444554e-01    9.562387317e-02
     5397000000    5.550475791e-02    1.270246506e-01
     5400000000    5.915257148e-03    1.393372864e-01
     5403000000   -3.837938607e-02    1.342222691e-01
     5406000000   -8.581681550e-02    1.100658104e-01
     5409000000   -1.226806715e-01    7.046914101e-02
     5412000000   -1.402679682e-01    2.836316265e-02
     5415000000   -1.377376616e-01   -3.059332632e-02
     5418000000   -1.263585389e-01   -7.333284616e-02
     5421000000   -8.432550728e-02   -1.159881279e-01
     5424000000   -4.889874905e-02   -1.387963146e-01
     5427000000    4.721557256e-03   -1.456430554e-01
     5430000000    6.075337157e-02   -1.304771304e-01
     5433000000    1.023815572e-01   -1.049301177e-01
     5436000000    1.333421916e-01   -6.925851107e-02
     5439000000    1.455167979e-01   -1.413594279e-02
     5442000000    1.401328146e-01    4.114818573e-02
     5445000000    1.183805987e-01    8.682321757e-02
     5448000000    8.012951165e-02    1.219293326e-01
     5451000000    3.512267396e-02    1.443770677e-01
     5454000000   -2.039628476e-02    1.426522583e-01
     5457000000   -6.893242151e-02    1.304624230e-01
     5460000000   -1.093523726e-01    9.991145134e-02
     5463000000   -1.339621693e-01    5.549671873e-02
     5466000000   -1.486633867e-01    8.152699098e-03
     5469000000   -1.377030462e-01   -4.630556330e-02
     5472000000   -1.169366837e-01   -8.889982104e-02
     5475000000   -7.940334082e-02   -1.252399683e-01
     5478000000   -2.805751376e-02   -1.378960013e-01
     5481000000    2.251961268e-02   -1.345424950e-01
     5484000000    7.094243169e-02   -1.262415648e-01
     5487000000    1.057842374e-01   -9.298156947e-02
     5490000000    1.361584216e-01   -5.131306499e-02
     5493000000    1.428297013e-01   -1.479759812e-03
     5496000000    1.333153993e-01    4.494702071e-02
     5499000000    1.039509326e-01    8.704754710e-02
     5502000000    7.119672000e-02    1.205619797e-01
     5505000000    2.728098631e-02    1.364748478e-01
     5508000000   -2.303298190e-02    1.400098354e-01
     5511000000   -6.476041675e-02    1.179621145e-01
     5514000000   -1.021747440e-01    9.061852098e-02
     5517000000   -1.198178753e-01    4.610446841e-02
     5520000000   -1.265447289e-01    3.031212371e-03
     5523000000   -1.193032786e-01   -3.826760501e-02
     5526000000   -1.050896868e-01   -8.177755773e-02
     5529000000   -6.736945361e-02   -1.079491302e-01
     5532000000   -2.613263763e-02   -1.159566790e-01
     5535000000    1.428183820e-02   -1.207720041e-01
     5538000000    5.312389880e-02   -1.059495360e-01
     5541000000    8.492913097e-02   -8.039014041e-02
     5544000000    9.624310583e-02   -4.596858472e-02
     5547000000    1.232006475e-01   -2.320194617e-03
     5550000000    1.014318839e-01    2.613900043e-02
     5553000000    8.949978650e-02    6.319329143e-02
     5556000000    6.182499975e-02    9.211801738e-02
     5559000000    2.823406085e-02    1.000610590e-01
     5562000000   -1.038760319e-02    1.038291678e-01
     5565000000   -4.203013331e-02    9.072716534e-02
     5568000000   -6.950688362e-02    6.918238848e-02
     5571000000   -8.227311820e-02    4.063484818e-02
     5574000000   -9.981063008e-02    6.931199227e-03
     5577000000   -8.939073980e-02   -2.137447707e-02
     5580000000   -7.491871715e-02   -4.396378994e-02
     5583000000   -5.476425961e-02   -6.535971910e-02
     5586000000   -1.926913671e-02   -9.248185903e-02
     5589000000   -8.645345457e-03   -8.054368943e-02
     5592000000    3.092711978e-02   -7.834584266e-02
     5595000000    5.640230328e-02   -6.353658438e-02
     5598000000    7.006344944e-02   -4.491668940e-02
     5601000000    7.048517466e-02   -2.721690014e-02
     5604000000    7.729918510e-02    1.672413945e-02
     5607000000    6.645898521e-02    3.825842962e-02
     5610000000    4.975353181e-02    5.029726401e-02
     5613000000    3.459924459e-02    5.943755060e-02
     5616000000    9.014217183e-03    6.810895354e-02
     5619000000   -1.541796792e-02    6.352340430e-02
     5622000000   -4.083700851e-02    5.003974214e-02
     5625000000   -4.911446571e-02    3.694250807e-02
     5628000000   -5.862659961e-02    2.290465310e-02
     5631000000   -6.139806658e-02   -1.011108235e-02
     5634000000   -5.431815609e-02   -1.859979145e-02
     5637000000   -4.426157475e-02   -3.752501681e-02
     5640000000   -1.868978329e-02   -5.166929960e-02
     5643000000   -1.839793287e-02   -5.511047691e-02
     5646000000    1.733307727e-02   -5.037163571e-02
     5649000000    2.363170683e-02   -5.229439586e-02
     5652000000    4.422525689e-02   -2.953727171e-02
     5655000000    5.096068233e-02   -2.543961816e-02
     5658000000    5.714918673e-02   -7.677740417e-03
     5661000000    5.406696722e-02    1.151472889e-02
     5664000000    4.719848931e-02    2.783178911e-02
     5667000000    3.327726945e-02    4.066073149e-02
     5670000000    2.210572921e-02    4.930440709e-02
     5673000000    3.201365471e-03    4.964272305e-02
     5676000000   -1.436849684e-02    4.947993532e-02
     5679000000   -2.778540179e-02    4.582974315e-02
     5682000000   -4.088437930e-02    3.392792866e-02
     5685000000   -5.144957453e-02    1.947370544e-02
     5688000000   -4.559095204e-02    5.303448997e-04
     5691000000   -5.068987980e-02   -1.529924851e-02
     5694000000   -4.236096144e-02   -3.141625598e-02
     5697000000   -2.766999044e-02   -3.754410893e-02
     5700000000   -1.971456967e-02   -5.678693950e-02
     5703000000   -5.851316473e-06   -4.688519239e-02
     5706000000    1.743110642e-02   -5.120863765e-02
     5709000000    3.295972571e-02   -3.963398188e-02
     5712000000    4.745240882e-02   -3.172350675e-02
     5715000000    5.544757843e-02   -1.327076554e-02
     5718000000    5.014875904e-02    3.697014879e-03
     5721000000    5.372915417e-02    2.248082124e-02
     5724000000    4.102584720e-02    3.512803093e-02
     5727000000    2.792800590e-02    4.845122620e-02
     5730000000    1.168517396e-02    5.265508965e-02
     5733000000   -8.216761984e-03    5.344093964e-02
     5736000000   -2.903767303e-02    5.055105686e-02
     5739000000   -4.402747005e-02    4.000166059e-02
     5742000000   -5.492414162e-02    2.333710156e-02
     5745000000   -5.938257277e-02    4.775220063e-03
     5748000000   -5.324157700e-02   -6.904905196e-03
     5751000000   -4.936877266e-02   -3.978995234e-02
     5754000000   -3.675313666e-02   -4.744777083e-02
     5757000000   -1.645077392e-02   -5.993729830e-02
     5760000000    2.779763425e-03   -6.210478023e-02
     5763000000    3.537032008e-02   -5.937960371e-02
     5766000000    3.711409494e-02   -5.040042847e-02
     5769000000    6.064762920e-02   -2.970489115e-02
     5772000000    6.935631484e-02   -3.731583944e-03
     5775000000    6.646613032e-02    9.340994060e-03
     5778000000    6.055055186e-02    2.583354153e-02
     5781000000    4.218876734e-02    5.075333267e-02
     5784000000    1.700691693e-02    6.481637061e-02
     5787000000   -4.446498118e-03    6.442417204e-02
     5790000000   -1.503318548e-02    6.338389963e-02
     5793000000   -4.189480469e-02    4.864743724e-02
     5796000000   -5.555558205e-02    3.283549100e-02
     5799000000   -6.576796621e-02    7.357267663e-03
     5802000000   -6.631160527e-02   -1.498323679e-02
     5805000000   -5.480300635e-02   -4.273832217e-02
     5808000000   -4.467516020e-02   -5.669404194e-02
     5811000000   -1.531745121e-02   -6.938478351e-02
     5814000000    9.832243086e-05   -7.357896864e-02
     5817000000    3.053367697e-02   -6.654660404e-02
     5820000000    4.566518590e-02   -5.668623745e-02
     5823000000    6.461751461e-02   -3.271254152e-02
     5826000000    7.396993786e-02   -9.994460270e-03
     5829000000    6.686210632e-02    2.285815217e-02
     5832000000    6.311813742e-02    4.288910702e-02
     5835000000    3.441527858e-02    6.315189600e-02
     5838000000    1.764426008e-02    7.357351482e-02
     5841000000   -1.308583561e-02    7.468409091e-02
     5844000000   -4.183565453e-02    6.011476368e-02
     5847000000   -5.880486593e-02    4.703777656e-02
     5850000000   -7.241750509e-02    2.260027453e-02
     5853000000   -7.831530273e-02   -2.869375283e-03
     5856000000   -7.791689038e-02   -2.658048272e-02
     5859000000   -5.302527547e-02   -5.407574400e-02
     5862000000   -3.117297962e-02   -7.061301172e-02
     5865000000   -3.281878773e-03   -7.902610302e-02
     5868000000    2.562204190e-02   -7.348632812e-02
     5871000000    5.322334543e-02   -7.015713304e-02
     5874000000    7.275923342e-02   -3.611819074e-02
     5877000000    8.531074971e-02   -1.145516150e-02
     5880000000    8.580834419e-02    1.833185181e-02
     5883000000    7.695591450e-02    4.718006402e-02
     5886000000    5.363520235e-02    7.277651876e-02
     5889000000    1.881301962e-02    8.260881156e-02
     5892000000   -4.787891172e-03    9.284724295e-02
     5895000000   -3.837884963e-02    7.068748772e-02
     5898000000   -6.509473920e-02    6.546114385e-02
     5901000000   -8.782196790e-02    4.425067082e-02
     5904000000   -9.082608670e-02    3.525330685e-03
     5907000000   -9.003977478e-02   -2.855872549e-02
     5910000000   -6.362621486e-02   -5.432655290e-02
     5913000000   -4.710307717e-02   -8.388894051e-02
     5916000000   -1.556454226e-02   -9.446805716e-02
     5919000000    2.020077594e-02   -9.300490469e-02
     5922000000    5.324052274e-02   -7.586923242e-02
     5925000000    8.004050702e-02   -5.638730526e-02
     5928000000    9.862515330e-02   -2.568397857e-02
     5931000000    1.012050807e-01    1.243510004e-02
     5934000000    8.899794519e-02    4.884674028e-02
     5937000000    6.239915267e-02    7.327473909e-02
     5940000000    3.877399862e-02    1.004952043e-01
     5943000000   -1.453237724e-03    9.936910123e-02
     5946000000   -3.890917078e-02    1.010564119e-01
     5949000000   -7.455758750e-02    8.375625312e-02
     5952000000   -9.442096949e-02    4.729598016e-02
     5955000000   -1.118990108e-01    1.326371729e-02
     5958000000   -9.870944172e-02   -2.546362393e-02
     5961000000   -8.850781620e-02   -6.333530694e-02
     5964000000   -6.627373397e-02   -9.575468302e-02
     5967000000   -2.675425075e-02   -1.101196483e-01
     5970000000    1.472057309e-02   -1.153216213e-01
     5973000000    5.246949568e-02   -1.004685089e-01
     5976000000    7.114122063e-02   -6.396453083e-02
     5979000000    1.162656322e-01   -3.997946531e-02
     5982000000    1.074041277e-01    1.136903011e-04
     5985000000    1.039762124e-01    4.168527946e-02
     5988000000    8.412428200e-02    7.901459932e-02
     5991000000    4.997344315e-02    1.065552384e-01
     5994000000    7.129117846e-03    1.192340031e-01
     5997000000   -3.392486274e-02    1.132761836e-01
     6000000000   -7.418052107e-02    9.467180818e-02
