! NanoVNA-App
! Date: 2026-05-22 19:49:37
! Start: 2.3GHz Stop: 0Hz Points: 401
! S-Parameter data: F S11
# Hz S RI R 50
!     Frequency           S11_Real           S11_Imag
     2300000000    6.885137409e-02    2.629743218e-01
     2300750000    4.489401728e-02    2.674005926e-01
     2301500000    1.653784700e-02    2.722511888e-01
     2302250000   -8.092731237e-03    2.733490765e-01
     2303000000   -3.489159048e-02    2.716762125e-01
     2303750000   -6.031880900e-02    2.677516043e-01
     2304500000   -8.405166119e-02    2.611378133e-01
     2305250000   -1.106060296e-01    2.524339855e-01
     2306000000   -1.348066926e-01    2.412930280e-01
     2306750000   -1.551494598e-01    2.281881571e-01
     2307500000   -1.768028438e-01    2.130475640e-01
     2308250000   -1.976695061e-01    1.955092251e-01
     2309000000   -2.147963196e-01    1.763467342e-01
     2309750000   -2.298537344e-01    1.559852213e-01
     2310500000   -2.448750287e-01    1.334224790e-01
     2311250000   -2.558135390e-01    1.105287895e-01
     2312000000   -2.660872638e-01    8.575418591e-02
     2312750000   -2.737660706e-01    5.938722193e-02
     2313500000   -2.770471871e-01    3.569391742e-02
     2314250000   -2.798715234e-01    9.554165415e-03
     2315000000   -2.799257040e-01   -1.569370367e-02
     2315750000   -2.774567306e-01   -4.403909668e-02
     2316500000   -2.727529407e-01   -6.942213327e-02
     2317250000   -2.649260461e-01   -9.607374668e-02
     2318000000   -2.553408742e-01   -1.188552305e-01
     2318750000   -2.432713956e-01   -1.408225149e-01
     2319500000   -2.294129878e-01   -1.629934013e-01
     2320250000   -2.122799903e-01   -1.859526038e-01
     2321000000   -1.943685412e-01   -2.038498670e-01
     2321750000   -1.746917218e-01   -2.198841274e-01
     2322500000   -1.523918062e-01   -2.378853559e-01
     2323250000   -1.307300925e-01   -2.499494851e-01
     2324000000   -1.056863740e-01   -2.608734071e-01
     2324750000   -8.251377940e-02   -2.691022158e-01
     2325500000   -5.386159942e-02   -2.767610252e-01
     2326250000   -2.974846214e-02   -2.783591151e-01
     2327000000   -2.219635528e-03   -2.812656462e-01
     2327750000    2.691569366e-02   -2.814167738e-01
     2328500000    5.177213252e-02   -2.780322134e-01
     2329250000    7.404488325e-02   -2.710233927e-01
     2330000000    1.006490886e-01   -2.636655569e-01
     2330750000    1.291463077e-01   -2.531230748e-01
     2331500000    1.524260044e-01   -2.402727753e-01
     2332250000    1.728277206e-01   -2.256593704e-01
     2333000000    1.951008141e-01   -2.086800486e-01
     2333750000    2.130853236e-01   -1.899191290e-01
     2334500000    2.314568907e-01   -1.693482846e-01
     2335250000    2.450301647e-01   -1.482192278e-01
     2336000000    2.593767941e-01   -1.246306822e-01
     2336750000    2.697859406e-01   -1.005003378e-01
     2337500000    2.783624232e-01   -7.482048124e-02
     2338250000    2.840958238e-01   -4.930209741e-02
     2339000000    2.882388234e-01   -2.056584135e-02
     2339750000    2.889462709e-01    4.569421988e-03
     2340500000    2.876164317e-01    3.200097755e-02
     2341250000    2.834950089e-01    5.797263235e-02
     2342000000    2.769838572e-01    8.385448158e-02
     2342750000    2.685734630e-01    1.108310223e-01
     2343500000    2.577293813e-01    1.324265301e-01
     2344250000    2.431650609e-01    1.618669927e-01
     2345000000    2.286165208e-01    1.829961091e-01
     2345750000    2.117433995e-01    2.008653432e-01
     2346500000    1.896454692e-01    2.246871293e-01
     2347250000    1.725147516e-01    2.366476357e-01
     2348000000    1.464570612e-01    2.564179301e-01
     2348750000    1.228539795e-01    2.683824301e-01
     2349500000    9.768878669e-02    2.790264189e-01
     2350250000    7.339863479e-02    2.859541476e-01
     2351000000    4.352499545e-02    2.945920825e-01
     2351750000    1.808308065e-02    2.980376780e-01
     2352500000   -7.560165133e-03    2.987158298e-01
     2353250000   -3.928348050e-02    2.975516021e-01
     2354000000   -6.387110054e-02    2.930620015e-01
     2354750000   -9.158568084e-02    2.871041596e-01
     2355500000   -1.178250164e-01    2.775869966e-01
     2356250000   -1.423543245e-01    2.664807737e-01
     2357000000   -1.634802222e-01    2.540802062e-01
     2357750000   -1.915009469e-01    2.365885377e-01
     2358500000   -2.068333030e-01    2.201389074e-01
     2359250000   -2.287236601e-01    2.000106573e-01
     2360000000   -2.448387742e-01    1.794669479e-01
     2360750000   -2.614110112e-01    1.556717604e-01
     2361500000   -2.754186690e-01    1.301208436e-01
     2362250000   -2.833304405e-01    1.086790934e-01
     2363000000   -2.930428386e-01    7.941227406e-02
     2363750000   -2.988753915e-01    5.184954405e-02
     2364500000   -3.021640480e-01    2.455158159e-02
     2365250000   -3.030904830e-01   -4.403728992e-03
     2366000000   -3.014446199e-01   -3.179530799e-02
     2366750000   -2.967373431e-01   -5.950848758e-02
     2367500000   -2.897503674e-01   -8.724860102e-02
     2368250000   -2.804555595e-01   -1.135382801e-01
     2369000000   -2.692181766e-01   -1.391172260e-01
     2369750000   -2.552235723e-01   -1.641364992e-01
     2370500000   -2.389467210e-01   -1.877390295e-01
     2371250000   -2.202696204e-01   -2.085027248e-01
     2372000000   -2.005908042e-01   -2.290611714e-01
     2372750000   -1.783957034e-01   -2.469952703e-01
     2373500000   -1.553123891e-01   -2.631237209e-01
     2374250000   -1.300904304e-01   -2.771490812e-01
     2375000000   -1.044394001e-01   -2.874675989e-01
     2375750000   -7.704780996e-02   -2.971943915e-01
     2376500000   -5.005821586e-02   -3.034381270e-01
     2377250000   -2.116465196e-02   -3.074671328e-01
     2378000000    3.546525259e-03   -3.086808026e-01
     2378750000    3.460554779e-02   -3.075398207e-01
     2379500000    6.893372536e-02   -3.035138249e-01
     2380250000    9.017475694e-02   -2.977126837e-01
     2381000000    1.143494546e-01   -2.894305587e-01
     2381750000    1.465264559e-01   -2.767722309e-01
     2382500000    1.657856852e-01   -2.644021511e-01
     2383250000    1.961494237e-01   -2.456222475e-01
     2384000000    2.144503891e-01   -2.293992639e-01
     2384750000    2.375915647e-01   -2.076596916e-01
     2385500000    2.537845671e-01   -1.879443526e-01
     2386250000    2.685088217e-01   -1.653196812e-01
     2387000000    2.848943174e-01   -1.379901171e-01
     2387750000    2.961104214e-01   -1.140114069e-01
     2388500000    3.051120341e-01   -8.794014901e-02
     2389250000    3.136754036e-01   -5.680281669e-02
     2390000000    3.185575604e-01   -2.939298004e-02
     2390750000    3.203074932e-01    1.147522940e-03
     2391500000    3.181545138e-01    2.740733512e-02
     2392250000    3.156912625e-01    5.504462495e-02
     2393000000    3.094488084e-01    8.424255997e-02
     2393750000    3.013662994e-01    1.103102714e-01
     2394500000    2.909350693e-01    1.388741881e-01
     2395250000    2.782139182e-01    1.607107669e-01
     2396000000    2.614763081e-01    1.870704442e-01
     2396750000    2.437383533e-01    2.098041177e-01
     2397500000    2.238832861e-01    2.308395654e-01
     2398250000    2.022305429e-01    2.486452311e-01
     2399000000    1.793122292e-01    2.650801539e-01
     2399750000    1.534413248e-01    2.807474136e-01
     2400500000    1.287567914e-01    2.912565470e-01
     2401250000    1.009105891e-01    3.018043935e-01
     2402000000    7.139971107e-02    3.101540208e-01
     2402750000    4.374165088e-02    3.139149249e-01
     2403500000    1.390592754e-02    3.166674972e-01
     2404250000   -1.102816500e-02    3.150818646e-01
     2405000000   -4.436806217e-02    3.123720586e-01
     2405750000   -7.359059155e-02    3.062014878e-01
     2406500000   -9.964556247e-02    2.987181246e-01
     2407250000   -1.280453354e-01    2.878261507e-01
     2408000000   -1.538112760e-01    2.751643062e-01
     2408750000   -1.794926375e-01    2.602875531e-01
     2409500000   -2.044460773e-01    2.418377101e-01
     2410250000   -2.264614701e-01    2.209201753e-01
     2411000000   -2.440271676e-01    2.009695023e-01
     2411750000   -2.616719007e-01    1.790047437e-01
     2412500000   -2.776434720e-01    1.532172412e-01
     2413250000   -2.912810743e-01    1.272411495e-01
     2414000000   -3.007456958e-01    1.023469865e-01
     2414750000   -3.111309409e-01    7.204178721e-02
     2415500000   -3.168058991e-01    4.384095222e-02
     2416250000   -3.196153343e-01    1.375467889e-02
     2417000000   -3.197390735e-01   -1.408799738e-02
     2417750000   -3.186176419e-01   -4.338639602e-02
     2418500000   -3.135820031e-01   -7.207645476e-02
     2419250000   -3.062394261e-01   -1.005555987e-01
     2420000000   -2.961508930e-01   -1.297067404e-01
     2420750000   -2.844750285e-01   -1.546197683e-01
     2421500000   -2.696663737e-01   -1.812566966e-01
     2422250000   -2.522879243e-01   -2.046485543e-01
     2423000000   -2.337538451e-01   -2.267209738e-01
     2423750000   -2.118039429e-01   -2.481834590e-01
     2424500000   -1.892725527e-01   -2.671196759e-01
     2425250000   -1.649470180e-01   -2.832543552e-01
     2426000000   -1.376595646e-01   -2.987044752e-01
     2426750000   -1.135129780e-01   -3.090233505e-01
     2427500000   -8.255016804e-02   -3.192890286e-01
     2428250000   -5.889693275e-02   -3.249213696e-01
     2429000000   -2.736812457e-02   -3.308017850e-01
     2429750000    1.053926651e-03   -3.317849040e-01
     2430500000    3.421138972e-02   -3.315330744e-01
     2431250000    5.927304551e-02   -3.281787932e-01
     2432000000    8.935166895e-02   -3.217000067e-01
     2432750000    1.203589737e-01   -3.126773834e-01
     2433500000    1.438063979e-01   -3.028280139e-01
     2434250000    1.723413914e-01   -2.885779738e-01
     2435000000    1.953709573e-01   -2.740246952e-01
     2435750000    2.207866311e-01   -2.541944385e-01
     2436500000    2.439837903e-01   -2.328073233e-01
     2437250000    2.599779069e-01   -2.147896737e-01
     2438000000    2.810309231e-01   -1.872015893e-01
     2438750000    2.944552600e-01   -1.658490896e-01
     2439500000    3.102133870e-01   -1.361030340e-01
     2440250000    3.194327056e-01   -1.109202504e-01
     2441000000    3.287134767e-01   -8.107613027e-02
     2441750000    3.338126242e-01   -5.407993123e-02
     2442500000    3.369950354e-01   -2.491587959e-02
     2443250000    3.375986218e-01    5.686865188e-03
     2444000000    3.350871801e-01    3.602158651e-02
     2444750000    3.304883242e-01    6.317568570e-02
     2445500000    3.237276971e-01    9.095469862e-02
     2446250000    3.133622110e-01    1.194873378e-01
     2447000000    3.019167185e-01    1.449744850e-01
     2447750000    2.867910564e-01    1.707613617e-01
     2448500000    2.712653279e-01    1.947325915e-01
     2449250000    2.512406409e-01    2.181273550e-01
     2450000000    2.313779145e-01    2.384159863e-01
     2450750000    2.097543627e-01    2.566366196e-01
     2451500000    1.847066581e-01    2.750988007e-01
     2452250000    1.606301367e-01    2.880703807e-01
     2453000000    1.337185353e-01    3.006911278e-01
     2453750000    1.072532535e-01    3.092793524e-01
     2454500000    7.931475341e-02    3.172518909e-01
     2455250000    5.150725693e-02    3.212053180e-01
     2456000000    1.944792084e-02    3.239340186e-01
     2456750000   -8.804038167e-03    3.233352900e-01
     2457500000   -3.700222448e-02    3.209916651e-01
     2458250000   -6.724771112e-02    3.153200448e-01
     2459000000   -9.390288591e-02    3.068798780e-01
     2459750000   -1.205372959e-01    2.972871661e-01
     2460500000   -1.459046751e-01    2.850573957e-01
     2461250000   -1.696140319e-01    2.707147300e-01
     2462000000   -1.956464201e-01    2.516693473e-01
     2462750000   -2.153941244e-01    2.343389094e-01
     2463500000   -2.349598259e-01    2.127207071e-01
     2464250000   -2.529283166e-01    1.913686097e-01
     2465000000   -2.695956528e-01    1.662314236e-01
     2465750000   -2.825303972e-01    1.422900110e-01
     2466500000   -2.936437130e-01    1.176970676e-01
     2467250000   -3.022613823e-01    9.098090976e-02
     2468000000   -3.092689216e-01    6.430269033e-02
     2468750000   -3.133096397e-01    3.274624422e-02
     2469500000   -3.147696853e-01    5.286479834e-03
     2470250000   -3.143786192e-01   -1.947681978e-02
     2471000000   -3.094898164e-01   -5.278768390e-02
     2471750000   -3.052433729e-01   -7.443429530e-02
     2472500000   -2.966066897e-01   -1.021225750e-01
     2473250000   -2.862359881e-01   -1.272070855e-01
     2474000000   -2.727543712e-01   -1.523672044e-01
     2474750000   -2.580940425e-01   -1.754875928e-01
     2475500000   -2.398259938e-01   -1.982723773e-01
     2476250000   -2.210343182e-01   -2.181335688e-01
     2477000000   -2.034955472e-01   -2.350522429e-01
     2477750000   -1.801970750e-01   -2.522713244e-01
     2478500000   -1.571393162e-01   -2.660818398e-01
     2479250000   -1.324279159e-01   -2.781970203e-01
     2480000000   -1.090256348e-01   -2.879652977e-01
     2480750000   -8.256430924e-02   -2.960773706e-01
     2481500000   -5.611611903e-02   -3.013872504e-01
     2482250000   -2.997766249e-02   -3.042077720e-01
     2483000000   -2.878175816e-03   -3.038610220e-01
     2483750000    2.382649295e-02   -3.024398386e-01
     2484500000    4.969970137e-02   -2.985453606e-01
     2485250000    7.515320927e-02   -2.915364802e-01
     2486000000    9.993474931e-02   -2.828626633e-01
     2486750000    1.237375885e-01   -2.715952694e-01
     2487500000    1.468887925e-01   -2.588656843e-01
     2488250000    1.685966104e-01   -2.436437607e-01
     2489000000    1.882748306e-01   -2.272295803e-01
     2489750000    2.072579563e-01   -2.073714137e-01
     2490500000    2.231083512e-01   -1.889734864e-01
     2491250000    2.382657975e-01   -1.670897156e-01
     2492000000    2.517261803e-01   -1.435510814e-01
     2492750000    2.626330853e-01   -1.201992407e-01
     2493500000    2.711519897e-01   -9.673272818e-02
     2494250000    2.777378857e-01   -7.239501923e-02
     2495000000    2.823292911e-01   -4.580383748e-02
     2495750000    2.841806412e-01   -2.235770226e-02
     2496500000    2.842010856e-01    5.058618262e-03
     2497250000    2.807103992e-01    3.226222470e-02
     2498000000    2.779899538e-01    5.220120400e-02
     2498750000    2.692864239e-01    8.047840744e-02
     2499500000    2.602845430e-01    1.034884006e-01
     2500250000    2.514191568e-01    1.233123988e-01
     2501000000    2.372885793e-01    1.459644139e-01
     2501750000    2.211832702e-01    1.666412503e-01
     2502500000    2.061783522e-01    1.840226054e-01
     2503250000    1.882938147e-01    2.012448907e-01
     2504000000    1.684066057e-01    2.164604217e-01
     2504750000    1.492505670e-01    2.293461561e-01
     2505500000    1.296173781e-01    2.407275289e-01
     2506250000    1.039565131e-01    2.505097389e-01
     2507000000    7.995652407e-02    2.586939931e-01
     2507750000    5.993674323e-02    2.640707493e-01
     2508500000    3.401679546e-02    2.669069469e-01
     2509250000    1.027026307e-02    2.679915428e-01
     2510000000   -1.359062921e-02    2.674959898e-01
     2510750000   -3.798436746e-02    2.635470331e-01
     2511500000   -6.043956056e-02    2.583417296e-01
     2512250000   -8.242421597e-02    2.513804734e-01
     2513000000   -1.032372341e-01    2.424897999e-01
     2513750000   -1.252842247e-01    2.305891514e-01
     2514500000   -1.432668418e-01    2.196828723e-01
     2515250000   -1.626241207e-01    2.034611404e-01
     2516000000   -1.787166595e-01    1.885335743e-01
     2516750000   -1.933901161e-01    1.714502126e-01
     2517500000   -2.075089961e-01    1.522713900e-01
     2518250000   -2.195066214e-01    1.339971721e-01
     2519000000   -2.292005569e-01    1.145348698e-01
     2519750000   -2.377585620e-01    9.133972228e-02
     2520500000   -2.429920435e-01    7.018393278e-02
     2521250000   -2.472634465e-01    4.873744398e-02
     2522000000   -2.494089156e-01    2.459397167e-02
     2522750000   -2.494652867e-01    2.701050835e-03
     2523500000   -2.473410517e-01   -1.906324737e-02
     2524250000   -2.430638671e-01   -4.096999019e-02
     2525000000   -2.379240841e-01   -6.174879521e-02
     2525750000   -2.308701873e-01   -8.121603727e-02
     2526500000   -2.203884423e-01   -1.021811292e-01
     2527250000   -2.100106180e-01   -1.208987683e-01
     2528000000   -1.967350841e-01   -1.387018710e-01
     2528750000   -1.837904751e-01   -1.544925272e-01
     2529500000   -1.688458771e-01   -1.698264629e-01
     2530250000   -1.510702968e-01   -1.837396324e-01
     2531000000   -1.338206828e-01   -1.956613064e-01
     2531750000   -1.178580895e-01   -2.066507787e-01
     2532500000   -9.631920606e-02   -2.152175754e-01
     2533250000   -7.584396750e-02   -2.220596373e-01
     2534000000   -5.638168007e-02   -2.274299115e-01
     2534750000   -3.580396622e-02   -2.307750881e-01
     2535500000   -1.501219347e-02   -2.324550599e-01
     2536250000    5.227071233e-03   -2.321649194e-01
     2537000000    2.629739419e-02   -2.299972326e-01
     2537750000    4.664571211e-02   -2.255711406e-01
     2538500000    6.578260660e-02   -2.202678323e-01
     2539250000    8.525279164e-02   -2.123100758e-01
     2540000000    1.026870832e-01   -2.042962164e-01
     2540750000    1.201215312e-01   -1.932328194e-01
     2541500000    1.366353333e-01   -1.806883365e-01
     2542250000    1.503295898e-01   -1.693805754e-01
     2543000000    1.646053046e-01   -1.544984877e-01
     2543750000    1.764468253e-01   -1.400043964e-01
     2544500000    1.866699308e-01   -1.237487271e-01
     2545250000    1.961745471e-01   -1.078535765e-01
     2546000000    2.034907937e-01   -9.049592912e-02
     2546750000    2.091293186e-01   -7.192691416e-02
     2547500000    2.139993310e-01   -5.440946668e-02
     2548250000    2.164555192e-01   -3.456616402e-02
     2549000000    2.172773778e-01   -1.673810370e-02
     2549750000    2.159607708e-01    3.483187873e-03
     2550500000    2.133107036e-01    2.137856372e-02
     2551250000    2.100577056e-01    3.872909024e-02
     2552000000    2.042499632e-01    5.560938641e-02
     2552750000    1.952680796e-01    7.358048856e-02
     2553500000    1.895107925e-01    8.769004047e-02
     2554250000    1.793050915e-01    1.029891148e-01
     2555000000    1.674462557e-01    1.170205548e-01
     2555750000    1.554870605e-01    1.302373409e-01
     2556500000    1.436306834e-01    1.424106508e-01
     2557250000    1.287854761e-01    1.519802064e-01
     2558000000    1.123312786e-01    1.613011360e-01
     2558750000    9.936080873e-02    1.689499468e-01
     2559500000    8.557900041e-02    1.762980372e-01
     2560250000    6.520833075e-02    1.796937138e-01
     2561000000    4.932233319e-02    1.834418923e-01
     2561750000    3.318421170e-02    1.855401993e-01
     2562500000    1.829469018e-02    1.868692487e-01
     2563250000   -1.572135225e-04    1.834917217e-01
     2564000000   -1.517550647e-02    1.821220815e-01
     2564750000   -2.829357609e-02    1.800034940e-01
     2565500000   -4.526117817e-02    1.730377078e-01
     2566250000   -6.016802043e-02    1.660914421e-01
     2567000000   -7.339505851e-02    1.594090015e-01
     2567750000   -8.614356071e-02    1.504793167e-01
     2568500000   -9.787198901e-02    1.404263079e-01
     2569250000   -1.091449931e-01    1.298428923e-01
     2570000000   -1.193311065e-01    1.177387163e-01
     2570750000   -1.273711920e-01    1.048554480e-01
     2571500000   -1.348778307e-01    9.139475226e-02
     2572250000   -1.411530375e-01    7.806089520e-02
     2573000000   -1.459508538e-01    6.375582516e-02
     2573750000   -1.499087363e-01    4.926468804e-02
     2574500000   -1.522168517e-01    3.459715098e-02
     2575250000   -1.544637382e-01    2.121703513e-02
     2576000000   -1.542857289e-01    6.501238793e-03
     2576750000   -1.527564228e-01   -7.389815524e-03
     2577500000   -1.504648477e-01   -2.076277696e-02
     2578250000   -1.466141343e-01   -3.455431759e-02
     2579000000   -1.421263069e-01   -4.748785123e-02
     2579750000   -1.371132284e-01   -5.963228643e-02
     2580500000   -1.297370940e-01   -7.086338848e-02
     2581250000   -1.216256693e-01   -8.196447790e-02
     2582000000   -1.152665392e-01   -9.150095284e-02
     2582750000   -1.047669649e-01   -1.005388945e-01
     2583500000   -9.519870579e-02   -1.085558310e-01
     2584250000   -8.441555500e-02   -1.144769341e-01
     2585000000   -7.286231220e-02   -1.209818050e-01
     2585750000   -6.159466878e-02   -1.257012784e-01
     2586500000   -4.990487546e-02   -1.291052699e-01
     2587250000   -3.809561208e-02   -1.320057660e-01
     2588000000   -2.689502202e-02   -1.348414123e-01
     2588750000   -1.443944126e-02   -1.345713884e-01
     2589500000   -2.298536710e-03   -1.338279843e-01
     2590250000    8.701694198e-03   -1.329456121e-01
              0    4.797767475e-02    1.912709326e-01
              0    4.821980000e-02    1.915123612e-01
              0    4.769813642e-02    1.915778071e-01
              0    4.801601917e-02    1.913425475e-01
              0    4.663107917e-02    1.917865127e-01
              0    4.652456939e-02    1.918290555e-01
              0    4.599079490e-02    1.918368340e-01
              0    4.567349330e-02    1.919942349e-01
              0    4.581525922e-02    1.919689775e-01
              0    4.508886859e-02    1.919558197e-01
              0    4.441249371e-02    1.922230721e-01
              0    4.443092272e-02    1.922362745e-01
              0    4.443095252e-02    1.922363043e-01
