! NanoVNA-App
! Date: 2026-05-22 19:01:15
! Start: 2.3GHz Stop: 2.6GHz Points: 401
! S-Parameter data: F S11
# Hz S RI R 50
!     Frequency           S11_Real           S11_Imag
     2300000000   -3.849161565e-01   -1.671090126e-01
     2300750000   -3.654397726e-01   -1.972409189e-01
     2301500000   -3.438751101e-01   -2.260725796e-01
     2302250000   -3.202533126e-01   -2.515013516e-01
     2303000000   -2.944777608e-01   -2.758325040e-01
     2303750000   -2.676283717e-01   -2.972037792e-01
     2304500000   -2.391905040e-01   -3.154300153e-01
     2305250000   -2.101435363e-01   -3.316373229e-01
     2306000000   -1.785917729e-01   -3.455823958e-01
     2306750000   -1.473961920e-01   -3.562372029e-01
     2307500000   -1.152409986e-01   -3.640665114e-01
     2308250000   -8.370540291e-02   -3.691350222e-01
     2309000000   -5.223434791e-02   -3.713832498e-01
     2309750000   -2.028694935e-02   -3.710508049e-01
     2310500000    1.008150820e-02   -3.676505685e-01
     2311250000    4.048088193e-02   -3.622701168e-01
     2312000000    6.961772591e-02   -3.537569344e-01
     2312750000    9.796248376e-02   -3.429593444e-01
     2313500000    1.247252598e-01   -3.300101459e-01
     2314250000    1.495257914e-01   -3.151313663e-01
     2315000000    1.734153479e-01   -2.979255021e-01
     2315750000    1.963492185e-01   -2.787009478e-01
     2316500000    2.158419341e-01   -2.586500645e-01
     2317250000    2.335174829e-01   -2.375335991e-01
     2318000000    2.491357028e-01   -2.146588564e-01
     2318750000    2.631380260e-01   -1.902199984e-01
     2319500000    2.742725313e-01   -1.663579196e-01
     2320250000    2.825891078e-01   -1.416110396e-01
     2321000000    2.894628048e-01   -1.161373109e-01
     2321750000    2.940961123e-01   -8.998860419e-02
     2322500000    2.954727411e-01   -6.569425017e-02
     2323250000    2.948990464e-01   -4.081629962e-02
     2324000000    2.922134399e-01   -1.602282375e-02
     2324750000    2.871768773e-01    7.727426477e-03
     2325500000    2.797428370e-01    3.116077743e-02
     2326250000    2.709166706e-01    5.402320996e-02
     2327000000    2.604037821e-01    7.552071661e-02
     2327750000    2.476167679e-01    9.512210637e-02
     2328500000    2.340131253e-01    1.139023378e-01
     2329250000    2.177231461e-01    1.315475553e-01
     2330000000    2.019290477e-01    1.474545896e-01
     2330750000    1.846403033e-01    1.615851074e-01
     2331500000    1.661343426e-01    1.742881984e-01
     2332250000    1.472459584e-01    1.845918745e-01
     2333000000    1.276458800e-01    1.942026615e-01
     2333750000    1.085869446e-01    2.010066807e-01
     2334500000    8.841877431e-02    2.059169114e-01
     2335250000    6.859835982e-02    2.093105614e-01
     2336000000    4.922248423e-02    2.108768672e-01
     2336750000    2.984902635e-02    2.105608284e-01
     2337500000    1.082514040e-02    2.083326578e-01
     2338250000   -7.339924108e-03    2.044717073e-01
     2339000000   -2.432138287e-02    1.988499165e-01
     2339750000   -4.097378254e-02    1.925319135e-01
     2340500000   -5.706167221e-02    1.839577109e-01
     2341250000   -7.178306580e-02    1.748479307e-01
     2342000000   -8.442695439e-02    1.639798284e-01
     2342750000   -9.715594351e-02    1.526558995e-01
     2343500000   -1.081808284e-01    1.398885399e-01
     2344250000   -1.172508299e-01    1.267034411e-01
     2345000000   -1.258388758e-01    1.138178185e-01
     2345750000   -1.324658543e-01    9.936190397e-02
     2346500000   -1.382911205e-01    8.539843559e-02
     2347250000   -1.416674554e-01    7.048800588e-02
     2348000000   -1.442796886e-01    5.624403432e-02
     2348750000   -1.456516683e-01    4.193356633e-02
     2349500000   -1.444923431e-01    2.776992135e-02
     2350250000   -1.434394419e-01    1.425644755e-02
     2351000000   -1.392407864e-01    1.182077453e-03
     2351750000   -1.356458366e-01   -1.130873989e-02
     2352500000   -1.315427572e-01   -2.281953581e-02
     2353250000   -1.240963042e-01   -3.442438319e-02
     2354000000   -1.179297417e-01   -4.509693012e-02
     2354750000   -1.099398583e-01   -5.460110307e-02
     2355500000   -1.009190455e-01   -6.324823946e-02
     2356250000   -9.206085652e-02   -7.074683160e-02
     2357000000   -8.294912428e-02   -7.716194540e-02
     2357750000   -7.276440412e-02   -8.239074796e-02
     2358500000   -6.269846857e-02   -8.632384241e-02
     2359250000   -5.364063755e-02   -8.958522975e-02
     2360000000   -4.389560968e-02   -9.129451215e-02
     2360750000   -3.392618522e-02   -9.243294597e-02
     2361500000   -2.517144382e-02   -9.194811434e-02
     2362250000   -1.561861206e-02   -9.050044417e-02
     2363000000   -6.747653242e-03   -8.846737444e-02
     2363750000    1.458233222e-03   -8.464963734e-02
     2364500000    8.663770743e-03   -8.153666556e-02
     2365250000    1.626122929e-02   -7.589478046e-02
     2366000000    2.273810096e-02   -7.129471749e-02
     2366750000    2.846933343e-02   -6.521223485e-02
     2367500000    3.345064819e-02   -5.919544026e-02
     2368250000    3.706088290e-02   -5.211614817e-02
     2369000000    4.023687169e-02   -4.520228133e-02
     2369750000    4.300538450e-02   -3.751124442e-02
     2370500000    4.423819110e-02   -3.043655679e-02
     2371250000    4.543083906e-02   -2.367017791e-02
     2372000000    4.494559765e-02   -1.631665230e-02
     2372750000    4.416772723e-02   -9.465001523e-03
     2373500000    4.174524918e-02   -2.754598623e-03
     2374250000    3.957007825e-02    2.667241031e-03
     2375000000    3.579021990e-02    8.401119150e-03
     2375750000    3.209974989e-02    1.358523034e-02
     2376500000    2.753456868e-02    1.795022935e-02
     2377250000    2.239011414e-02    2.211285569e-02
     2378000000    1.613682136e-02    2.596280910e-02
     2378750000    1.049797330e-02    2.910711616e-02
     2379500000    5.146943033e-03    3.046124242e-02
     2380250000   -5.246040528e-04    3.166614845e-02
     2381000000   -8.210269734e-03    3.295877948e-02
     2381750000   -1.370240934e-02    3.266363963e-02
     2382500000   -1.942798682e-02    3.175808117e-02
     2383250000   -2.460428886e-02    3.006607108e-02
     2384000000   -3.130577132e-02    2.804630250e-02
     2384750000   -3.571438044e-02    2.491963468e-02
     2385500000   -4.167670384e-02    2.079256810e-02
     2386250000   -4.419884086e-02    1.715014689e-02
     2387000000   -4.806376994e-02    1.263049059e-02
     2387750000   -5.125870183e-02    7.773052901e-03
     2388500000   -5.417558178e-02    1.851289533e-03
     2389250000   -5.534848943e-02   -3.753477242e-03
     2390000000   -5.614734069e-02   -9.919698350e-03
     2390750000   -5.647479743e-02   -1.654580608e-02
     2391500000   -5.511596426e-02   -2.209705859e-02
     2392250000   -5.356522277e-02   -2.785277739e-02
     2393000000   -5.153205618e-02   -3.471960500e-02
     2393750000   -4.810452089e-02   -4.071998224e-02
     2394500000   -4.467882589e-02   -4.572376236e-02
     2395250000   -4.010109231e-02   -5.142252892e-02
     2396000000   -3.489572555e-02   -5.572939664e-02
     2396750000   -2.931650542e-02   -6.063575298e-02
     2397500000   -2.290199324e-02   -6.318514049e-02
     2398250000   -1.610174216e-02   -6.674242765e-02
     2399000000   -8.800880983e-03   -6.792668253e-02
     2399750000   -1.119811786e-03   -6.977683306e-02
     2400500000    7.165606134e-03   -6.935459375e-02
     2401250000    1.549164858e-02   -6.908416748e-02
     2402000000    2.411045320e-02   -6.830114126e-02
     2402750000    3.256565705e-02   -6.634275615e-02
     2403500000    4.036681354e-02   -6.284841895e-02
     2404250000    4.939612374e-02   -5.903856829e-02
     2405000000    5.796273798e-02   -5.446298048e-02
     2405750000    6.570522487e-02   -4.876204208e-02
     2406500000    7.278200984e-02   -4.263705015e-02
     2407250000    7.965111732e-02   -3.604640812e-02
     2408000000    8.552047610e-02   -2.782533877e-02
     2408750000    9.191960096e-02   -2.011070028e-02
     2409500000    9.675948322e-02   -1.181349251e-02
     2410250000    1.007949337e-01   -2.439199248e-03
     2411000000    1.033771113e-01    6.726168096e-03
     2411750000    1.059246957e-01    1.594129205e-02
     2412500000    1.069600955e-01    2.594507858e-02
     2413250000    1.071861759e-01    3.584283963e-02
     2414000000    1.064837724e-01    4.581556097e-02
     2414750000    1.040251851e-01    5.580589175e-02
     2415500000    1.004959941e-01    6.525623053e-02
     2416250000    9.649264067e-02    7.474927604e-02
     2417000000    9.177669883e-02    8.443365246e-02
     2417750000    8.550192416e-02    9.315723181e-02
     2418500000    7.898131013e-02    1.015110835e-01
     2419250000    7.083392888e-02    1.088535339e-01
     2420000000    6.261745095e-02    1.161526218e-01
     2420750000    5.352132022e-02    1.218419969e-01
     2421500000    4.322837293e-02    1.264606714e-01
     2422250000    3.290163726e-02    1.309445202e-01
     2423000000    2.176932432e-02    1.341035217e-01
     2423750000    1.054768823e-02    1.364782304e-01
     2424500000   -1.265506493e-03    1.359676123e-01
     2425250000   -1.305932831e-02    1.364720017e-01
     2426000000   -2.538940869e-02    1.348568350e-01
     2426750000   -3.728006780e-02    1.315893084e-01
     2427500000   -4.908779636e-02    1.277580559e-01
     2428250000   -6.134961918e-02    1.230886132e-01
     2429000000   -7.226169854e-02    1.164180934e-01
     2429750000   -8.336679637e-02    1.097068265e-01
     2430500000   -9.382202476e-02    1.011975259e-01
     2431250000   -1.034321859e-01    9.238041937e-02
     2432000000   -1.125794500e-01    8.244611323e-02
     2432750000   -1.208303571e-01    7.160472870e-02
     2433500000   -1.272282600e-01    5.942394957e-02
     2434250000   -1.334730983e-01    4.796063527e-02
     2435000000   -1.387897432e-01    3.543158621e-02
     2435750000   -1.424100548e-01    2.210607007e-02
     2436500000   -1.435247958e-01    8.235877380e-03
     2437250000   -1.458808780e-01   -5.297289230e-03
     2438000000   -1.466035247e-01   -1.927011460e-02
     2438750000   -1.429354995e-01   -3.291506320e-02
     2439500000   -1.411967874e-01   -4.716605321e-02
     2440250000   -1.363532692e-01   -6.058714911e-02
     2441000000   -1.312714666e-01   -7.406103611e-02
     2441750000   -1.245084628e-01   -8.672001958e-02
     2442500000   -1.154308617e-01   -9.850609303e-02
     2443250000   -1.070527956e-01   -1.106501222e-01
     2444000000   -9.725673497e-02   -1.212545931e-01
     2444750000   -8.588773012e-02   -1.313894093e-01
     2445500000   -7.378427684e-02   -1.399716735e-01
     2446250000   -6.070355698e-02   -1.467851102e-01
     2447000000   -4.736791179e-02   -1.534727961e-01
     2447750000   -3.271328658e-02   -1.583621353e-01
     2448500000   -1.788726822e-02   -1.627313197e-01
     2449250000   -3.054363420e-03   -1.650679857e-01
     2450000000    1.265462581e-02   -1.658348888e-01
     2450750000    2.810950391e-02   -1.655228287e-01
     2451500000    4.375002906e-02   -1.639216691e-01
     2452250000    5.911520869e-02   -1.603714526e-01
     2453000000    7.405035943e-02   -1.558406502e-01
     2453750000    8.827321976e-02   -1.495790035e-01
     2454500000    1.024067998e-01   -1.426516771e-01
     2455250000    1.156593114e-01   -1.334273666e-01
     2456000000    1.283041835e-01   -1.235836595e-01
     2456750000    1.399759501e-01   -1.124409437e-01
     2457500000    1.498922408e-01   -9.981403500e-02
     2458250000    1.593371034e-01   -8.649078012e-02
     2459000000    1.683420241e-01   -7.217805833e-02
     2459750000    1.745446920e-01   -5.752438307e-02
     2460500000    1.802174002e-01   -4.186082631e-02
     2461250000    1.837061793e-01   -2.546657808e-02
     2462000000    1.869808435e-01   -8.959105238e-03
     2462750000    1.868951917e-01    7.727663964e-03
     2463500000    1.866718382e-01    2.405872196e-02
     2464250000    1.844854951e-01    4.099385440e-02
     2465000000    1.800487787e-01    5.761440098e-02
     2465750000    1.756822616e-01    7.458252460e-02
     2466500000    1.677725017e-01    8.997285366e-02
     2467250000    1.596239656e-01    1.055372953e-01
     2468000000    1.501953453e-01    1.200057715e-01
     2468750000    1.387586445e-01    1.333076805e-01
     2469500000    1.266155988e-01    1.458376646e-01
     2470250000    1.130772457e-01    1.570021510e-01
     2471000000    9.913460910e-02    1.682976782e-01
     2471750000    8.375006169e-02    1.767984480e-01
     2472500000    6.764391065e-02    1.842117608e-01
     2473250000    4.998655990e-02    1.893582493e-01
     2474000000    3.255386651e-02    1.939020008e-01
     2474750000    1.489088126e-02    1.969298124e-01
     2475500000   -3.027533181e-03    1.979622692e-01
     2476250000   -2.118147723e-02    1.972364932e-01
     2477000000   -3.904576227e-02    1.948248595e-01
     2477750000   -5.713590235e-02    1.905241311e-01
     2478500000   -7.478162646e-02    1.852877140e-01
     2479250000   -9.090926498e-02    1.773549020e-01
     2480000000   -1.084334403e-01    1.689403206e-01
     2480750000   -1.225857139e-01    1.584093869e-01
     2481500000   -1.371742189e-01    1.460709274e-01
     2482250000   -1.505908072e-01    1.333113611e-01
     2483000000   -1.627507955e-01    1.187453046e-01
     2483750000   -1.735700667e-01    1.026889458e-01
     2484500000   -1.831377298e-01    8.623247594e-02
     2485250000   -1.911880970e-01    6.850600988e-02
     2486000000   -1.978792101e-01    5.083506182e-02
     2486750000   -2.025736421e-01    3.181151301e-02
     2487500000   -2.055106312e-01    1.296147611e-02
     2488250000   -2.065325677e-01   -6.171364803e-03
     2489000000   -2.062134892e-01   -2.517459914e-02
     2489750000   -2.040758431e-01   -4.480224848e-02
     2490500000   -1.992526054e-01   -6.348884106e-02
     2491250000   -1.932429373e-01   -8.171617985e-02
     2492000000   -1.858469397e-01   -9.966730326e-02
     2492750000   -1.761128604e-01   -1.171368733e-01
     2493500000   -1.647525877e-01   -1.331870407e-01
     2494250000   -1.528037935e-01   -1.483057141e-01
     2495000000   -1.391126215e-01   -1.631328911e-01
     2495750000   -1.230048910e-01   -1.751347631e-01
     2496500000   -1.072501987e-01   -1.864986867e-01
     2497250000   -9.001404792e-02   -1.964120269e-01
     2498000000   -7.256733626e-02   -2.041561753e-01
     2498750000   -5.223671347e-02   -2.108593285e-01
     2499500000   -3.271706775e-02   -2.151443362e-01
     2500250000   -1.286166720e-02   -2.182304263e-01
     2501000000    7.476155646e-03   -2.192532271e-01
     2501750000    2.824597247e-02   -2.176481932e-01
     2502500000    4.841469228e-02   -2.157559246e-01
     2503250000    6.830672175e-02   -2.109010965e-01
     2504000000    8.797334135e-02   -2.037177533e-01
     2504750000    1.071592793e-01   -1.954733878e-01
     2505500000    1.248372793e-01   -1.861074865e-01
     2506250000    1.420298964e-01   -1.760831773e-01
     2507000000    1.596147120e-01   -1.627215296e-01
     2507750000    1.741534621e-01   -1.477401406e-01
     2508500000    1.877560467e-01   -1.313648522e-01
     2509250000    2.002840340e-01   -1.134623736e-01
     2510000000    2.102456242e-01   -9.576802701e-02
     2510750000    2.194140851e-01   -7.491888106e-02
     2511500000    2.262582481e-01   -5.547811091e-02
     2512250000    2.311273068e-01   -3.459698334e-02
     2513000000    2.346242666e-01   -1.366882864e-02
     2513750000    2.354122549e-01    8.120454848e-03
     2514500000    2.340356857e-01    2.994771115e-02
     2515250000    2.308388054e-01    5.188933760e-02
     2516000000    2.259583324e-01    7.356656343e-02
     2516750000    2.186235189e-01    9.368493408e-02
     2517500000    2.094321698e-01    1.145710200e-01
     2518250000    1.984744519e-01    1.338480413e-01
     2519000000    1.856575310e-01    1.525021791e-01
     2519750000    1.711502373e-01    1.698605865e-01
     2520500000    1.555780768e-01    1.859652102e-01
     2521250000    1.380542666e-01    2.003988773e-01
     2522000000    1.192191467e-01    2.135561854e-01
     2522750000    9.888449311e-02    2.240516543e-01
     2523500000    7.850018144e-02    2.334606200e-01
     2524250000    5.613087863e-02    2.409514636e-01
     2525000000    3.414914012e-02    2.465318143e-01
     2525750000    1.049778983e-02    2.497902215e-01
     2526500000   -1.215251256e-02    2.512256801e-01
     2527250000   -3.537124023e-02    2.501874268e-01
     2528000000   -5.872767419e-02    2.468084246e-01
     2528750000   -8.152943850e-02    2.417805493e-01
     2529500000   -1.042661220e-01    2.342532724e-01
     2530250000   -1.253415197e-01    2.247606963e-01
     2531000000   -1.464745551e-01    2.138186693e-01
     2531750000   -1.660422236e-01    2.003634423e-01
     2532500000   -1.843283474e-01    1.852851510e-01
     2533250000   -2.016025782e-01    1.685830802e-01
     2534000000   -2.169966698e-01    1.497924924e-01
     2534750000   -2.304576486e-01    1.302138865e-01
     2535500000   -2.420699298e-01    1.092500538e-01
     2536250000   -2.517094910e-01    8.699234575e-02
     2537000000   -2.591621876e-01    6.371761113e-02
     2537750000   -2.647029459e-01    3.980393708e-02
     2538500000   -2.678415179e-01    1.591142267e-02
     2539250000   -2.689548731e-01   -8.522132412e-03
     2540000000   -2.676658034e-01   -3.364559636e-02
     2540750000   -2.639656365e-01   -5.845258757e-02
     2541500000   -2.586114705e-01   -8.286883682e-02
     2542250000   -2.503823042e-01   -1.068908498e-01
     2543000000   -2.399499863e-01   -1.301612854e-01
     2543750000   -2.279407829e-01   -1.520706117e-01
     2544500000   -2.132525444e-01   -1.731213033e-01
     2545250000   -1.974467933e-01   -1.931173801e-01
     2546000000   -1.793498099e-01   -2.114685178e-01
     2546750000   -1.595183015e-01   -2.281418592e-01
     2547500000   -1.390060037e-01   -2.430510819e-01
     2548250000   -1.155617237e-01   -2.561037242e-01
     2549000000   -9.303586930e-02   -2.667620778e-01
     2549750000   -6.723049283e-02   -2.753487527e-01
     2550500000   -4.238139465e-02   -2.813470066e-01
     2551250000   -1.593080908e-02   -2.853471041e-01
     2552000000    8.818119764e-03   -2.871875763e-01
     2552750000    3.596967086e-02   -2.859952450e-01
     2553500000    6.234122440e-02   -2.827353776e-01
     2554250000    8.908410370e-02   -2.767561376e-01
     2555000000    1.131623164e-01   -2.689361572e-01
     2555750000    1.391147971e-01   -2.581335306e-01
     2556500000    1.621011794e-01   -2.450665981e-01
     2557250000    1.837454587e-01   -2.309188247e-01
     2558000000    2.058532685e-01   -2.132398337e-01
     2558750000    2.252421528e-01   -1.947427243e-01
     2559500000    2.435487062e-01   -1.733971834e-01
     2560250000    2.589519620e-01   -1.518638581e-01
     2561000000    2.732877433e-01   -1.268645972e-01
     2561750000    2.854558825e-01   -1.016429588e-01
     2562500000    2.952744663e-01   -7.590091974e-02
     2563250000    3.017158210e-01   -5.001721531e-02
     2564000000    3.071270287e-01   -2.117776312e-02
     2564750000    3.092539608e-01    6.276898086e-03
     2565500000    3.090232015e-01    3.576524928e-02
     2566250000    3.058112264e-01    6.343606114e-02
     2567000000    3.003562987e-01    9.127344936e-02
     2567750000    2.923812568e-01    1.188524440e-01
     2568500000    2.820623815e-01    1.456550807e-01
     2569250000    2.690900862e-01    1.712563336e-01
     2570000000    2.532413304e-01    1.960321516e-01
     2570750000    2.363777161e-01    2.195446640e-01
     2571500000    2.180743814e-01    2.395347506e-01
     2572250000    1.961420178e-01    2.594305575e-01
     2573000000    1.727476120e-01    2.772068977e-01
     2573750000    1.481565386e-01    2.925467789e-01
     2574500000    1.220120490e-01    3.059529364e-01
     2575250000    9.459181875e-02    3.156751394e-01
     2576000000    6.569010019e-02    3.242400587e-01
     2576750000    3.630895540e-02    3.298179209e-01
     2577500000    7.243207190e-03    3.324236274e-01
     2578250000   -2.298448235e-02    3.331914842e-01
     2579000000   -5.293762684e-02    3.296365738e-01
     2579750000   -8.342761546e-02    3.249613643e-01
     2580500000   -1.128212959e-01    3.169508576e-01
     2581250000   -1.415021271e-01    3.062715530e-01
     2582000000   -1.692995280e-01    2.930881083e-01
     2582750000   -1.956237704e-01    2.779525220e-01
     2583500000   -2.215102762e-01    2.595137954e-01
     2584250000   -2.449856102e-01    2.398427725e-01
     2585000000   -2.666659951e-01    2.177545726e-01
     2585750000   -2.864611447e-01    1.926212013e-01
     2586500000   -3.030551672e-01    1.681643128e-01
     2587250000   -3.186802566e-01    1.397310644e-01
     2588000000   -3.310837150e-01    1.120092943e-01
     2588750000   -3.411330581e-01    8.195403963e-02
     2589500000   -3.478269875e-01    5.094823614e-02
     2590250000   -3.527497351e-01    2.011154592e-02
     2591000000   -3.539476693e-01   -1.221689116e-02
     2591750000   -3.524895310e-01   -4.273906350e-02
     2592500000   -3.484278023e-01   -7.453781366e-02
     2593250000   -3.413777947e-01   -1.058711708e-01
     2594000000   -3.308772743e-01   -1.367933601e-01
     2594750000   -3.181908131e-01   -1.659969687e-01
     2595500000   -3.030029535e-01   -1.935878247e-01
     2596250000   -2.843435407e-01   -2.226786166e-01
     2597000000   -2.649484277e-01   -2.464856058e-01
     2597750000   -2.425218970e-01   -2.697277069e-01
     2598500000   -2.167194635e-01   -2.923355699e-01
     2599250000   -1.908606887e-01   -3.118647039e-01
     2600000000   -1.631782651e-01   -3.280539215e-01
