! NanoVNA-App
! Date: 2026-05-22 18:11:13
! Start: 4.8GHz Stop: 6GHz Points: 401
! S-Parameter data: F S11
# Hz S RI R 50
!     Frequency           S11_Real           S11_Imag
     4800000000    2.905509770e-01   -4.106960595e-01
     4803000000    4.175885022e-01   -2.792648077e-01
     4806000000    4.852927029e-01   -1.144748181e-01
     4809000000    4.945832491e-01    6.783028692e-02
     4812000000    4.357101917e-01    2.336866558e-01
     4815000000    3.228864670e-01    3.729355037e-01
     4818000000    1.709429771e-01    4.591715634e-01
     4821000000   -3.817752004e-03    4.885136783e-01
     4824000000   -1.759701520e-01    4.543058276e-01
     4827000000   -3.213599324e-01    3.600709140e-01
     4830000000   -4.219937027e-01    2.236039639e-01
     4833000000   -4.725127220e-01    5.695272237e-02
     4836000000   -4.584372044e-01   -1.115230247e-01
     4839000000   -3.861612678e-01   -2.637915313e-01
     4842000000   -2.665716708e-01   -3.775499463e-01
     4845000000   -1.151020080e-01   -4.445843697e-01
     4848000000    5.008977279e-02   -4.531152844e-01
     4851000000    2.068453431e-01   -4.029096663e-01
     4854000000    3.300882876e-01   -3.002821505e-01
     4857000000    4.108456075e-01   -1.626531482e-01
     4860000000    4.367731214e-01   -7.226058282e-03
     4863000000    4.076014161e-01    1.488638818e-01
     4866000000    3.270511925e-01    2.797671854e-01
     4869000000    2.051778287e-01    3.707223237e-01
     4872000000    5.663467944e-02    4.213892221e-01
     4875000000   -9.004205465e-02    4.059033692e-01
     4878000000   -2.173272520e-01    3.409271836e-01
     4881000000   -3.262825608e-01    2.374667525e-01
     4884000000   -3.855222464e-01    1.060295179e-01
     4887000000   -3.871402740e-01   -3.642944619e-02
     4890000000   -3.475396037e-01   -1.717620790e-01
     4893000000   -2.597996294e-01   -2.725887299e-01
     4896000000   -1.425133348e-01   -3.447787464e-01
     4899000000   -1.201890409e-02   -3.686818480e-01
     4902000000    1.138543934e-01   -3.428657651e-01
     4905000000    2.251904458e-01   -2.751938105e-01
     4908000000    3.002620339e-01   -1.748940647e-01
     4911000000    3.353244662e-01   -5.493728444e-02
     4914000000    3.258099556e-01    6.566743553e-02
     4917000000    2.733480036e-01    1.697272807e-01
     4920000000    1.893385798e-01    2.515581250e-01
     4923000000    8.348307014e-02    2.975197434e-01
     4926000000   -2.868814208e-02    3.015563488e-01
     4929000000   -1.270313859e-01    2.650768459e-01
     4932000000   -2.126101553e-01    1.983626336e-01
     4935000000   -2.627087533e-01    1.085545123e-01
     4938000000   -2.753654122e-01    5.476019345e-03
     4941000000   -2.512230575e-01   -8.619815111e-02
     4944000000   -1.970361620e-01   -1.705397367e-01
     4947000000   -1.229495928e-01   -2.207906544e-01
     4950000000   -3.058271855e-02   -2.420405149e-01
     4953000000    5.137771741e-02   -2.263458967e-01
     4956000000    1.324420720e-01   -1.880792528e-01
     4959000000    1.819436997e-01   -1.219940633e-01
     4962000000    2.049057186e-01   -4.696943238e-02
     4965000000    2.006995231e-01    2.900011651e-02
     4968000000    1.675245315e-01    9.784458578e-02
     4971000000    1.146123111e-01    1.467142254e-01
     4974000000    5.419684947e-02    1.668895781e-01
     4977000000   -1.546827052e-02    1.698365808e-01
     4980000000   -7.500233501e-02    1.460391283e-01
     4983000000   -1.166885719e-01    1.015820354e-01
     4986000000   -1.387033015e-01    4.862356558e-02
     4989000000   -1.388527900e-01   -7.936572656e-03
     4992000000   -1.204224676e-01   -5.802898481e-02
     4995000000   -8.411207050e-02   -9.906346351e-02
     4998000000   -3.907446191e-02   -1.110122427e-01
     5001000000    1.342515834e-02   -1.155669317e-01
     5004000000    4.688781500e-02   -8.923199773e-02
     5007000000    8.364041895e-02   -6.231005117e-02
     5010000000    8.912026882e-02   -2.016683482e-02
     5013000000    8.994720131e-02    2.275056951e-02
     5016000000    6.323605031e-02    5.085144565e-02
     5019000000    3.322694451e-02    7.777564973e-02
     5022000000   -5.302598234e-03    8.168357611e-02
     5025000000   -3.934030607e-02    6.971377879e-02
     5028000000   -6.778991222e-02    4.455140233e-02
     5031000000   -8.429299295e-02    9.968179278e-03
     5034000000   -7.910669595e-02   -2.903028391e-02
     5037000000   -6.224754825e-02   -6.342947483e-02
     5040000000   -2.946451679e-02   -8.890113235e-02
     5043000000    9.118460119e-03   -9.728167951e-02
     5046000000    5.173379928e-02   -8.857882023e-02
     5049000000    8.662548661e-02   -6.015999615e-02
     5052000000    1.114547029e-01   -2.356068790e-02
     5055000000    1.192965284e-01    2.427867800e-02
     5058000000    1.027524695e-01    7.184446603e-02
     5061000000    7.195302844e-02    1.121005565e-01
     5064000000    2.531432174e-02    1.386084408e-01
     5067000000   -3.064572439e-02    1.454538852e-01
     5070000000   -8.714190871e-02    1.308121085e-01
     5073000000   -1.336667836e-01    9.271905571e-02
     5076000000   -1.670962572e-01    3.976323828e-02
     5079000000   -1.778492481e-01   -2.466473356e-02
     5082000000   -1.627250910e-01   -9.112305939e-02
     5085000000   -1.227847561e-01   -1.477812827e-01
     5088000000   -6.628122926e-02   -1.919572800e-01
     5091000000    7.201323751e-03   -2.096278220e-01
     5094000000    8.261308074e-02   -1.997719109e-01
     5097000000    1.547328383e-01   -1.633265018e-01
     5100000000    2.041525990e-01   -1.014005691e-01
     5103000000    2.340275496e-01   -2.340106294e-02
     5106000000    2.321717739e-01    5.878742412e-02
     5109000000    2.022964954e-01    1.406923980e-01
     5112000000    1.426625550e-01    2.038537264e-01
     5115000000    6.348402798e-02    2.535558939e-01
     5118000000   -2.631959878e-02    2.597652972e-01
     5121000000   -1.200036705e-01    2.396555692e-01
     5124000000   -1.965918690e-01    1.839150488e-01
     5127000000   -2.545043230e-01    1.046986580e-01
     5130000000   -2.778064013e-01    1.182239782e-02
     5133000000   -2.700859606e-01   -8.958847821e-02
     5136000000   -2.248329371e-01   -1.778918207e-01
     5139000000   -1.515426040e-01   -2.551964223e-01
     5142000000   -5.629228801e-02   -2.925038338e-01
     5145000000    4.777818173e-02   -2.945162952e-01
     5148000000    1.507901996e-01   -2.661407888e-01
     5151000000    2.350473702e-01   -2.008380890e-01
     5154000000    2.926103771e-01   -1.100257188e-01
     5157000000    3.155798614e-01    3.419539426e-04
     5160000000    2.991769910e-01    1.078987643e-01
     5163000000    2.450330108e-01    2.067877799e-01
     5166000000    1.593417525e-01    2.811327875e-01
     5169000000    5.834107473e-02    3.180758059e-01
     5172000000   -5.545976758e-02    3.216949105e-01
     5175000000   -1.662767380e-01    2.863092124e-01
     5178000000   -2.466457784e-01    2.154953033e-01
     5181000000   -3.072196245e-01    1.185798422e-01
     5184000000   -3.335793912e-01    5.428004079e-03
     5187000000   -3.147341907e-01   -1.081358790e-01
     5190000000   -2.594585717e-01   -2.082624584e-01
     5193000000   -1.757334769e-01   -2.831998467e-01
     5196000000   -6.508531421e-02   -3.292798102e-01
     5199000000    3.859946877e-02   -3.264955580e-01
     5202000000    1.635192782e-01   -2.976475656e-01
     5205000000    2.510797977e-01   -2.261010557e-01
     5208000000    3.084250093e-01   -1.324292272e-01
     5211000000    3.369385302e-01   -2.039201744e-02
     5214000000    3.221844435e-01    9.487665445e-02
     5217000000    2.724181116e-01    1.947609484e-01
     5220000000    1.865889728e-01    2.767449915e-01
     5223000000    9.023565054e-02    3.164532781e-01
     5226000000   -2.520981245e-02    3.270436227e-01
     5229000000   -1.237686276e-01    2.976779640e-01
     5232000000   -2.181739211e-01    2.389088869e-01
     5235000000   -2.826114297e-01    1.514073908e-01
     5238000000   -3.124627769e-01    5.615630746e-02
     5241000000   -3.123089969e-01   -6.118913367e-02
     5244000000   -2.723201513e-01   -1.585178822e-01
     5247000000   -2.032628804e-01   -2.364196479e-01
     5250000000   -1.084821597e-01   -2.895085514e-01
     5253000000   -7.919153199e-03   -3.060538471e-01
     5256000000    8.575723320e-02   -2.904700041e-01
     5259000000    1.810615063e-01   -2.392816097e-01
     5262000000    2.449924201e-01   -1.650299728e-01
     5265000000    2.843644023e-01   -7.152483612e-02
     5268000000    2.851305604e-01    2.276133746e-02
     5271000000    2.681044340e-01    1.005111188e-01
     5274000000    2.029571980e-01    1.931084692e-01
     5277000000    1.358412355e-01    2.426076531e-01
     5280000000    4.212966934e-02    2.690160573e-01
     5283000000   -4.254222289e-02    2.675860524e-01
     5286000000   -1.286434233e-01    2.345588058e-01
     5289000000   -1.935923547e-01    1.769178063e-01
     5292000000   -2.384581268e-01    1.034922153e-01
     5295000000   -2.553560734e-01    1.577316038e-02
     5298000000   -2.445904166e-01   -6.749431044e-02
     5301000000   -2.032748014e-01   -1.438208073e-01
     5304000000   -1.516931951e-01   -1.991574466e-01
     5307000000   -7.315368950e-02   -2.345063984e-01
     5310000000    4.189670552e-03   -2.451850176e-01
     5313000000    8.013489842e-02   -2.336154133e-01
     5316000000    1.517823935e-01   -1.888415217e-01
     5319000000    2.044739723e-01   -1.301198155e-01
     5322000000    2.295557708e-01   -5.437649414e-02
     5325000000    2.374941558e-01    1.934184134e-02
     5328000000    2.160732746e-01    9.553029388e-02
     5331000000    1.730626374e-01    1.582753062e-01
     5334000000    1.164180487e-01    2.068031281e-01
     5337000000    4.464468360e-02    2.332395315e-01
     5340000000   -3.456532955e-02    2.316804379e-01
     5343000000   -1.093706340e-01    2.091146559e-01
     5346000000   -1.694945991e-01    1.606202275e-01
     5349000000   -2.132011801e-01    9.940332919e-02
     5352000000   -2.313981950e-01    2.323309146e-02
     5355000000   -2.312146574e-01   -5.331995711e-02
     5358000000   -2.045150250e-01   -1.278733015e-01
     5361000000   -1.504178196e-01   -1.882084608e-01
     5364000000   -8.037275821e-02   -2.220122367e-01
     5367000000   -4.094761796e-03   -2.575410306e-01
     5370000000    7.779558748e-02   -2.360519022e-01
     5373000000    1.559477746e-01   -2.023126781e-01
     5376000000    2.083969861e-01   -1.387823671e-01
     5379000000    2.531957328e-01   -6.270793825e-02
     5382000000    2.644814253e-01    2.466316894e-02
     5385000000    2.362102717e-01    1.036782488e-01
     5388000000    1.955802143e-01    1.914089173e-01
     5391000000    1.239686236e-01    2.420146018e-01
     5394000000    3.510529175e-02    2.830358446e-01
     5397000000   -5.143809691e-02    2.692128420e-01
     5400000000   -1.467572749e-01    2.430581003e-01
     5403000000   -2.263952196e-01    1.840937585e-01
     5406000000   -2.795720100e-01    1.002819091e-01
     5409000000   -3.000366092e-01    1.910290099e-03
     5412000000   -2.876219451e-01   -1.023284942e-01
     5415000000   -2.403181791e-01   -1.962057203e-01
     5418000000   -1.631113291e-01   -2.690933645e-01
     5421000000   -6.264899671e-02   -3.132628202e-01
     5424000000    4.399248585e-02   -3.209439814e-01
     5427000000    1.504164487e-01   -2.923227847e-01
     5430000000    2.522856891e-01   -2.220944762e-01
     5433000000    3.159674108e-01   -1.292903423e-01
     5436000000    3.462783098e-01   -1.205337141e-02
     5439000000    3.367058635e-01    1.045451164e-01
     5442000000    2.818216980e-01    2.171324492e-01
     5445000000    1.954897344e-01    3.034018576e-01
     5448000000    8.352965117e-02    3.548862338e-01
     5451000000   -4.310626909e-02    3.675251901e-01
     5454000000   -1.701869220e-01    3.345502019e-01
     5457000000   -2.781006098e-01    2.578484714e-01
     5460000000   -3.523737490e-01    1.461925954e-01
     5463000000   -3.890178502e-01    1.949441433e-02
     5466000000   -3.773278594e-01   -1.161542609e-01
     5469000000   -3.134226799e-01   -2.426182181e-01
     5472000000   -2.131117731e-01   -3.412633836e-01
     5475000000   -8.331736922e-02   -3.990029395e-01
     5478000000    6.061956286e-02   -4.098949432e-01
     5481000000    2.013074011e-01   -3.694792688e-01
     5484000000    3.184753656e-01   -2.755466402e-01
     5487000000    4.019042253e-01   -1.528171152e-01
     5490000000    4.329970777e-01   -3.733378835e-03
     5493000000    4.173266888e-01    1.509940326e-01
     5496000000    3.439536989e-01    2.852826118e-01
     5499000000    2.211779654e-01    3.841674626e-01
     5502000000    7.454589009e-02    4.467748404e-01
     5505000000   -8.662313223e-02    4.490320981e-01
     5508000000   -2.402682006e-01    3.947698176e-01
     5511000000   -3.672570884e-01    2.882640660e-01
     5514000000   -4.475179315e-01    1.452431232e-01
     5517000000   -4.722760320e-01   -2.407190390e-02
     5520000000   -4.390167296e-01   -1.917659640e-01
     5523000000   -3.495204449e-01   -3.398303688e-01
     5526000000   -2.104948759e-01   -4.388838410e-01
     5529000000   -4.454817250e-02   -4.868046641e-01
     5532000000    1.334662735e-01   -4.755894840e-01
     5535000000    2.952774167e-01   -4.032716155e-01
     5538000000    4.040264189e-01   -2.776506245e-01
     5541000000    5.031382442e-01   -1.077262238e-01
     5544000000    5.055216551e-01    6.640721112e-02
     5547000000    4.556094408e-01    2.513451576e-01
     5550000000    3.391943872e-01    3.864185512e-01
     5553000000    1.802183241e-01    4.948622286e-01
     5556000000   -1.978249056e-03    5.269948840e-01
     5559000000   -1.760776490e-01    4.920261204e-01
     5562000000   -3.658846617e-01    4.014194310e-01
     5565000000   -4.790892899e-01    2.519362867e-01
     5568000000   -5.398226380e-01    6.785834581e-02
     5571000000   -5.311420560e-01   -1.291165054e-01
     5574000000   -4.552893937e-01   -3.089413345e-01
     5577000000   -3.146990836e-01   -4.590139091e-01
     5580000000   -1.359255165e-01   -5.434988141e-01
     5583000000    6.305699050e-02   -5.543915033e-01
     5586000000    2.590394020e-01   -5.030836463e-01
     5589000000    4.232749939e-01   -3.799165189e-01
     5592000000    5.330145955e-01   -2.058964074e-01
     5595000000    5.766443610e-01   -2.938308753e-03
     5598000000    5.435720086e-01    1.944948882e-01
     5601000000    4.396014512e-01    3.836010098e-01
     5604000000    2.737197578e-01    5.216324329e-01
     5607000000    8.534661680e-02    5.762315989e-01
     5610000000   -1.490146816e-01    5.809632540e-01
     5613000000   -3.239071667e-01    4.925773144e-01
     5616000000   -4.908554554e-01    3.439603448e-01
     5619000000   -5.810246468e-01    1.486640871e-01
     5622000000   -5.983021855e-01   -7.460328937e-02
     5625000000   -5.365111828e-01   -2.789726555e-01
     5628000000   -4.078342915e-01   -4.462173581e-01
     5631000000   -2.016385943e-01   -5.833636522e-01
     5634000000   -9.272394702e-03   -6.088788509e-01
     5637000000    2.265779972e-01   -5.715792179e-01
     5640000000    4.064154327e-01   -4.606097937e-01
     5643000000    5.436851382e-01   -2.876267135e-01
     5646000000    6.146937013e-01   -6.978513300e-02
     5649000000    5.989493132e-01    1.571698040e-01
     5652000000    5.044922233e-01    3.791704774e-01
     5655000000    3.441842496e-01    5.206953883e-01
     5658000000    1.405956447e-01    6.084043384e-01
     5661000000   -7.613434643e-02    6.177161336e-01
     5664000000   -3.090510368e-01    5.455211401e-01
     5667000000   -4.757948220e-01    4.066627920e-01
     5670000000   -5.845227242e-01    2.162540406e-01
     5673000000   -6.317917705e-01   -3.128537536e-02
     5676000000   -5.800680518e-01   -2.388926744e-01
     5679000000   -4.555506110e-01   -4.347490370e-01
     5682000000   -2.593998909e-01   -5.784374475e-01
     5685000000   -4.748316854e-02   -6.263977885e-01
     5688000000    1.823551357e-01   -6.058298945e-01
     5691000000    3.726188838e-01   -5.039277077e-01
     5694000000    5.528495312e-01   -3.162469864e-01
     5697000000    6.277976632e-01   -1.023026630e-01
     5700000000    6.197183132e-01    1.224676594e-01
     5703000000    5.276023746e-01    3.596873879e-01
     5706000000    3.747414649e-01    5.149199367e-01
     5709000000    1.701735556e-01    6.119035482e-01
     5712000000   -8.280282468e-02    6.303327084e-01
     5715000000   -2.847633660e-01    5.657631159e-01
     5718000000   -4.772855639e-01    4.184611738e-01
     5721000000   -5.967504382e-01    2.169551551e-01
     5724000000   -6.387632489e-01   -1.101497095e-02
     5727000000   -5.853902698e-01   -2.550423145e-01
     5730000000   -4.715769589e-01   -4.274480343e-01
     5733000000   -2.726514637e-01   -5.810838342e-01
     5736000000   -5.228064209e-02   -6.373969316e-01
     5739000000    1.891806573e-01   -6.133962274e-01
     5742000000    4.012192488e-01   -5.043234229e-01
     5745000000    5.506299138e-01   -3.326482475e-01
     5748000000    6.407405734e-01   -8.011356741e-02
     5751000000    6.331871748e-01    1.141311377e-01
     5754000000    5.348619819e-01    3.619635403e-01
     5757000000    3.788667321e-01    5.196463466e-01
     5760000000    1.484460384e-01    6.322039962e-01
     5763000000   -8.513481170e-02    6.444082260e-01
     5766000000   -3.116170168e-01    5.690398216e-01
     5769000000   -4.900617301e-01    4.274691939e-01
     5772000000   -6.094095707e-01    2.253121138e-01
     5775000000   -6.526966691e-01   -4.490311816e-02
     5778000000   -6.011360884e-01   -2.592463493e-01
     5781000000   -4.570163786e-01   -4.719049633e-01
     5784000000   -2.523284256e-01   -6.055585146e-01
     5787000000   -2.062773705e-02   -6.572200060e-01
     5790000000    2.202223241e-01   -6.239783168e-01
     5793000000    4.367253184e-01   -4.982481301e-01
     5796000000    5.859538913e-01   -3.106873035e-01
     5799000000    6.613616347e-01   -6.718393415e-02
     5802000000    6.472856998e-01    1.577706039e-01
     5805000000    5.393491983e-01    3.946725428e-01
     5808000000    3.645151258e-01    5.626550913e-01
     5811000000    1.120763570e-01    6.651312113e-01
     5814000000   -1.117522642e-01    6.682611704e-01
     5817000000   -3.470209241e-01    5.789701939e-01
     5820000000   -5.451486111e-01    4.131764174e-01
     5823000000   -6.633827686e-01    1.917410940e-01
     5826000000   -6.848392487e-01   -6.466618925e-02
     5829000000   -6.120644212e-01   -3.247506022e-01
     5832000000   -4.779557884e-01   -5.037128329e-01
     5835000000   -2.402096540e-01   -6.588537097e-01
     5838000000   -4.044068512e-03   -7.055534720e-01
     5841000000    2.623552084e-01   -6.543704271e-01
     5844000000    4.819696546e-01   -5.211423039e-01
     5847000000    6.458699107e-01   -3.060765862e-01
     5850000000    7.154598832e-01   -5.988216773e-02
     5853000000    6.904941201e-01    2.079816312e-01
     5856000000    5.720027685e-01    4.422781467e-01
     5859000000    3.661322892e-01    6.272941828e-01
     5862000000    1.238320619e-01    7.206392884e-01
     5865000000   -1.348741055e-01    7.230547667e-01
     5868000000   -3.947506249e-01    6.191641688e-01
     5871000000   -6.026304960e-01    4.238400459e-01
     5874000000   -7.181954384e-01    2.026438117e-01
     5877000000   -7.470888495e-01   -6.550174952e-02
     5880000000   -6.873785853e-01   -3.268220723e-01
     5883000000   -4.975788593e-01   -5.668779612e-01
     5886000000   -2.533887625e-01   -7.131073475e-01
     5889000000   -1.308210194e-02   -7.708660960e-01
     5892000000    2.864484787e-01   -7.100878358e-01
     5895000000    5.153477192e-01   -5.716066957e-01
     5898000000    6.958695054e-01   -3.343703151e-01
     5901000000    7.722680569e-01   -9.047084302e-02
     5904000000    7.465680242e-01    2.143138796e-01
     5907000000    6.434018016e-01    4.554129541e-01
     5910000000    4.372881949e-01    6.507115960e-01
     5913000000    1.414452046e-01    7.697790861e-01
     5916000000   -1.362931430e-01    7.758864164e-01
     5919000000   -4.088833928e-01    6.823520660e-01
     5922000000   -6.258682609e-01    4.838577807e-01
     5925000000   -7.587857842e-01    2.290990055e-01
     5928000000   -7.883747816e-01   -5.895536393e-02
     5931000000   -7.089814544e-01   -3.475537896e-01
     5934000000   -5.803773403e-01   -5.698082447e-01
     5937000000   -3.113306761e-01   -7.439152002e-01
     5940000000   -1.226039510e-02   -7.971448898e-01
     5943000000    2.647061944e-01   -7.692432404e-01
     5946000000    5.220939517e-01   -6.159067750e-01
     5949000000    7.094094157e-01   -3.812999129e-01
     5952000000    8.053281903e-01   -1.182770655e-01
     5955000000    7.829301357e-01    1.969177276e-01
     5958000000    6.713288426e-01    4.619965851e-01
     5961000000    4.770461917e-01    6.702004075e-01
     5964000000    1.849179715e-01    7.930932641e-01
     5967000000   -1.118082032e-01    8.045493960e-01
     5970000000   -4.032144248e-01    7.103718519e-01
     5973000000   -6.227306724e-01    5.286583304e-01
     5976000000   -7.806167006e-01    2.723315656e-01
     5979000000   -8.310542703e-01   -1.025664899e-02
     5982000000   -7.456094623e-01   -3.362793326e-01
     5985000000   -5.922134519e-01   -5.713018775e-01
     5988000000   -3.369915485e-01   -7.479919195e-01
     5991000000   -5.589293689e-02   -8.210341930e-01
     5994000000    2.451414466e-01   -7.854777575e-01
     5997000000    5.075808764e-01   -6.484248042e-01
     6000000000    7.018542290e-01   -4.253666401e-01
