! NanoVNA-App
! Date: 2026-05-22 18:06:01
! Start: 2.3GHz Stop: 2.6GHz Points: 401
! S-Parameter data: F S11
# Hz S RI R 50
!     Frequency           S11_Real           S11_Imag
     2300000000    1.145918220e-01    3.636296391e-01
     2300750000    8.232371509e-02    3.719997108e-01
     2301500000    5.400835350e-02    3.745374382e-01
     2302250000    1.941842027e-02    3.789051771e-01
     2303000000   -1.234865375e-02    3.780835867e-01
     2303750000   -4.414003715e-02    3.743899465e-01
     2304500000   -7.318098098e-02    3.679832816e-01
     2305250000   -1.034973636e-01    3.596330285e-01
     2306000000   -1.341062933e-01    3.485704958e-01
     2306750000   -1.646183729e-01    3.345258534e-01
     2307500000   -1.883038431e-01    3.200701177e-01
     2308250000   -2.143833041e-01    3.014096618e-01
     2309000000   -2.373032868e-01    2.816855907e-01
     2309750000   -2.597370446e-01    2.588855028e-01
     2310500000   -2.815591097e-01    2.343190610e-01
     2311250000   -2.971447110e-01    2.106347084e-01
     2312000000   -3.153662980e-01    1.822967678e-01
     2312750000   -3.271781504e-01    1.560186148e-01
     2313500000   -3.373566568e-01    1.283768117e-01
     2314250000   -3.467615247e-01    9.824396670e-02
     2315000000   -3.527413607e-01    6.843053550e-02
     2315750000   -3.550998569e-01    3.891864419e-02
     2316500000   -3.564457297e-01    8.894457482e-03
     2317250000   -3.550339341e-01   -2.297822386e-02
     2318000000   -3.506828845e-01   -5.479896069e-02
     2318750000   -3.443873525e-01   -8.046198636e-02
     2319500000   -3.352670968e-01   -1.099615097e-01
     2320250000   -3.231438398e-01   -1.398958117e-01
     2321000000   -3.103716075e-01   -1.635085940e-01
     2321750000   -2.937405705e-01   -1.894860715e-01
     2322500000   -2.771709263e-01   -2.117231786e-01
     2323250000   -2.554230094e-01   -2.388885170e-01
     2324000000   -2.356533557e-01   -2.554877996e-01
     2324750000   -2.136248350e-01   -2.732219696e-01
     2325500000   -1.893190891e-01   -2.895861566e-01
     2326250000   -1.645843983e-01   -3.027442396e-01
     2327000000   -1.364675611e-01   -3.162799478e-01
     2327750000   -1.082131341e-01   -3.272579908e-01
     2328500000   -8.304983377e-02   -3.327068686e-01
     2329250000   -5.300837010e-02   -3.383315504e-01
     2330000000   -2.411878668e-02   -3.411511481e-01
     2330750000    1.923306379e-03   -3.400168121e-01
     2331500000    2.821567468e-02   -3.380185664e-01
     2332250000    6.046397239e-02   -3.336278200e-01
     2333000000    8.586230129e-02   -3.270054460e-01
     2333750000    1.137098521e-01   -3.183239996e-01
     2334500000    1.383243054e-01   -3.062632382e-01
     2335250000    1.649972796e-01   -2.924100757e-01
     2336000000    1.853249073e-01   -2.787261009e-01
     2336750000    2.077321410e-01   -2.613507211e-01
     2337500000    2.280609608e-01   -2.426871955e-01
     2338250000    2.464213818e-01   -2.212472409e-01
     2339000000    2.624888122e-01   -2.005436420e-01
     2339750000    2.786692381e-01   -1.764285117e-01
     2340500000    2.893918455e-01   -1.538355947e-01
     2341250000    3.008313179e-01   -1.283759326e-01
     2342000000    3.097218573e-01   -1.016119644e-01
     2342750000    3.144775331e-01   -7.849026471e-02
     2343500000    3.186999261e-01   -5.109328777e-02
     2344250000    3.210290968e-01   -2.564238757e-02
     2345000000    3.205529451e-01    1.514079631e-03
     2345750000    3.177846968e-01    2.729034424e-02
     2346500000    3.127940297e-01    5.560706183e-02
     2347250000    3.066232502e-01    7.962599397e-02
     2348000000    2.979730368e-01    1.049210653e-01
     2348750000    2.874528766e-01    1.256755888e-01
     2349500000    2.753446996e-01    1.497752666e-01
     2350250000    2.599209249e-01    1.719444543e-01
     2351000000    2.446046919e-01    1.908834875e-01
     2351750000    2.262480408e-01    2.102851421e-01
     2352500000    2.078646719e-01    2.258880734e-01
     2353250000    1.873161793e-01    2.422079742e-01
     2354000000    1.667700708e-01    2.549665570e-01
     2354750000    1.427761316e-01    2.668052316e-01
     2355500000    1.226227134e-01    2.753435075e-01
     2356250000    9.507156163e-02    2.840456069e-01
     2357000000    7.447530329e-02    2.885011733e-01
     2357750000    4.988297075e-02    2.926176190e-01
     2358500000    2.475539781e-02    2.939847410e-01
     2359250000   -4.619629472e-04    2.934404016e-01
     2360000000   -2.258001827e-02    2.912401557e-01
     2360750000   -4.816617444e-02    2.860259414e-01
     2361500000   -7.126878947e-02    2.799423039e-01
     2362250000   -9.278219193e-02    2.717376649e-01
     2363000000   -1.137095541e-01    2.618549168e-01
     2363750000   -1.338570714e-01    2.506283224e-01
     2364500000   -1.540805101e-01    2.366971821e-01
     2365250000   -1.729726493e-01    2.219523489e-01
     2366000000   -1.896234155e-01    2.056854814e-01
     2366750000   -2.042476237e-01    1.883587539e-01
     2367500000   -2.176839262e-01    1.705830991e-01
     2368250000   -2.312696576e-01    1.490621418e-01
     2369000000   -2.405486256e-01    1.304840147e-01
     2369750000   -2.488207668e-01    1.109688058e-01
     2370500000   -2.562776804e-01    8.853514493e-02
     2371250000   -2.608948648e-01    6.566107273e-02
     2372000000   -2.639180422e-01    4.594724625e-02
     2372750000   -2.647702396e-01    2.202639729e-02
     2373500000   -2.646449208e-01    2.428461099e-03
     2374250000   -2.620753944e-01   -2.137752250e-02
     2375000000   -2.579775751e-01   -4.228729382e-02
     2375750000   -2.513925433e-01   -6.414947659e-02
     2376500000   -2.450832725e-01   -8.147756010e-02
     2377250000   -2.365213931e-01   -1.002699882e-01
     2378000000   -2.239183784e-01   -1.215599477e-01
     2378750000   -2.143439502e-01   -1.364040971e-01
     2379500000   -1.983205676e-01   -1.550962180e-01
     2380250000   -1.822337359e-01   -1.708230376e-01
     2381000000   -1.704470515e-01   -1.821420044e-01
     2381750000   -1.527152807e-01   -1.950643808e-01
     2382500000   -1.335291415e-01   -2.063301653e-01
     2383250000   -1.173669323e-01   -2.154882848e-01
     2384000000   -9.853632748e-02   -2.228479087e-01
     2384750000   -7.796575874e-02   -2.295515686e-01
     2385500000   -5.856973305e-02   -2.338596135e-01
     2386250000   -4.113532603e-02   -2.371520102e-01
     2387000000   -1.779011451e-02   -2.375042289e-01
     2387750000   -7.213249773e-05   -2.376662940e-01
     2388500000    1.876894385e-02   -2.364413142e-01
     2389250000    3.892923519e-02   -2.323108315e-01
     2390000000    5.588580295e-02   -2.280320227e-01
     2390750000    7.713401318e-02   -2.197871655e-01
     2391500000    9.281414002e-02   -2.130280137e-01
     2392250000    1.086584777e-01   -2.033789307e-01
     2393000000    1.242643148e-01   -1.932469606e-01
     2393750000    1.388552338e-01   -1.817877144e-01
     2394500000    1.521291882e-01   -1.688132286e-01
     2395250000    1.653540134e-01   -1.532949507e-01
     2396000000    1.748901308e-01   -1.413348019e-01
     2396750000    1.855582148e-01   -1.241589710e-01
     2397500000    1.934288591e-01   -1.074577272e-01
     2398250000    2.007465810e-01   -9.104832262e-02
     2399000000    2.060831487e-01   -7.399049401e-02
     2399750000    2.106343508e-01   -5.618190020e-02
     2400500000    2.132578492e-01   -3.899708763e-02
     2401250000    2.140277177e-01   -2.030312270e-02
     2402000000    2.143061459e-01   -4.499780014e-03
     2402750000    2.124510556e-01    1.349226385e-02
     2403500000    2.097624838e-01    3.005970642e-02
     2404250000    2.060270607e-01    4.664262012e-02
     2405000000    2.000401467e-01    6.273403764e-02
     2405750000    1.923533380e-01    7.917764783e-02
     2406500000    1.852689832e-01    9.253712744e-02
     2407250000    1.757281870e-01    1.063154712e-01
     2408000000    1.649200767e-01    1.196148545e-01
     2408750000    1.551333964e-01    1.310012937e-01
     2409500000    1.406713575e-01    1.422708035e-01
     2410250000    1.310134232e-01    1.514432430e-01
     2411000000    1.148544773e-01    1.602961868e-01
     2411750000    1.000918671e-01    1.676714718e-01
     2412500000    8.577571064e-02    1.744536608e-01
     2413250000    7.015859336e-02    1.791691035e-01
     2414000000    5.596403033e-02    1.836961955e-01
     2414750000    3.979447111e-02    1.862577498e-01
     2415500000    2.427136898e-02    1.878039390e-01
     2416250000    8.785468526e-03    1.880494058e-01
     2417000000   -6.614636164e-03    1.871630698e-01
     2417750000   -2.211488970e-02    1.841246784e-01
     2418500000   -3.621454164e-02    1.814748198e-01
     2419250000   -5.077980086e-02    1.764759123e-01
     2420000000   -6.482096761e-02    1.708673686e-01
     2420750000   -7.774379104e-02    1.646435708e-01
     2421500000   -9.045863152e-02    1.569020599e-01
     2422250000   -1.017069370e-01    1.475075930e-01
     2423000000   -1.125215739e-01    1.392968148e-01
     2423750000   -1.226311028e-01    1.288210154e-01
     2424500000   -1.319970191e-01    1.170195565e-01
     2425250000   -1.398475170e-01    1.043234691e-01
     2426000000   -1.491902620e-01    9.267482162e-02
     2426750000   -1.534995735e-01    8.132122457e-02
     2427500000   -1.575304568e-01    6.778149307e-02
     2428250000   -1.613555551e-01    5.471513048e-02
     2429000000   -1.646870375e-01    4.284189269e-02
     2429750000   -1.656109393e-01    2.864748053e-02
     2430500000   -1.654830277e-01    1.499178074e-02
     2431250000   -1.655035913e-01    2.608069917e-03
     2432000000   -1.640479416e-01   -1.007835940e-02
     2432750000   -1.608115435e-01   -2.336728387e-02
     2433500000   -1.571753174e-01   -3.578754142e-02
     2434250000   -1.530519873e-01   -4.716255516e-02
     2435000000   -1.470269412e-01   -5.913866684e-02
     2435750000   -1.395399421e-01   -6.958098710e-02
     2436500000   -1.335507631e-01   -7.985540479e-02
     2437250000   -1.253523082e-01   -8.960793912e-02
     2438000000   -1.156549901e-01   -9.813256562e-02
     2438750000   -1.044228971e-01   -1.056651771e-01
     2439500000   -9.736686200e-02   -1.135667041e-01
     2440250000   -8.631739020e-02   -1.196018234e-01
     2441000000   -7.585798204e-02   -1.247664243e-01
     2441750000   -6.542108953e-02   -1.295560598e-01
     2442500000   -5.262446031e-02   -1.319930404e-01
     2443250000   -4.263923317e-02   -1.356848329e-01
     2444000000   -2.964925952e-02   -1.365999281e-01
     2444750000   -1.918061078e-02   -1.379757077e-01
     2445500000   -7.098946255e-03   -1.369365156e-01
     2446250000    4.274635110e-03   -1.357435435e-01
     2447000000    1.504862122e-02   -1.343587935e-01
     2447750000    2.595454268e-02   -1.309534311e-01
     2448500000    3.664761409e-02   -1.272936314e-01
     2449250000    4.621093348e-02   -1.229805574e-01
     2450000000    5.524530634e-02   -1.164638251e-01
     2450750000    6.520299613e-02   -1.111012995e-01
     2451500000    7.334606349e-02   -1.045459062e-01
     2452250000    8.147569746e-02   -9.738580137e-02
     2453000000    8.849168569e-02   -8.979299664e-02
     2453750000    9.478159249e-02   -8.106986433e-02
     2454500000    1.009110212e-01   -7.251922041e-02
     2455250000    1.056716964e-01   -6.388665736e-02
     2456000000    1.096015573e-01   -5.353770778e-02
     2456750000    1.135860011e-01   -4.466389492e-02
     2457500000    1.154341474e-01   -3.494949639e-02
     2458250000    1.183193102e-01   -2.534571849e-02
     2459000000    1.188179851e-01   -1.531717367e-02
     2459750000    1.191207170e-01   -5.652441643e-03
     2460500000    1.180956885e-01    3.600590397e-03
     2461250000    1.177233756e-01    1.333909761e-02
     2462000000    1.151666641e-01    2.263761684e-02
     2462750000    1.118542999e-01    3.112299182e-02
     2463500000    1.089311689e-01    3.913354874e-02
     2464250000    1.041661277e-01    4.668805003e-02
     2465000000    9.979050606e-02    5.542203784e-02
     2465750000    9.382127970e-02    6.179396436e-02
     2466500000    8.841514587e-02    6.889811158e-02
     2467250000    8.121825010e-02    7.490994036e-02
     2468000000    7.512944937e-02    8.012884855e-02
     2468750000    6.766567379e-02    8.460967988e-02
     2469500000    5.972577259e-02    8.899839967e-02
     2470250000    5.210963264e-02    9.190363437e-02
     2471000000    4.407584295e-02    9.481491894e-02
     2471750000    3.534760699e-02    9.723451734e-02
     2472500000    2.715629525e-02    9.830025584e-02
     2473250000    1.877773367e-02    9.913275391e-02
     2474000000    9.996980429e-03    9.977349639e-02
     2474750000    1.607238781e-03    9.938584268e-02
     2475500000   -6.954895332e-03    9.802404046e-02
     2476250000   -1.473174989e-02    9.630814195e-02
     2477000000   -2.216406912e-02    9.374136478e-02
     2477750000   -2.971273474e-02    9.080719203e-02
     2478500000   -3.649726883e-02    8.758821338e-02
     2479250000   -4.255378991e-02    8.392468095e-02
     2480000000   -4.954550043e-02    7.760399580e-02
     2480750000   -5.590789393e-02    7.402768731e-02
     2481500000   -6.059668958e-02    6.890320033e-02
     2482250000   -6.581798196e-02    6.296140701e-02
     2483000000   -6.981778145e-02    5.709590763e-02
     2483750000   -7.359884679e-02    5.083696172e-02
     2484500000   -7.685079426e-02    4.408307374e-02
     2485250000   -7.981122285e-02    3.701749817e-02
     2486000000   -8.198887110e-02    2.981378697e-02
     2486750000   -8.361449093e-02    2.272314578e-02
     2487500000   -8.446592093e-02    1.578487828e-02
     2488250000   -8.444528282e-02    8.721718565e-03
     2489000000   -8.466500789e-02    1.620366005e-03
     2489750000   -8.359133452e-02   -5.864705425e-03
     2490500000   -8.266525716e-02   -1.238261815e-02
     2491250000   -8.092726022e-02   -1.873053610e-02
     2492000000   -7.840415090e-02   -2.588140965e-02
     2492750000   -7.563628256e-02   -3.213658929e-02
     2493500000   -7.227181643e-02   -3.705467656e-02
     2494250000   -6.867035478e-02   -4.309615120e-02
     2495000000   -6.443712115e-02   -4.918202385e-02
     2495750000   -6.045116857e-02   -5.260370299e-02
     2496500000   -5.552860349e-02   -5.660467222e-02
     2497250000   -5.040338263e-02   -6.140305102e-02
     2498000000   -4.495180026e-02   -6.404813379e-02
     2498750000   -3.904491290e-02   -6.763181835e-02
     2499500000   -3.391933441e-02   -6.962627172e-02
     2500250000   -2.830298617e-02   -7.142429799e-02
     2501000000   -2.140861377e-02   -7.333100587e-02
     2501750000   -1.534842979e-02   -7.433746755e-02
     2502500000   -8.994299918e-03   -7.469099015e-02
     2503250000   -3.301494056e-03   -7.477133721e-02
     2504000000    2.810631180e-03   -7.417748868e-02
     2504750000    8.377376013e-03   -7.368493080e-02
     2505500000    1.415691990e-02   -7.226747274e-02
     2506250000    1.934790425e-02   -6.995654851e-02
     2507000000    2.552322298e-02   -6.781844795e-02
     2507750000    3.083834983e-02   -6.485286355e-02
     2508500000    3.574701399e-02   -6.179207936e-02
     2509250000    4.058066010e-02   -5.827351660e-02
     2510000000    4.427692294e-02   -5.531471595e-02
     2510750000    4.868584499e-02   -5.093489587e-02
     2511500000    5.320059881e-02   -4.670782760e-02
     2512250000    5.608159304e-02   -4.233982414e-02
     2513000000    5.904424563e-02   -3.772589937e-02
     2513750000    6.130495295e-02   -3.275040165e-02
     2514500000    6.353120506e-02   -2.800681628e-02
     2515250000    6.530025601e-02   -2.345233411e-02
     2516000000    6.625815481e-02   -1.788281463e-02
     2516750000    6.693281978e-02   -1.363290846e-02
     2517500000    6.753966957e-02   -7.763345260e-03
     2518250000    6.721925735e-02   -2.914702753e-03
     2519000000    6.647399813e-02    2.190137748e-03
     2519750000    6.533153355e-02    7.466608193e-03
     2520500000    6.353347003e-02    1.196342427e-02
     2521250000    6.208459288e-02    1.662381366e-02
     2522000000    6.001626328e-02    2.153158188e-02
     2522750000    5.764471367e-02    2.590250038e-02
     2523500000    5.460024625e-02    3.005636111e-02
     2524250000    5.119208246e-02    3.587434813e-02
     2525000000    4.733537510e-02    3.941582143e-02
     2525750000    4.314709082e-02    4.339834303e-02
     2526500000    4.019922763e-02    4.586052150e-02
     2527250000    3.529922292e-02    4.885178059e-02
     2528000000    3.225208446e-02    5.103964731e-02
     2528750000    2.751611918e-02    5.362699181e-02
     2529500000    2.266086824e-02    5.486026406e-02
     2530250000    1.807717793e-02    5.618441850e-02
     2531000000    1.357305795e-02    5.743860081e-02
     2531750000    8.343344554e-03    5.755915865e-02
     2532500000    4.170402419e-03    5.837061256e-02
     2533250000   -4.222470452e-04    5.838423222e-02
     2534000000   -4.919032101e-03    5.778237432e-02
     2534750000   -9.082572535e-03    5.681589618e-02
     2535500000   -1.408012677e-02    5.552792549e-02
     2536250000   -1.806130260e-02    5.366564170e-02
     2537000000   -2.165271342e-02    5.252426490e-02
     2537750000   -2.545805462e-02    5.038340762e-02
     2538500000   -2.960382774e-02    4.765440896e-02
     2539250000   -3.273954242e-02    4.608763754e-02
     2540000000   -3.628000617e-02    4.183952883e-02
     2540750000   -3.879193962e-02    3.906564787e-02
     2541500000   -4.134740680e-02    3.562209755e-02
     2542250000   -4.419068620e-02    3.259042650e-02
     2543000000   -4.547552019e-02    2.835668996e-02
     2543750000   -4.785951227e-02    2.439457178e-02
     2544500000   -4.936097562e-02    2.116396464e-02
     2545250000   -5.094020814e-02    1.664787158e-02
     2546000000   -5.103019252e-02    1.250420604e-02
     2546750000   -5.142327771e-02    8.645564318e-03
     2547500000   -5.155903846e-02    5.109130871e-03
     2548250000   -5.108409002e-02    6.394916563e-04
     2549000000   -5.121274665e-02   -3.205326386e-03
     2549750000   -4.980442673e-02   -7.713359315e-03
     2550500000   -4.874067754e-02   -1.163352374e-02
     2551250000   -4.651056975e-02   -1.520571113e-02
     2552000000   -4.525124282e-02   -1.930503361e-02
     2552750000   -4.402724653e-02   -2.253102697e-02
     2553500000   -4.187235981e-02   -2.629937790e-02
     2554250000   -3.890828788e-02   -2.963232808e-02
     2555000000   -3.581778333e-02   -3.206742182e-02
     2555750000   -3.309933841e-02   -3.558198735e-02
     2556500000   -2.983373776e-02   -3.835261241e-02
     2557250000   -2.658455260e-02   -3.950460255e-02
     2558000000   -2.303104475e-02   -4.179767147e-02
     2558750000   -2.014690638e-02   -4.433508590e-02
     2559500000   -1.531176921e-02   -4.409983009e-02
     2560250000   -1.202336140e-02   -4.645179212e-02
     2561000000   -8.029227145e-03   -4.672380537e-02
     2561750000   -3.752574790e-03   -4.778027162e-02
     2562500000   -1.292507386e-05   -4.721732438e-02
     2563250000    4.331793636e-03   -4.654641449e-02
     2564000000    8.434819989e-03   -4.725595564e-02
     2564750000    1.264123246e-02   -4.712313786e-02
     2565500000    1.678022556e-02   -4.540922120e-02
     2566250000    2.032613941e-02   -4.339183867e-02
     2567000000    2.418741025e-02   -4.249287397e-02
     2567750000    2.814406343e-02   -4.008238390e-02
     2568500000    3.145472333e-02   -3.812139854e-02
     2569250000    3.460310772e-02   -3.603093326e-02
     2570000000    3.711213917e-02   -3.303438798e-02
     2570750000    4.078299180e-02   -2.975723520e-02
     2571500000    4.339455441e-02   -2.715237066e-02
     2572250000    4.586824030e-02   -2.366626449e-02
     2573000000    4.785805196e-02   -2.004548348e-02
     2573750000    4.974343255e-02   -1.602122188e-02
     2574500000    5.131864920e-02   -1.235232875e-02
     2575250000    5.260268226e-02   -8.403921500e-03
     2576000000    5.285490677e-02   -4.898490384e-03
     2576750000    5.346346274e-02   -1.847123640e-04
     2577500000    5.313769355e-02    4.073531833e-03
     2578250000    5.362284929e-02    8.905031718e-03
     2579000000    5.306093022e-02    1.242114604e-02
     2579750000    5.283689871e-02    1.710679196e-02
     2580500000    5.150950328e-02    2.108556032e-02
     2581250000    4.942421243e-02    2.464504540e-02
     2582000000    4.776227847e-02    2.895334922e-02
     2582750000    4.583650827e-02    3.381330520e-02
     2583500000    4.272324592e-02    3.589523584e-02
     2584250000    3.966407478e-02    3.984319419e-02
     2585000000    3.765457496e-02    4.403327778e-02
     2585750000    3.345517442e-02    4.819570482e-02
     2586500000    2.996213548e-02    4.921764135e-02
     2587250000    2.592319250e-02    5.371314660e-02
     2588000000    2.176523022e-02    5.513159558e-02
     2588750000    1.705820113e-02    5.691609532e-02
     2589500000    1.261609327e-02    5.902963504e-02
     2590250000    7.952113636e-03    5.891172960e-02
     2591000000    2.821300644e-03    6.129159033e-02
     2591750000   -2.876116429e-03    6.179443002e-02
     2592500000   -7.540519349e-03    6.174760312e-02
     2593250000   -1.184156537e-02    6.068930775e-02
     2594000000   -1.742018014e-02    6.111884490e-02
     2594750000   -2.365729213e-02    5.976775289e-02
     2595500000   -2.758589759e-02    5.786071718e-02
     2596250000   -3.264684603e-02    5.644968525e-02
     2597000000   -3.509787470e-02    5.349289626e-02
     2597750000   -4.215689003e-02    5.208375677e-02
     2598500000   -4.641927034e-02    4.899065197e-02
     2599250000   -5.280154571e-02    4.484270141e-02
     2600000000   -5.634381995e-02    4.188689962e-02
