! NanoVNA-App
! Date: 2026-05-22 19:15:51
! Start: 2.3GHz Stop: 2.6GHz Points: 401
! S-Parameter data: F S11
# Hz S RI R 50
!     Frequency           S11_Real           S11_Imag
     2300000000   -4.045491666e-02    3.829733701e-03
     2300750000   -5.095192790e-02    4.204272758e-03
     2301500000   -6.101960316e-02    3.897205461e-03
     2302250000   -7.048503309e-02    2.878655447e-03
     2303000000   -7.988716662e-02    1.520955586e-03
     2303750000   -8.928732574e-02   -3.628764171e-05
     2304500000   -9.782822430e-02   -2.113070339e-03
     2305250000   -1.060938686e-01   -4.792234860e-03
     2306000000   -1.134201214e-01   -7.489603013e-03
     2306750000   -1.205579862e-01   -1.062637940e-02
     2307500000   -1.271417439e-01   -1.434991974e-02
     2308250000   -1.318799853e-01   -1.747670583e-02
     2309000000   -1.379086375e-01   -1.947415993e-02
     2309750000   -1.418092251e-01   -2.389616333e-02
     2310500000   -1.455303431e-01   -2.748978324e-02
     2311250000   -1.469191164e-01   -3.149420768e-02
     2312000000   -1.494702399e-01   -3.600069508e-02
     2312750000   -1.493773460e-01   -3.910907358e-02
     2313500000   -1.500226110e-01   -4.356436059e-02
     2314250000   -1.490969956e-01   -4.643874988e-02
     2315000000   -1.475856900e-01   -4.938637465e-02
     2315750000   -1.458940655e-01   -5.343341827e-02
     2316500000   -1.431038231e-01   -5.515115336e-02
     2317250000   -1.391107440e-01   -5.890715495e-02
     2318000000   -1.352668852e-01   -5.880950391e-02
     2318750000   -1.305832714e-01   -6.046478078e-02
     2319500000   -1.254066527e-01   -5.942888558e-02
     2320250000   -1.190671772e-01   -6.187978387e-02
     2321000000   -1.133653149e-01   -5.898844451e-02
     2321750000   -1.071055233e-01   -5.843232200e-02
     2322500000   -1.001077220e-01   -5.779556558e-02
     2323250000   -9.315332025e-02   -5.645923316e-02
     2324000000   -8.508891612e-02   -5.372195691e-02
     2324750000   -7.903905213e-02   -4.849113896e-02
     2325500000   -7.106202096e-02   -4.582570493e-02
     2326250000   -6.454324722e-02   -3.965071216e-02
     2327000000   -5.629457533e-02   -3.661878780e-02
     2327750000   -4.866511002e-02   -3.111415915e-02
     2328500000   -4.223905504e-02   -2.403552644e-02
     2329250000   -3.607390076e-02   -1.735870913e-02
     2330000000   -2.872068994e-02   -1.108839363e-02
     2330750000   -2.302178554e-02   -4.072349984e-03
     2331500000   -1.758312620e-02    3.744759364e-03
     2332250000   -1.152664050e-02    1.125241071e-02
     2333000000   -7.701701019e-03    1.954025961e-02
     2333750000   -2.717990428e-03    2.700823359e-02
     2334500000    7.371145766e-04    3.550234810e-02
     2335250000    4.631035961e-03    4.321847484e-02
     2336000000    6.872731261e-03    5.111968517e-02
     2336750000    9.301578626e-03    5.932701007e-02
     2337500000    1.128852181e-02    6.689042598e-02
     2338250000    1.166558173e-02    7.413905859e-02
     2339000000    1.258227229e-02    8.117908984e-02
     2339750000    1.275120396e-02    8.805844933e-02
     2340500000    1.259504259e-02    9.377394617e-02
     2341250000    1.164795551e-02    1.007969677e-01
     2342000000    1.067177206e-02    1.054453999e-01
     2342750000    8.637445047e-03    1.089647412e-01
     2343500000    6.860856898e-03    1.141306460e-01
     2344250000    4.144935403e-03    1.181441694e-01
     2345000000    1.435412210e-03    1.203525886e-01
     2345750000   -1.342684962e-03    1.221151277e-01
     2346500000   -4.962581210e-03    1.242417321e-01
     2347250000   -7.974342443e-03    1.244342998e-01
     2348000000   -1.141683571e-02    1.241689920e-01
     2348750000   -1.385774836e-02    1.219549105e-01
     2349500000   -1.858418435e-02    1.211268753e-01
     2350250000   -2.209483273e-02    1.183553487e-01
     2351000000   -2.442852035e-02    1.149454042e-01
     2351750000   -2.605496906e-02    1.102956757e-01
     2352500000   -3.028875776e-02    1.060677916e-01
     2353250000   -3.373469412e-02    1.010023952e-01
     2354000000   -3.360705078e-02    9.388909489e-02
     2354750000   -3.512328863e-02    8.746558428e-02
     2355500000   -3.730124608e-02    8.004552126e-02
     2356250000   -4.055687785e-02    7.219056785e-02
     2357000000   -3.901562467e-02    6.423904002e-02
     2357750000   -3.851012886e-02    5.555139109e-02
     2358500000   -3.775135055e-02    4.661948234e-02
     2359250000   -3.695074096e-02    3.708650917e-02
     2360000000   -3.501182795e-02    2.771861292e-02
     2360750000   -3.283774853e-02    1.816260628e-02
     2361500000   -3.045724891e-02    8.515520021e-03
     2362250000   -2.624882944e-02   -1.430373406e-03
     2363000000   -2.192871273e-02   -1.039998233e-02
     2363750000   -1.760265604e-02   -2.011141181e-02
     2364500000   -1.283515804e-02   -2.909058146e-02
     2365250000   -7.181508932e-03   -3.823117539e-02
     2366000000   -1.297683804e-03   -4.640316963e-02
     2366750000    4.770987201e-03   -5.466329306e-02
     2367500000    1.118957344e-02   -6.242191792e-02
     2368250000    1.841157489e-02   -7.013225555e-02
     2369000000    2.526609413e-02   -7.617021352e-02
     2369750000    3.318870068e-02   -8.195148408e-02
     2370500000    4.055225849e-02   -8.706757426e-02
     2371250000    4.826575890e-02   -9.208254516e-02
     2372000000    5.618638173e-02   -9.619236737e-02
     2372750000    6.373838335e-02   -9.837260842e-02
     2373500000    7.167133689e-02   -1.012742221e-01
     2374250000    7.958086580e-02   -1.031820476e-01
     2375000000    8.668246120e-02   -1.037833765e-01
     2375750000    9.527428448e-02   -1.041726321e-01
     2376500000    1.006435156e-01   -1.035169959e-01
     2377250000    1.079191118e-01   -1.023214608e-01
     2378000000    1.142386571e-01   -1.003356352e-01
     2378750000    1.200864986e-01   -9.721224755e-02
     2379500000    1.234499663e-01   -9.437789768e-02
     2380250000    1.300861090e-01   -9.023544937e-02
     2381000000    1.343798190e-01   -8.535565436e-02
     2381750000    1.360899061e-01   -8.101009578e-02
     2382500000    1.423748732e-01   -7.430459559e-02
     2383250000    1.419448704e-01   -6.909729540e-02
     2384000000    1.440488845e-01   -6.265652925e-02
     2384750000    1.427136064e-01   -5.803443864e-02
     2385500000    1.439072490e-01   -4.998579621e-02
     2386250000    1.418333203e-01   -4.437436908e-02
     2387000000    1.401488632e-01   -3.671445325e-02
     2387750000    1.377454400e-01   -3.015525453e-02
     2388500000    1.331618428e-01   -2.470953576e-02
     2389250000    1.303775609e-01   -1.634289511e-02
     2390000000    1.250546724e-01   -1.089303009e-02
     2390750000    1.195538417e-01   -3.910156433e-03
     2391500000    1.130589768e-01    1.322124503e-03
     2392250000    1.064378619e-01    7.301558275e-03
     2393000000    9.914507717e-02    1.392315608e-02
     2393750000    9.098385274e-02    1.606697962e-02
     2394500000    8.261541277e-02    2.207234688e-02
     2395250000    7.391139865e-02    2.584620193e-02
     2396000000    6.453702599e-02    2.996732667e-02
     2396750000    5.543502420e-02    3.122016415e-02
     2397500000    4.547751695e-02    3.418362886e-02
     2398250000    3.557463735e-02    3.613181040e-02
     2399000000    2.585500292e-02    3.723012283e-02
     2399750000    1.606217958e-02    3.722433373e-02
     2400500000    6.440459751e-03    3.733073175e-02
     2401250000   -4.010546487e-03    3.732647002e-02
     2402000000   -1.379377302e-02    3.606965765e-02
     2402750000   -2.174074948e-02    3.394162655e-02
     2403500000   -3.237709031e-02    3.148352355e-02
     2404250000   -3.986275941e-02    2.902640402e-02
     2405000000   -4.841248319e-02    2.569309622e-02
     2405750000   -5.474460870e-02    2.224347368e-02
     2406500000   -6.329354644e-02    1.774909720e-02
     2407250000   -6.968760490e-02    1.287306193e-02
     2408000000   -7.508584112e-02    8.714916185e-03
     2408750000   -8.032380044e-02    3.573010908e-03
     2409500000   -8.505971730e-02   -1.974365208e-03
     2410250000   -8.827110380e-02   -7.571198978e-03
     2411000000   -9.111115336e-02   -1.310645975e-02
     2411750000   -9.356043488e-02   -1.882195100e-02
     2412500000   -9.465558082e-02   -2.384467237e-02
     2413250000   -9.561108053e-02   -3.007397056e-02
     2414000000   -9.537327290e-02   -3.526497260e-02
     2414750000   -9.456013888e-02   -4.050968587e-02
     2415500000   -9.345138073e-02   -4.637493193e-02
     2416250000   -9.066724032e-02   -5.025008693e-02
     2417000000   -8.825815469e-02   -5.436480045e-02
     2417750000   -8.466361463e-02   -5.825683102e-02
     2418500000   -8.029902726e-02   -6.236739829e-02
     2419250000   -7.607129216e-02   -6.507085264e-02
     2420000000   -7.134354115e-02   -6.652255356e-02
     2420750000   -6.553039700e-02   -6.899186224e-02
     2421500000   -6.006776914e-02   -7.036716491e-02
     2422250000   -5.383640155e-02   -7.038967311e-02
     2423000000   -4.754790291e-02   -7.058669627e-02
     2423750000   -4.101791233e-02   -6.996531785e-02
     2424500000   -3.479979560e-02   -6.864495575e-02
     2425250000   -2.736404538e-02   -6.765103340e-02
     2426000000   -1.993100531e-02   -6.570196152e-02
     2426750000   -1.545227785e-02   -6.137784943e-02
     2427500000   -7.951141335e-03   -5.859267339e-02
     2428250000   -1.369472826e-03   -5.432573333e-02
     2429000000    3.222149331e-03   -4.924659431e-02
     2429750000    1.102672704e-02   -4.439230636e-02
     2430500000    1.579036750e-02   -3.866071999e-02
     2431250000    1.918786950e-02   -3.323889896e-02
     2432000000    2.400044352e-02   -2.649471536e-02
     2432750000    2.937344275e-02   -1.921774074e-02
     2433500000    3.172296658e-02   -1.262463909e-02
     2434250000    3.560989723e-02   -5.495307036e-03
     2435000000    3.683843091e-02    7.349005318e-04
     2435750000    3.941756859e-02    9.105175734e-03
     2436500000    4.014207423e-02    1.630259864e-02
     2437250000    3.946037963e-02    2.238319628e-02
     2438000000    4.099544510e-02    3.178220987e-02
     2438750000    3.982192650e-02    3.809786960e-02
     2439500000    3.786368296e-02    4.420671985e-02
     2440250000    3.650940210e-02    5.269510671e-02
     2441000000    3.417309374e-02    5.883289129e-02
     2441750000    3.124040179e-02    6.374096870e-02
     2442500000    2.814561315e-02    6.980174780e-02
     2443250000    2.396882512e-02    7.422763854e-02
     2444000000    1.946053654e-02    7.986721396e-02
     2444750000    1.485896669e-02    8.362165838e-02
     2445500000    9.828823619e-03    8.650951087e-02
     2446250000    4.481825978e-03    8.986077458e-02
     2447000000   -1.581334975e-03    9.224161506e-02
     2447750000   -6.800956558e-03    9.337770194e-02
     2448500000   -1.311755180e-02    9.493248910e-02
     2449250000   -1.826538891e-02    9.502405673e-02
     2450000000   -2.420238592e-02    9.495464712e-02
     2450750000   -3.008986264e-02    9.385340661e-02
     2451500000   -3.524711356e-02    9.214279056e-02
     2452250000   -4.084750265e-02    9.030136466e-02
     2453000000   -4.464626312e-02    8.769468218e-02
     2453750000   -5.087417737e-02    8.478936553e-02
     2454500000   -5.497865006e-02    8.079966158e-02
     2455250000   -5.918473005e-02    7.669366896e-02
     2456000000   -6.308559328e-02    7.210082561e-02
     2456750000   -6.620681286e-02    6.702423841e-02
     2457500000   -6.839969754e-02    6.210044026e-02
     2458250000   -7.033862919e-02    5.637559667e-02
     2459000000   -7.308675349e-02    4.971288890e-02
     2459750000   -7.377068698e-02    4.361280799e-02
     2460500000   -7.256340235e-02    3.941396996e-02
     2461250000   -7.397235185e-02    3.065766953e-02
     2462000000   -7.178453356e-02    2.560949884e-02
     2462750000   -6.999234855e-02    1.985920779e-02
     2463500000   -6.834676117e-02    1.353140362e-02
     2464250000   -6.581985205e-02    6.475290749e-03
     2465000000   -6.188288331e-02    2.353216754e-03
     2465750000   -5.765449256e-02   -3.296571551e-03
     2466500000   -5.371346325e-02   -1.125586033e-02
     2467250000   -4.845295846e-02   -1.444146875e-02
     2468000000   -4.326115549e-02   -1.724960655e-02
     2468750000   -3.663650528e-02   -2.361669205e-02
     2469500000   -3.144635260e-02   -2.436487563e-02
     2470250000   -2.369001694e-02   -2.933055349e-02
     2471000000   -1.809462160e-02   -2.957635187e-02
     2471750000   -9.632843547e-03   -3.320214897e-02
     2472500000   -2.111317124e-03   -3.405402973e-02
     2473250000    4.882128444e-03   -3.426432237e-02
     2474000000    1.225015800e-02   -3.433150426e-02
     2474750000    2.103276923e-02   -3.406110406e-02
     2475500000    2.799560316e-02   -3.232423961e-02
     2476250000    3.549809381e-02   -3.044838458e-02
     2477000000    4.287429526e-02   -2.841769531e-02
     2477750000    5.014549568e-02   -2.571047656e-02
     2478500000    5.728118867e-02   -2.214845084e-02
     2479250000    6.354431063e-02   -1.831780188e-02
     2480000000    7.047934830e-02   -1.363523956e-02
     2480750000    7.585093379e-02   -8.707131259e-03
     2481500000    8.204428852e-02   -3.262108425e-03
     2482250000    8.662763238e-02    2.072759904e-03
     2483000000    9.027791023e-02    7.301091217e-03
     2483750000    9.414614737e-02    1.359328069e-02
     2484500000    9.751871228e-02    1.924717613e-02
     2485250000    1.001266390e-01    2.627674304e-02
     2486000000    1.014894918e-01    3.114720806e-02
     2486750000    1.026818305e-01    3.823714703e-02
     2487500000    1.033718213e-01    4.321373999e-02
     2488250000    1.039364263e-01    4.863783717e-02
     2489000000    1.023712158e-01    5.476385355e-02
     2489750000    1.014275923e-01    5.910035968e-02
     2490500000    9.943669289e-02    6.502293795e-02
     2491250000    9.756288677e-02    6.800228357e-02
     2492000000    9.377457201e-02    7.379963994e-02
     2492750000    9.122640640e-02    7.516036928e-02
     2493500000    8.767500520e-02    7.859355956e-02
     2494250000    8.242581040e-02    8.156952262e-02
     2495000000    7.751163840e-02    8.370953053e-02
     2495750000    7.329238951e-02    8.452645689e-02
     2496500000    6.865761429e-02    8.312483132e-02
     2497250000    6.207597628e-02    8.478445560e-02
     2498000000    5.720962211e-02    8.320755512e-02
     2498750000    5.262205005e-02    8.049275726e-02
     2499500000    4.483541101e-02    7.984887064e-02
     2500250000    3.779909760e-02    7.718639821e-02
     2501000000    3.393667564e-02    7.214505225e-02
     2501750000    2.831256576e-02    6.763273478e-02
     2502500000    2.291917801e-02    6.286906451e-02
     2503250000    1.735503599e-02    5.700391158e-02
     2504000000    1.203231327e-02    5.064423010e-02
     2504750000    9.357769974e-03    4.419550672e-02
     2505500000    1.925247721e-03    3.614596277e-02
     2506250000   -1.370879239e-03    2.849650942e-02
     2507000000   -4.235760774e-03    2.073516510e-02
     2507750000   -8.078205399e-03    1.224269997e-02
     2508500000   -1.064873207e-02    3.355853027e-03
     2509250000   -1.302679814e-02   -5.683913361e-03
     2510000000   -1.569063589e-02   -1.524156146e-02
     2510750000   -1.643635333e-02   -2.425799146e-02
     2511500000   -1.785087772e-02   -3.426614776e-02
     2512250000   -1.772221364e-02   -4.415416345e-02
     2513000000   -1.769866236e-02   -5.245801434e-02
     2513750000   -1.741874777e-02   -6.201926991e-02
     2514500000   -1.607822068e-02   -7.047880441e-02
     2515250000   -1.415212546e-02   -7.878100872e-02
     2516000000   -1.232975349e-02   -8.658128977e-02
     2516750000   -1.009198837e-02   -9.372838587e-02
     2517500000   -6.556419190e-03   -1.010469645e-01
     2518250000   -3.626726801e-03   -1.076064706e-01
     2519000000   -1.186298439e-03   -1.126295999e-01
     2519750000    3.308691084e-03   -1.173745170e-01
     2520500000    7.924670354e-03   -1.228500828e-01
     2521250000    1.191110350e-02   -1.263291836e-01
     2522000000    1.654167287e-02   -1.295146048e-01
     2522750000    1.968258061e-02   -1.320341825e-01
     2523500000    2.361964434e-02   -1.333403289e-01
     2524250000    2.959816344e-02   -1.342405826e-01
     2525000000    3.270841017e-02   -1.341646910e-01
     2525750000    3.609982133e-02   -1.325746030e-01
     2526500000    4.056737572e-02   -1.317416131e-01
     2527250000    4.407982528e-02   -1.288913786e-01
     2528000000    4.688573629e-02   -1.257766485e-01
     2528750000    4.974915460e-02   -1.220291778e-01
     2529500000    5.208291858e-02   -1.176087633e-01
     2530250000    5.387678370e-02   -1.127138883e-01
     2531000000    5.454714596e-02   -1.065624356e-01
     2531750000    5.554411560e-02   -1.002063006e-01
     2532500000    5.549678579e-02   -9.348131716e-02
     2533250000    5.640522763e-02   -8.551748097e-02
     2534000000    5.431492627e-02   -7.862487435e-02
     2534750000    5.256143585e-02   -7.003199309e-02
     2535500000    5.010968819e-02   -6.316565722e-02
     2536250000    4.735891894e-02   -5.464690924e-02
     2537000000    4.282977059e-02   -4.628935456e-02
     2537750000    3.945319355e-02   -3.751113266e-02
     2538500000    3.413865343e-02   -2.871928364e-02
     2539250000    2.921120822e-02   -1.944383420e-02
     2540000000    2.272056788e-02   -1.184083428e-02
     2540750000    1.707766205e-02   -2.485299716e-03
     2541500000    9.582244791e-03    5.140718538e-03
     2542250000    2.601384651e-03    1.314026024e-02
     2543000000   -5.073061213e-03    2.048131078e-02
     2543750000   -1.324110944e-02    2.766045555e-02
     2544500000   -2.211685479e-02    3.389798850e-02
     2545250000   -2.971098572e-02    4.010659456e-02
     2546000000   -3.896294534e-02    4.569773003e-02
     2546750000   -4.708363488e-02    5.046124384e-02
     2547500000   -5.662323162e-02    5.565818027e-02
     2548250000   -6.488653272e-02    5.869481713e-02
     2549000000   -7.249523699e-02    6.139456481e-02
     2549750000   -8.122316003e-02    6.392406672e-02
     2550500000   -8.997560292e-02    6.619667262e-02
     2551250000   -9.706994146e-02    6.677477062e-02
     2552000000   -1.016339362e-01    6.810140610e-02
     2552750000   -1.111190617e-01    6.720151007e-02
     2553500000   -1.160574779e-01    6.718792766e-02
     2554250000   -1.211576685e-01    6.607169658e-02
     2555000000   -1.284590811e-01    6.230999157e-02
     2555750000   -1.300182343e-01    6.162551045e-02
     2556500000   -1.361145377e-01    5.608704686e-02
     2557250000   -1.383356303e-01    5.464784801e-02
     2558000000   -1.397654414e-01    5.176261812e-02
     2558750000   -1.410094798e-01    4.734598845e-02
     2559500000   -1.412098110e-01    4.272720590e-02
     2560250000   -1.415745467e-01    3.676297888e-02
     2561000000   -1.391433924e-01    3.488907591e-02
     2561750000   -1.382274628e-01    2.777992003e-02
     2562500000   -1.356014013e-01    2.382909507e-02
     2563250000   -1.303868294e-01    2.178696729e-02
     2564000000   -1.267865747e-01    1.584283635e-02
     2564750000   -1.208530292e-01    1.082382817e-02
     2565500000   -1.144224480e-01    7.633536588e-03
     2566250000   -1.071376726e-01    1.834602212e-03
     2567000000   -9.935034066e-02   -1.589191495e-03
     2567750000   -9.146437794e-02   -8.371624863e-04
     2568500000   -8.149816841e-02   -4.350902513e-03
     2569250000   -7.188903540e-02   -7.664203644e-03
     2570000000   -6.204168499e-02   -8.612697013e-03
     2570750000   -5.163517967e-02   -9.210772812e-03
     2571500000   -3.977323696e-02   -1.066332497e-02
     2572250000   -2.868776955e-02   -1.040280424e-02
     2573000000   -1.787715591e-02   -9.903167374e-03
     2573750000   -5.528205540e-03   -8.777679875e-03
     2574500000    5.611458328e-03   -6.834595930e-03
     2575250000    1.776250452e-02   -5.197150167e-03
     2576000000    2.923158929e-02   -2.197585767e-03
     2576750000    4.020360485e-02    7.361213211e-04
     2577500000    5.132155865e-02    5.031507928e-03
     2578250000    6.201278418e-02    9.303000756e-03
     2579000000    7.299851626e-02    1.422445849e-02
     2579750000    8.273108304e-02    1.901090518e-02
     2580500000    9.380718321e-02    2.572365478e-02
     2581250000    1.005782112e-01    2.975176461e-02
     2582000000    1.090244725e-01    3.631954268e-02
     2582750000    1.170952320e-01    4.442293942e-02
     2583500000    1.224015057e-01    4.955140501e-02
     2584250000    1.291865110e-01    5.774241686e-02
     2585000000    1.341404915e-01    6.177236885e-02
     2585750000    1.373173594e-01    6.934370846e-02
     2586500000    1.407460719e-01    7.871355116e-02
     2587250000    1.436284035e-01    8.314965665e-02
     2588000000    1.455022693e-01    8.950062841e-02
     2588750000    1.469172090e-01    9.411158413e-02
     2589500000    1.457575709e-01    1.020330191e-01
     2590250000    1.453320086e-01    1.068644747e-01
     2591000000    1.442441195e-01    1.105654165e-01
     2591750000    1.407050788e-01    1.167512387e-01
     2592500000    1.381027997e-01    1.198783293e-01
     2593250000    1.334286183e-01    1.246481538e-01
     2594000000    1.296605766e-01    1.251678914e-01
     2594750000    1.245087087e-01    1.276891828e-01
     2595500000    1.209724694e-01    1.282994747e-01
     2596250000    1.117195264e-01    1.294328570e-01
     2597000000    1.058609709e-01    1.288889796e-01
     2597750000    1.009808704e-01    1.266835183e-01
     2598500000    9.297961742e-02    1.241676956e-01
     2599250000    8.542768657e-02    1.214613169e-01
     2600000000    7.739540935e-02    1.172869280e-01
