! NanoVNA-App
! Date: 2026-05-22 16:07:31
! Start: 4.8GHz Stop: 6GHz Points: 401
! S-Parameter data: F S11
# Hz S RI R 50
!     Frequency           S11_Real           S11_Imag
     4800000000    2.652876973e-01   -2.140198275e-02
     4803000000    2.509259880e-01    7.057318091e-02
     4806000000    2.069113851e-01    1.528697163e-01
     4809000000    1.383808851e-01    2.094862163e-01
     4812000000    5.397512764e-02    2.401313633e-01
     4815000000   -3.203561902e-02    2.391303629e-01
     4818000000   -1.116533130e-01    2.080926150e-01
     4821000000   -1.735344976e-01    1.538482755e-01
     4824000000   -2.108783722e-01    8.392789215e-02
     4827000000   -2.215665430e-01    4.768779501e-03
     4830000000   -2.047270983e-01   -7.136005163e-02
     4833000000   -1.651409119e-01   -1.343780011e-01
     4836000000   -1.057219803e-01   -1.787419915e-01
     4839000000   -3.784870356e-02   -1.993312836e-01
     4842000000    3.168980032e-02   -1.933921278e-01
     4845000000    9.356518090e-02   -1.658299118e-01
     4848000000    1.417074353e-01   -1.203318983e-01
     4851000000    1.685205698e-01   -6.245698035e-02
     4854000000    1.748705059e-01    2.106526634e-03
     4857000000    1.606276631e-01    6.007326394e-02
     4860000000    1.296037138e-01    1.096744165e-01
     4863000000    7.843638957e-02    1.426291913e-01
     4866000000    3.241483122e-02    1.595558375e-01
     4869000000   -2.602036856e-02    1.511018872e-01
     4872000000   -6.933704764e-02    1.347940862e-01
     4875000000   -1.049309075e-01    9.684066474e-02
     4878000000   -1.277129799e-01    5.537611991e-02
     4881000000   -1.321134865e-01    9.033444338e-03
     4884000000   -1.227990463e-01   -3.353007883e-02
     4887000000   -9.968486428e-02   -7.167116553e-02
     4890000000   -6.788317859e-02   -9.670545906e-02
     4893000000   -3.157838434e-02   -1.090231538e-01
     4896000000    6.302965339e-03   -1.092769280e-01
     4899000000    3.833931684e-02   -9.834928811e-02
     4902000000    6.653135270e-02   -8.122453839e-02
     4905000000    8.282423764e-02   -5.252939463e-02
     4908000000    9.120985121e-02   -2.402853407e-02
     4911000000    9.021187574e-02    5.284343846e-03
     4914000000    7.997804880e-02    3.177839145e-02
     4917000000    6.347934157e-02    5.134233460e-02
     4920000000    4.452099651e-02    6.746199727e-02
     4923000000    2.295220643e-02    7.150825858e-02
     4926000000    1.455602003e-03    7.224013656e-02
     4929000000   -2.133345231e-02    7.172901183e-02
     4932000000   -3.943263367e-02    6.245578453e-02
     4935000000   -5.261848494e-02    4.875789583e-02
     4938000000   -5.974314362e-02    3.319456056e-02
     4941000000   -6.551866978e-02    1.618554257e-02
     4944000000   -6.968126446e-02   -3.292398527e-03
     4947000000   -6.508289278e-02   -1.720477082e-02
     4950000000   -5.689349398e-02   -3.808310628e-02
     4953000000   -4.577274621e-02   -5.560251698e-02
     4956000000   -3.018344007e-02   -6.410172582e-02
     4959000000   -1.094825659e-02   -7.185763121e-02
     4962000000    7.256991230e-03   -7.476136833e-02
     4965000000    3.060472570e-02   -7.034654915e-02
     4968000000    5.457157642e-02   -5.790682510e-02
     4971000000    7.241084427e-02   -4.233368486e-02
     4974000000    8.490265906e-02   -1.647754014e-02
     4977000000    8.973321319e-02    1.062463131e-02
     4980000000    8.308169991e-02    3.982719406e-02
     4983000000    7.225862890e-02    6.565556675e-02
     4986000000    4.784838855e-02    8.866769820e-02
     4989000000    2.078867890e-02    1.033288166e-01
     4992000000   -1.846003532e-02    1.067326218e-01
     4995000000   -4.275554046e-02    1.087930277e-01
     4998000000   -8.240009099e-02    7.781753689e-02
     5001000000   -1.082383022e-01    5.193357542e-02
     5004000000   -1.191312820e-01    7.756078150e-03
     5007000000   -1.208473518e-01   -2.856623195e-02
     5010000000   -1.087974384e-01   -6.826052815e-02
     5013000000   -8.406039327e-02   -1.050138772e-01
     5016000000   -3.995286301e-02   -1.281989366e-01
     5019000000    3.994658764e-04   -1.422037780e-01
     5022000000    4.956097528e-02   -1.338317245e-01
     5025000000    9.365571290e-02   -1.061540693e-01
     5028000000    1.303933859e-01   -7.528692484e-02
     5031000000    1.446153373e-01   -2.273709886e-02
     5034000000    1.448716372e-01    2.993117645e-02
     5037000000    1.282415986e-01    7.910548896e-02
     5040000000    9.853205085e-02    1.220150366e-01
     5043000000    5.220801011e-02    1.518658996e-01
     5046000000   -5.359327421e-03    1.623396426e-01
     5049000000   -6.150505692e-02    1.499629021e-01
     5052000000   -1.121036410e-01    1.211787760e-01
     5055000000   -1.534661055e-01    7.895790786e-02
     5058000000   -1.726464778e-01    1.974251308e-02
     5061000000   -1.724716127e-01   -3.952839971e-02
     5064000000   -1.508720517e-01   -9.751208127e-02
     5067000000   -1.102778912e-01   -1.448268145e-01
     5070000000   -5.806006491e-02   -1.773977578e-01
     5073000000    6.326161325e-03   -1.841943562e-01
     5076000000    7.106103748e-02   -1.711068153e-01
     5079000000    1.246440038e-01   -1.351277828e-01
     5082000000    1.672509909e-01   -8.641422540e-02
     5085000000    1.857599318e-01   -2.146497741e-02
     5088000000    1.810119748e-01    4.356984422e-02
     5091000000    1.579982340e-01    1.061210111e-01
     5094000000    1.102933511e-01    1.544463634e-01
     5097000000    4.966099933e-02    1.825903803e-01
     5100000000   -1.789385080e-02    1.932203174e-01
     5103000000   -8.224029839e-02    1.722157449e-01
     5106000000   -1.373116225e-01    1.361390799e-01
     5109000000   -1.691494733e-01    7.682812959e-02
     5112000000   -1.905947477e-01    1.381258294e-02
     5115000000   -1.868089885e-01   -5.670021102e-02
     5118000000   -1.485440582e-01   -1.100269407e-01
     5121000000   -1.014866009e-01   -1.631106734e-01
     5124000000   -3.732041642e-02   -1.808712035e-01
     5127000000    3.153038770e-02   -1.844498515e-01
     5130000000    9.296467900e-02   -1.621587723e-01
     5133000000    1.450088024e-01   -1.182932705e-01
     5136000000    1.711087972e-01   -6.089284271e-02
     5139000000    1.841020435e-01    6.583663169e-03
     5142000000    1.681315601e-01    7.102076709e-02
     5145000000    1.318057775e-01    1.243185252e-01
     5148000000    7.890437543e-02    1.610490084e-01
     5151000000    1.491856109e-02    1.754882336e-01
     5154000000   -4.811250046e-02    1.688687354e-01
     5157000000   -1.062694192e-01    1.384212077e-01
     5160000000   -1.466305107e-01    9.098386019e-02
     5163000000   -1.678907871e-01    3.059774823e-02
     5166000000   -1.673372239e-01   -3.291986883e-02
     5169000000   -1.431728750e-01   -8.586473018e-02
     5172000000   -9.937131405e-02   -1.387242228e-01
     5175000000   -4.361701012e-02   -1.631347537e-01
     5178000000    1.921659522e-02   -1.690503210e-01
     5181000000    7.539848238e-02   -1.500344723e-01
     5184000000    1.291699708e-01   -1.121953800e-01
     5187000000    1.550535709e-01   -6.182637438e-02
     5190000000    1.700756401e-01    4.271001089e-03
     5193000000    1.561688781e-01    5.850108340e-02
     5196000000    1.237853914e-01    1.109411716e-01
     5199000000    7.413267344e-02    1.490442455e-01
     5202000000    1.953336596e-02    1.622530371e-01
     5205000000   -4.152334854e-02    1.554210931e-01
     5208000000   -9.417223930e-02    1.317759007e-01
     5211000000   -1.356480569e-01    8.675403148e-02
     5214000000   -1.591938436e-01    2.992238291e-02
     5217000000   -1.588838696e-01   -2.396489680e-02
     5220000000   -1.391638964e-01   -7.717617601e-02
     5223000000   -1.008639261e-01   -1.220979989e-01
     5226000000   -5.035776272e-02   -1.485855430e-01
     5229000000    5.844024010e-03   -1.562568247e-01
     5232000000    6.100087240e-02   -1.402599812e-01
     5235000000    1.035819426e-01   -1.092368886e-01
     5238000000    1.335266232e-01   -6.533394754e-02
     5241000000    1.442627311e-01   -1.028734352e-02
     5244000000    1.352762878e-01    4.078026488e-02
     5247000000    1.087050438e-01    8.864001930e-02
     5250000000    6.971976161e-02    1.187179014e-01
     5253000000    2.089149877e-02    1.351245642e-01
     5256000000   -2.623370290e-02    1.321507394e-01
     5259000000   -7.275708765e-02    1.118803769e-01
     5262000000   -1.106788218e-01    7.046870142e-02
     5265000000   -1.259725094e-01    2.978682518e-02
     5268000000   -1.291499436e-01   -1.207385492e-02
     5271000000   -1.118584350e-01   -6.249755248e-02
     5274000000   -8.160401136e-02   -9.480252117e-02
     5277000000   -3.775493801e-02   -1.154740006e-01
     5280000000    1.472390839e-03   -1.208052188e-01
     5283000000    4.531241581e-02   -1.078949347e-01
     5286000000    7.914334536e-02   -8.083119243e-02
     5289000000    1.018015370e-01   -4.633476213e-02
     5292000000    1.108012944e-01   -5.283033941e-03
     5295000000    9.981146455e-02    3.827847913e-02
     5298000000    7.958860695e-02    7.088014483e-02
     5301000000    4.869201034e-02    9.265777469e-02
     5304000000    1.235081442e-02    1.022445485e-01
     5307000000   -2.639771812e-02    9.661502391e-02
     5310000000   -5.797555298e-02    7.877544314e-02
     5313000000   -8.105628937e-02    4.954270646e-02
     5316000000   -8.978825063e-02    1.598716713e-02
     5319000000   -8.797699213e-02   -1.791381091e-02
     5322000000   -7.249225676e-02   -4.780732468e-02
     5325000000   -4.535139725e-02   -6.906951964e-02
     5328000000   -1.490055118e-02   -8.171235770e-02
     5331000000    1.818342134e-02   -7.798682898e-02
     5334000000    4.476723075e-02   -6.648778915e-02
     5337000000    6.860197335e-02   -4.215758294e-02
     5340000000    7.677556574e-02   -1.127001829e-02
     5343000000    7.880869508e-02    1.559177041e-02
     5346000000    6.543311477e-02    4.634087533e-02
     5349000000    4.239038378e-02    6.459168345e-02
     5352000000    1.098225173e-02    7.359404862e-02
     5355000000   -1.206377428e-02    7.423301786e-02
     5358000000   -3.918721899e-02    6.098179892e-02
     5361000000   -5.959525704e-02    4.208470508e-02
     5364000000   -6.924543530e-02    1.660407707e-02
     5367000000   -6.677760929e-02   -1.377477311e-02
     5370000000   -5.561038107e-02   -4.398659989e-02
     5373000000   -4.658413678e-02   -5.314157531e-02
     5376000000   -2.023050189e-02   -6.383785605e-02
     5379000000    2.054153383e-02   -6.426783651e-02
     5382000000    4.278376698e-02   -5.099324510e-02
     5385000000    5.078373104e-02   -4.622952268e-02
     5388000000    6.107271090e-02   -1.067783684e-02
     5391000000    6.432186812e-02    1.414580364e-02
     5394000000    5.632732064e-02    3.678914905e-02
     5397000000    3.090395406e-02    5.678300932e-02
     5400000000    8.258025162e-03    6.399574876e-02
     5403000000   -1.184218097e-02    6.172902510e-02
     5406000000   -3.538904712e-02    5.116442218e-02
     5409000000   -5.132959411e-02    3.987401351e-02
     5412000000   -6.138338894e-02    1.454981696e-02
     5415000000   -6.007035822e-02   -1.332267374e-02
     5418000000   -5.167052895e-02   -3.562387079e-02
     5421000000   -3.333679959e-02   -5.507509783e-02
     5424000000   -8.618640713e-03   -6.285811216e-02
     5427000000    1.449174434e-02   -6.338115036e-02
     5430000000    3.783424199e-02   -5.210208148e-02
     5433000000    5.482461303e-02   -3.630378470e-02
     5436000000    6.340028346e-02   -1.396312378e-02
     5439000000    6.116625667e-02    1.517266873e-02
     5442000000    4.670568928e-02    4.241813719e-02
     5445000000    3.154558688e-02    5.500837788e-02
     5448000000    1.660644449e-02    6.324827671e-02
     5451000000   -2.063781768e-02    6.215765327e-02
     5454000000   -3.696012497e-02    5.580682680e-02
     5457000000   -5.920345709e-02    3.373817727e-02
     5460000000   -6.807920337e-02    9.785151109e-03
     5463000000   -7.033035904e-02   -9.886200540e-03
     5466000000   -6.196892262e-02   -3.391957656e-02
     5469000000   -3.660589457e-02   -5.780828372e-02
     5472000000   -1.766399480e-02   -6.646679342e-02
     5475000000    7.369550876e-03   -6.789822876e-02
     5478000000    3.132407367e-02   -6.156827137e-02
     5481000000    5.497369170e-02   -4.160394520e-02
     5484000000    6.639986485e-02   -3.675724845e-03
     5487000000    6.990193576e-02    2.265475923e-03
     5490000000    5.629355088e-02    3.743325546e-02
     5493000000    4.464048520e-02    5.499518663e-02
     5496000000    1.690722071e-02    6.959778070e-02
     5499000000   -1.452359557e-02    7.184669375e-02
     5502000000   -3.843692690e-02    6.209819391e-02
     5505000000   -6.028636545e-02    4.666429758e-02
     5508000000   -7.488197088e-02    2.183154598e-02
     5511000000   -8.007746935e-02    2.984508756e-04
     5514000000   -6.935330480e-02   -3.695374727e-02
     5517000000   -5.396154150e-02   -6.033240631e-02
     5520000000   -2.553511783e-02   -7.753998041e-02
     5523000000   -6.600966211e-03   -8.471892774e-02
     5526000000    3.579039499e-02   -7.322727144e-02
     5529000000    5.506716296e-02   -6.552792341e-02
     5532000000    7.558517903e-02   -3.357803449e-02
     5535000000    8.145494014e-02   -3.974758729e-04
     5538000000    8.035339415e-02    2.637264132e-02
     5541000000    7.786507905e-02    4.845784605e-02
     5544000000    3.652853891e-02    7.494597137e-02
     5547000000    1.751425304e-02    8.748009801e-02
     5550000000   -2.298258245e-02    8.231620491e-02
     5553000000   -5.129513890e-02    6.933030486e-02
     5556000000   -7.063897699e-02    5.529134721e-02
     5559000000   -8.347779512e-02    1.550572179e-02
     5562000000   -8.654636145e-02   -1.510680374e-02
     5565000000   -7.376206666e-02   -4.502730817e-02
     5568000000   -5.723093078e-02   -7.091065496e-02
     5571000000   -2.512593381e-02   -8.554987609e-02
     5574000000    2.103469567e-03   -9.188219905e-02
     5577000000    4.015147686e-02   -7.922871411e-02
     5580000000    6.519414485e-02   -5.823252350e-02
     5583000000    8.133921772e-02   -3.520618752e-02
     5586000000    9.019899368e-02   -4.715382122e-03
     5589000000    8.041679114e-02    3.175966069e-02
     5592000000    6.471997499e-02    5.999320745e-02
     5595000000    3.926572576e-02    7.873292267e-02
     5598000000    1.472533867e-02    9.311949462e-02
     5601000000   -2.226289548e-02    8.736350387e-02
     5604000000   -5.337753892e-02    6.884808093e-02
     5607000000   -7.580066472e-02    4.733721167e-02
     5610000000   -8.438828588e-02    1.591578126e-02
     5613000000   -8.378381282e-02   -1.824274287e-02
     5616000000   -6.752854586e-02   -4.620364308e-02
     5619000000   -4.915857688e-02   -6.930507720e-02
     5622000000   -2.101864852e-02   -8.344766498e-02
     5625000000    1.130215824e-02   -8.429105580e-02
     5628000000    4.309306666e-02   -6.765323877e-02
     5631000000    6.944941729e-02   -5.491661280e-02
     5634000000    8.027750999e-02   -2.039331943e-02
     5637000000    8.772851527e-02    9.856585413e-03
     5640000000    7.567478716e-02    4.055763781e-02
     5643000000    5.655542389e-02    6.608740240e-02
     5646000000    2.744013444e-02    8.385238051e-02
     5649000000   -3.845393658e-03    8.764138073e-02
     5652000000   -3.634712473e-02    8.129102737e-02
     5655000000   -6.261207908e-02    5.056591704e-02
     5658000000   -8.745304495e-02    4.027972743e-02
     5661000000   -8.884818107e-02   -3.208360577e-04
     5664000000   -8.383148164e-02   -3.187203407e-02
     5667000000   -7.156349719e-02   -5.997570977e-02
     5670000000   -4.637377337e-02   -8.343570679e-02
     5673000000   -1.473010518e-02   -9.849888831e-02
     5676000000    2.171187848e-02   -9.206853807e-02
     5679000000    5.438391119e-02   -8.637577295e-02
     5682000000    7.647255808e-02   -5.303763226e-02
     5685000000    8.217777312e-02   -1.997818239e-02
     5688000000    9.716013819e-02    9.131181985e-03
     5691000000    8.004658669e-02    4.274973273e-02
     5694000000    5.765957385e-02    6.646354496e-02
     5697000000    3.694993258e-02    9.335684776e-02
     5700000000    8.349756827e-04    8.871386200e-02
     5703000000   -3.221575543e-02    8.917658776e-02
     5706000000   -5.964966118e-02    6.883959472e-02
     5709000000   -7.556921244e-02    4.050949216e-02
     5712000000   -9.016907960e-02    1.131920796e-02
     5715000000   -8.688772470e-02   -2.215213887e-02
     5718000000   -7.344335318e-02   -5.070127547e-02
     5721000000   -5.403096229e-02   -7.900611311e-02
     5724000000   -2.183216438e-02   -8.747328073e-02
     5727000000    7.295369636e-03   -8.201684058e-02
     5730000000    4.206616431e-02   -7.787553221e-02
     5733000000    6.337469816e-02   -5.650980771e-02
     5736000000    7.187566161e-02   -2.707928047e-02
     5739000000    8.038575947e-02   -1.016706112e-03
     5742000000    7.033051550e-02    2.636414766e-02
     5745000000    5.320182443e-02    5.229331180e-02
     5748000000    3.306678683e-02    6.615407020e-02
     5751000000    5.845332984e-03    6.300906837e-02
     5754000000   -2.754392289e-02    7.805660367e-02
     5757000000   -3.218210489e-02    4.325578362e-02
     5760000000   -5.962878466e-02    3.352652490e-02
     5763000000   -5.759916455e-02    8.159452118e-03
     5766000000   -6.825113297e-02   -1.842534356e-02
     5769000000   -3.781825304e-02   -2.651921101e-02
     5772000000   -3.108787723e-02   -5.536028370e-02
     5775000000   -6.901354063e-03   -6.195688248e-02
     5778000000    1.565279439e-02   -5.688917637e-02
     5781000000    3.837375715e-02   -4.842682183e-02
     5784000000    5.353030190e-02   -2.797329612e-02
     5787000000    5.084770545e-02   -7.579264697e-03
     5790000000    5.066429824e-02    1.238885336e-02
     5793000000    4.078008980e-02    3.197490796e-02
     5796000000    2.510341071e-02    4.280830547e-02
     5799000000    7.258873433e-03    5.097597837e-02
     5802000000   -1.449802518e-02    5.026714876e-02
     5805000000   -3.435578570e-02    4.065699875e-02
     5808000000   -5.118280277e-02    2.638305537e-02
     5811000000   -4.967127740e-02    3.625006881e-03
     5814000000   -4.902048036e-02   -1.511502173e-02
     5817000000   -4.495107755e-02   -3.739098087e-02
     5820000000   -2.339535579e-02   -4.367689043e-02
     5823000000   -4.913054407e-03   -4.360197857e-02
     5826000000    1.274778321e-02   -5.505061895e-02
     5829000000    2.940887958e-02   -4.340953007e-02
     5832000000    4.044292495e-02   -2.786226757e-02
     5835000000    4.230717942e-02   -1.082521398e-02
     5838000000    4.659733549e-02    7.252833806e-03
     5841000000    3.829626739e-02    2.169740386e-02
     5844000000    2.671294473e-02    3.343924135e-02
     5847000000    1.262912992e-02    4.476791993e-02
     5850000000   -3.703811439e-03    3.907305002e-02
     5853000000   -1.959089749e-02    3.531708941e-02
     5856000000   -3.297881037e-02    2.531488612e-02
     5859000000   -3.312815726e-02    1.097385772e-02
     5862000000   -4.273577407e-02   -4.570046905e-03
     5865000000   -3.053516150e-02   -1.318556257e-02
     5868000000   -2.173274010e-02   -2.402010560e-02
     5871000000   -9.702106006e-03   -2.898877673e-02
     5874000000    4.716326017e-03   -2.440803126e-02
     5877000000    1.717154868e-02   -2.211975679e-02
     5880000000    2.056829445e-02   -9.925326332e-03
     5883000000    2.367231809e-02    1.066353754e-03
     5886000000    2.263733186e-02    1.332785934e-02
     5889000000    1.436188817e-02    2.044500783e-02
     5892000000   -2.760265488e-03    1.520454139e-02
     5895000000   -9.152071550e-03    2.013449557e-02
     5898000000   -1.907526329e-02    1.337396540e-02
     5901000000   -3.282848001e-02    1.905988343e-02
     5904000000   -2.054606751e-02   -8.235741407e-03
     5907000000   -2.427781373e-02   -1.545816660e-02
     5910000000   -7.432698738e-03   -2.352627181e-02
     5913000000   -1.252205018e-02   -3.832529858e-02
     5916000000    1.252348814e-02   -3.033363819e-02
     5919000000    2.427631617e-02   -2.310820110e-02
     5922000000    3.674690425e-02   -1.498330198e-02
     5925000000    4.224955291e-02    2.790436381e-03
     5928000000    3.655542433e-02    2.511046454e-02
     5931000000    3.387834877e-02    3.895912692e-02
     5934000000    2.185282111e-02    5.516296253e-02
     5937000000   -4.054725636e-03    5.640403926e-02
     5940000000   -2.534970269e-02    5.653302372e-02
     5943000000   -4.769129306e-02    4.242464900e-02
     5946000000   -6.328131258e-02    2.729242109e-02
     5949000000   -7.004174590e-02   -3.988717217e-03
     5952000000   -7.637653500e-02   -2.422409132e-02
     5955000000   -5.991571024e-02   -5.261865258e-02
     5958000000   -3.127111122e-02   -7.511689514e-02
     5961000000   -6.660349667e-03   -8.728232980e-02
     5964000000    3.057553433e-02   -8.303903043e-02
     5967000000    5.815664306e-02   -7.612203807e-02
     5970000000    8.490933478e-02   -6.066919118e-02
     5973000000    1.073080823e-01   -2.840996347e-02
     5976000000    9.484472126e-02    2.623118833e-02
     5979000000    9.959985316e-02    5.442866683e-02
     5982000000    6.599602103e-02    8.920045942e-02
     5985000000    3.215833381e-02    1.104906201e-01
     5988000000   -8.584134281e-03    1.218729392e-01
     5991000000   -5.294952542e-02    1.137677208e-01
     5994000000   -9.469068050e-02    9.476740658e-02
     5997000000   -1.214611903e-01    4.957180098e-02
     6000000000   -1.415813714e-01    8.776993491e-03
