! NanoVNA-App
! Date: 2026-05-22 16:31:34
! Start: 4.8GHz Stop: 6GHz Points: 401
! S-Parameter data: F S11
# Hz S RI R 50
!     Frequency           S11_Real           S11_Imag
     4800000000   -1.827077866e-01   -1.579585671e-01
     4803000000   -1.145123914e-01   -2.095784247e-01
     4806000000   -2.854524180e-02   -2.365532964e-01
     4809000000    5.615786836e-02   -2.289737165e-01
     4812000000    1.302194893e-01   -1.921138912e-01
     4815000000    1.924880892e-01   -1.322499216e-01
     4818000000    2.198289186e-01   -5.860981345e-02
     4821000000    2.258643657e-01    2.125783265e-02
     4824000000    2.014313936e-01    9.700483084e-02
     4827000000    1.529658586e-01    1.531047821e-01
     4830000000    8.797781914e-02    1.935048401e-01
     4833000000    1.593640074e-02    2.072617263e-01
     4836000000   -6.055434421e-02    1.968670338e-01
     4839000000   -1.195743382e-01    1.592582464e-01
     4842000000   -1.653395742e-01    1.053058431e-01
     4845000000   -1.874438226e-01    3.933937848e-02
     4848000000   -1.874608397e-01   -3.161857650e-02
     4851000000   -1.624866277e-01   -9.247890115e-02
     4854000000   -1.208134443e-01   -1.381988376e-01
     4857000000   -6.249576807e-02   -1.707544476e-01
     4860000000   -4.918200430e-03   -1.766108871e-01
     4863000000    5.858068541e-02   -1.648414880e-01
     4866000000    1.111955047e-01   -1.273113191e-01
     4869000000    1.399823278e-01   -8.357375860e-02
     4872000000    1.556583941e-01   -2.643917501e-02
     4875000000    1.508633047e-01    2.798675559e-02
     4878000000    1.283361018e-01    7.959547639e-02
     4881000000    9.063559026e-02    1.176880524e-01
     4884000000    4.772488028e-02    1.357154250e-01
     4887000000   -5.902934819e-03    1.429276913e-01
     4890000000   -5.306798965e-02    1.298472285e-01
     4893000000   -8.673021197e-02    1.032875329e-01
     4896000000   -1.139000133e-01    6.648262590e-02
     4899000000   -1.277986020e-01    2.140063792e-02
     4902000000   -1.243313029e-01   -2.326061390e-02
     4905000000   -1.060775146e-01   -6.083720922e-02
     4908000000   -8.020813763e-02   -9.025169164e-02
     4911000000   -3.644495457e-02   -1.112909913e-01
     4914000000   -5.690136459e-03   -1.163689569e-01
     4917000000    3.794464096e-02   -1.074524298e-01
     4920000000    6.508861482e-02   -9.109778702e-02
     4923000000    9.080390632e-02   -5.903831124e-02
     4926000000    1.033285335e-01   -2.551418543e-02
     4929000000    1.060239747e-01    8.598004468e-03
     4932000000    9.581045806e-02    3.965837881e-02
     4935000000    7.457291335e-02    6.919349730e-02
     4938000000    5.189132690e-02    8.756613731e-02
     4941000000    1.877238788e-02    9.876918048e-02
     4944000000   -1.190859545e-02    9.884086996e-02
     4947000000   -4.330686852e-02    8.643906564e-02
     4950000000   -6.755281985e-02    7.163261622e-02
     4953000000   -8.648010343e-02    4.387477040e-02
     4956000000   -9.576660395e-02    1.645311713e-02
     4959000000   -9.505038708e-02   -1.492704358e-02
     4962000000   -8.621928841e-02   -4.358847439e-02
     4965000000   -7.577567548e-02   -6.790579110e-02
     4968000000   -4.478942230e-02   -8.567029238e-02
     4971000000   -1.577031799e-02   -9.569497406e-02
     4974000000    1.380588487e-02   -9.523511678e-02
     4977000000    4.375714436e-02   -8.675104380e-02
     4980000000    6.945994496e-02   -6.721452624e-02
     4983000000    9.066690505e-02   -4.514199495e-02
     4986000000    1.054898500e-01   -1.606297307e-02
     4989000000    1.069735512e-01    1.850549690e-02
     4992000000    9.195634723e-02    4.910350218e-02
     4995000000    7.795507461e-02    7.979360223e-02
     4998000000    4.719336703e-02    9.778294712e-02
     5001000000    1.228506863e-02    1.138276532e-01
     5004000000   -2.473664097e-02    1.109948605e-01
     5007000000   -5.953494459e-02    1.007288843e-01
     5010000000   -9.209540486e-02    7.704884559e-02
     5013000000   -1.144123971e-01    4.420725629e-02
     5016000000   -1.218136847e-01    6.243618671e-03
     5019000000   -1.231316850e-01   -3.900613636e-02
     5022000000   -1.016253382e-01   -7.078006119e-02
     5025000000   -7.353447378e-02   -1.045468375e-01
     5028000000   -3.208969533e-02   -1.307303607e-01
     5031000000    1.203608420e-02   -1.350221336e-01
     5034000000    5.700578913e-02   -1.249949634e-01
     5037000000    1.010281891e-01   -1.021206826e-01
     5040000000    1.340972334e-01   -6.185678765e-02
     5043000000    1.464549154e-01   -1.967481151e-02
     5046000000    1.483899057e-01    3.354897723e-02
     5049000000    1.299629658e-01    8.324740082e-02
     5052000000    9.801291674e-02    1.221501008e-01
     5055000000    5.020597205e-02    1.514146030e-01
     5058000000   -6.117249373e-03    1.631999016e-01
     5061000000   -6.234381720e-02    1.524607986e-01
     5064000000   -1.113992259e-01    1.242699996e-01
     5067000000   -1.493058354e-01    8.164409548e-02
     5070000000   -1.708112061e-01    2.439334057e-02
     5073000000   -1.698587984e-01   -3.482597321e-02
     5076000000   -1.502139568e-01   -9.297581017e-02
     5079000000   -1.111810729e-01   -1.412506998e-01
     5082000000   -5.341371894e-02   -1.744856536e-01
     5085000000    7.333426271e-03   -1.853463650e-01
     5088000000    7.178629190e-02   -1.744481325e-01
     5091000000    1.293437630e-01   -1.397718489e-01
     5094000000    1.705520749e-01   -8.984433860e-02
     5097000000    1.932174861e-01   -2.238722332e-02
     5100000000    1.909231097e-01    4.558206722e-02
     5103000000    1.685409099e-01    1.085763276e-01
     5106000000    1.179584041e-01    1.606394351e-01
     5109000000    5.911578611e-02    1.963539869e-01
     5112000000   -1.364578214e-02    2.046005875e-01
     5115000000   -8.570820093e-02    1.871998906e-01
     5118000000   -1.460276544e-01    1.490983516e-01
     5121000000   -1.931533366e-01    8.938497305e-02
     5124000000   -2.115809470e-01    1.564152353e-02
     5127000000   -2.076688558e-01   -5.873393267e-02
     5130000000   -1.736356318e-01   -1.276552975e-01
     5133000000   -1.263769120e-01   -1.846722513e-01
     5136000000   -5.355723947e-02   -2.142964751e-01
     5139000000    2.545454539e-02   -2.225284278e-01
     5142000000    9.913499653e-02   -1.990217865e-01
     5145000000    1.638468504e-01   -1.507073045e-01
     5148000000    2.085912675e-01   -8.615272492e-02
     5151000000    2.287471443e-01   -7.091456093e-03
     5154000000    2.203529328e-01    7.172235101e-02
     5157000000    1.796368212e-01    1.447077394e-01
     5160000000    1.193855181e-01    1.992005259e-01
     5163000000    4.287294671e-02    2.280173749e-01
     5166000000   -3.848554939e-02    2.305651307e-01
     5169000000   -1.183905080e-01    2.069495022e-01
     5172000000   -1.804163307e-01    1.490293592e-01
     5175000000   -2.230969667e-01    7.922119647e-02
     5178000000   -2.428219467e-01   -3.384801093e-03
     5181000000   -2.229063660e-01   -8.346439898e-02
     5184000000   -1.827601641e-01   -1.562498212e-01
     5187000000   -1.165889502e-01   -2.057358325e-01
     5190000000   -3.786648065e-02   -2.418759465e-01
     5193000000    4.357851669e-02   -2.338069081e-01
     5196000000    1.230833903e-01   -2.059282660e-01
     5199000000    1.843242049e-01   -1.490507573e-01
     5202000000    2.216726989e-01   -7.757470757e-02
     5205000000    2.415990829e-01    9.108204395e-03
     5208000000    2.176450342e-01    8.762270212e-02
     5211000000    1.781720817e-01    1.634657830e-01
     5214000000    1.115026176e-01    2.081987411e-01
     5217000000    3.038385883e-02    2.342586070e-01
     5220000000   -4.939157516e-02    2.231494039e-01
     5223000000   -1.224984676e-01    1.936231554e-01
     5226000000   -1.822079718e-01    1.393123120e-01
     5229000000   -2.123413682e-01    6.962174922e-02
     5232000000   -2.220037878e-01   -1.064490620e-02
     5235000000   -2.064874023e-01   -9.081210941e-02
     5238000000   -1.602872163e-01   -1.556105018e-01
     5241000000   -9.529259801e-02   -1.974366009e-01
     5244000000   -1.991569065e-02   -2.149555087e-01
     5247000000    5.673304200e-02   -2.088251263e-01
     5250000000    1.333957464e-01   -1.767630726e-01
     5253000000    1.729309410e-01   -1.222185194e-01
     5256000000    2.085015327e-01   -5.310732126e-02
     5259000000    2.120094746e-01    2.218625695e-02
     5262000000    1.907083392e-01    9.225426614e-02
     5265000000    1.447905451e-01    1.511584371e-01
     5268000000    8.226747811e-02    1.902797669e-01
     5271000000    1.513308380e-02    1.991243660e-01
     5274000000   -5.312319845e-02    1.887482107e-01
     5277000000   -1.128140539e-01    1.568666995e-01
     5280000000   -1.596327573e-01    1.029084772e-01
     5283000000   -1.812238097e-01    4.009519890e-02
     5286000000   -1.809011549e-01   -2.545065619e-02
     5289000000   -1.602593511e-01   -9.351792186e-02
     5292000000   -1.170824021e-01   -1.357351989e-01
     5295000000   -6.100118905e-02   -1.672225595e-01
     5298000000    1.067357603e-03   -1.754197180e-01
     5301000000    6.204355508e-02   -1.629061401e-01
     5304000000    1.084510535e-01   -1.289100200e-01
     5307000000    1.474462152e-01   -8.089886606e-02
     5310000000    1.609322727e-01   -2.565276437e-02
     5313000000    1.589079350e-01    3.397889063e-02
     5316000000    1.327060163e-01    9.017689526e-02
     5319000000    9.271701425e-02    1.262636483e-01
     5322000000    4.604810476e-02    1.448666900e-01
     5325000000   -1.579940878e-02    1.520199180e-01
     5328000000   -6.786216795e-02    1.346102059e-01
     5331000000   -1.076566949e-01    1.000442356e-01
     5334000000   -1.346702725e-01    5.835840106e-02
     5337000000   -1.466089040e-01    3.951265942e-03
     5340000000   -1.384906769e-01   -4.458783194e-02
     5343000000   -1.103382483e-01   -9.022995085e-02
     5346000000   -7.487428188e-02   -1.179995239e-01
     5349000000   -2.887930907e-02   -1.333005130e-01
     5352000000    2.638285980e-02   -1.312850863e-01
     5355000000    5.252462998e-02   -1.220331565e-01
     5358000000    9.492018074e-02   -8.694440126e-02
     5361000000    1.208969727e-01   -4.150030389e-02
     5364000000    1.253903359e-01   -8.434105664e-03
     5367000000    1.188204288e-01    4.094570503e-02
     5370000000    9.241003543e-02    8.198662102e-02
     5373000000    5.903797969e-02    1.048064828e-01
     5376000000    2.714074217e-02    1.175635979e-01
     5379000000   -2.029028349e-02    1.097953171e-01
     5382000000   -5.365354195e-02    9.833507240e-02
     5385000000   -8.078832179e-02    7.504532486e-02
     5388000000   -1.013271213e-01    3.114695847e-02
     5391000000   -9.984786063e-02   -1.654889807e-02
     5394000000   -9.576386958e-02   -3.405433148e-02
     5397000000   -7.803153247e-02   -6.382055581e-02
     5400000000   -4.974349961e-02   -8.303343505e-02
     5403000000   -9.980514646e-03   -9.222335368e-02
     5406000000    1.780386642e-02   -9.073883295e-02
     5409000000    5.065673590e-02   -6.962701678e-02
     5412000000    7.159409672e-02   -6.099298596e-02
     5415000000    8.031617105e-02   -1.907378621e-02
     5418000000    7.993244380e-02    7.980491966e-03
     5421000000    7.302870601e-02    3.567258269e-02
     5424000000    6.154074520e-02    5.557561293e-02
     5427000000    3.210761398e-02    6.969960779e-02
     5430000000    1.562927477e-02    8.149075508e-02
     5433000000   -2.037665993e-02    6.714791059e-02
     5436000000   -3.934383392e-02    7.154232264e-02
     5439000000   -5.712070689e-02    3.773656487e-02
     5442000000   -7.488818467e-02    2.969407849e-02
     5445000000   -6.599772722e-02   -7.794380188e-03
     5448000000   -7.060314715e-02   -2.598088235e-02
     5451000000   -4.592386261e-02   -4.621395841e-02
     5454000000   -3.206253797e-02   -6.360105425e-02
     5457000000   -8.690160699e-03   -6.973375380e-02
     5460000000    1.567878947e-02   -6.029050797e-02
     5463000000    3.569021821e-02   -5.993806571e-02
     5466000000    5.115000531e-02   -4.104124010e-02
     5469000000    6.486678123e-02   -2.387637645e-02
     5472000000    5.797227472e-02    1.257511904e-03
     5475000000    5.536303297e-02    2.023393661e-02
     5478000000    5.532307178e-02    4.306195304e-02
     5481000000    3.568167239e-02    5.193173513e-02
     5484000000    1.606265828e-02    5.945346132e-02
     5487000000   -5.134553183e-03    6.163398921e-02
     5490000000   -2.739084512e-02    6.185127795e-02
     5493000000   -4.204877838e-02    4.551066458e-02
     5496000000   -5.249638483e-02    2.736597322e-02
     5499000000   -7.246745378e-02    8.381251246e-03
     5502000000   -5.802756548e-02   -8.764128201e-03
     5505000000   -5.542439967e-02   -3.091645241e-02
     5508000000   -4.224777222e-02   -4.774473608e-02
     5511000000   -2.250921726e-02   -6.160250679e-02
     5514000000   -3.626527265e-03   -6.223173440e-02
     5517000000    1.988688298e-02   -6.479109079e-02
     5520000000    3.669201955e-02   -5.308962613e-02
     5523000000    5.945732817e-02   -3.848931193e-02
     5526000000    6.452279538e-02   -2.072837017e-02
     5529000000    7.419788837e-02    9.677378461e-03
     5532000000    6.409722567e-02    2.790774964e-02
     5535000000    5.162583664e-02    5.396683514e-02
     5538000000    3.709244728e-02    6.139765307e-02
     5541000000    6.019446533e-03    7.558365911e-02
     5544000000   -1.075172517e-02    7.190904021e-02
     5547000000   -2.794599533e-02    6.647706032e-02
     5550000000   -6.293094903e-02    4.585489631e-02
     5553000000   -7.075271010e-02    2.867448702e-02
     5556000000   -7.712733001e-02    1.908678212e-03
     5559000000   -7.332941890e-02   -2.601563744e-02
     5562000000   -5.985959619e-02   -5.107014999e-02
     5565000000   -3.987295926e-02   -6.869806349e-02
     5568000000   -1.347211283e-02   -7.910089940e-02
     5571000000    1.851091534e-02   -8.033706248e-02
     5574000000    4.393703118e-02   -7.201801986e-02
     5577000000    7.044703513e-02   -5.191457272e-02
     5580000000    8.833220601e-02   -1.901663095e-02
     5583000000    9.252653271e-02    1.127182599e-02
     5586000000    8.520027250e-02    4.020524770e-02
     5589000000    6.630567461e-02    6.944607943e-02
     5592000000    4.674323648e-02    8.625462651e-02
     5595000000    9.402878350e-04    9.438494593e-02
     5598000000   -2.244810201e-02    9.883092344e-02
     5601000000   -6.199961528e-02    7.805454731e-02
     5604000000   -8.951248974e-02    5.429675058e-02
     5607000000   -1.047413498e-01    1.709660515e-02
     5610000000   -1.087106392e-01   -1.813285798e-02
     5613000000   -8.853236586e-02   -6.430249661e-02
     5616000000   -7.875218987e-02   -9.022297710e-02
     5619000000   -3.704680502e-02   -1.137442142e-01
     5622000000    2.337870654e-03   -1.237640530e-01
     5625000000    4.420178011e-02   -1.157541946e-01
     5628000000    8.568669856e-02   -8.966158330e-02
     5631000000    1.139023900e-01   -6.427974999e-02
     5634000000    1.286013573e-01   -1.088466682e-02
     5637000000    1.193774939e-01    4.057149589e-02
     5640000000    1.122501940e-01    7.940970361e-02
     5643000000    7.325890660e-02    1.147221476e-01
     5646000000    2.893081680e-02    1.358627826e-01
     5649000000   -2.200505696e-02    1.366239637e-01
     5652000000   -6.813604385e-02    1.271403134e-01
     5655000000   -1.083646044e-01    8.413959295e-02
     5658000000   -1.422511339e-01    5.093171448e-02
     5661000000   -1.390033364e-01   -9.563853033e-03
     5664000000   -1.405240148e-01   -6.075098366e-02
     5667000000   -1.075334400e-01   -1.070619076e-01
     5670000000   -6.371383369e-02   -1.436270475e-01
     5673000000   -7.764888927e-03   -1.635547727e-01
     5676000000    5.098227412e-02   -1.626631767e-01
     5679000000    1.052037701e-01   -1.309334487e-01
     5682000000    1.497447491e-01   -8.622325212e-02
     5685000000    1.655533314e-01   -2.639231272e-02
     5688000000    1.811559945e-01    3.376649693e-02
     5691000000    1.447301954e-01    9.266456962e-02
     5694000000    1.096077412e-01    1.477350891e-01
     5697000000    5.217887834e-02    1.819900125e-01
     5700000000   -2.058118582e-02    1.828159839e-01
     5703000000   -8.982949704e-02    1.740292609e-01
     5706000000   -1.474890411e-01    1.303867102e-01
     5709000000   -1.855507046e-01    6.771472842e-02
     5712000000   -2.053318471e-01   -2.629138064e-03
     5715000000   -1.893692464e-01   -7.444646209e-02
     5718000000   -1.559970081e-01   -1.427695155e-01
     5721000000   -9.787245840e-02   -1.931948215e-01
     5724000000   -2.337747999e-02   -2.183021158e-01
     5727000000    5.642441660e-02   -2.160839736e-01
     5730000000    1.307390928e-01   -1.819980443e-01
     5733000000    1.913581192e-01   -1.252692193e-01
     5736000000    2.201901078e-01   -4.701362923e-02
     5739000000    2.357766628e-01    3.826671839e-02
     5742000000    2.025183141e-01    1.170145646e-01
     5745000000    1.513101459e-01    1.918660700e-01
     5748000000    7.561813295e-02    2.379752398e-01
     5751000000   -1.205074694e-02    2.422583699e-01
     5754000000   -1.076107398e-01    2.338028252e-01
     5757000000   -1.787311882e-01    1.768316031e-01
     5760000000   -2.417627871e-01    1.018055305e-01
     5763000000   -2.629169822e-01    1.382073481e-02
     5766000000   -2.614065409e-01   -8.710017800e-02
     5769000000   -2.095083147e-01   -1.654864550e-01
     5772000000   -1.396480054e-01   -2.369824946e-01
     5775000000   -4.048226401e-02   -2.811458409e-01
     5778000000    5.905766413e-02   -2.791272700e-01
     5781000000    1.535323560e-01   -2.409780771e-01
     5784000000    2.390653193e-01   -1.689056307e-01
     5787000000    2.780305743e-01   -7.345325500e-02
     5790000000    2.877858281e-01    3.242002428e-02
     5793000000    2.592814863e-01    1.320999861e-01
     5796000000    1.989375502e-01    2.293448746e-01
     5799000000    1.059953347e-01    2.893458307e-01
     5802000000   -8.366738446e-03    3.164826930e-01
     5805000000   -1.128347069e-01    2.917927504e-01
     5808000000   -2.064016759e-01    2.339717150e-01
     5811000000   -2.844862342e-01    1.441323310e-01
     5814000000   -3.241458535e-01    3.014142253e-02
     5817000000   -3.160295784e-01   -9.195420146e-02
     5820000000   -2.622668445e-01   -1.890732944e-01
     5823000000   -1.750485748e-01   -2.812879384e-01
     5826000000   -5.766142532e-02   -3.337085247e-01
     5829000000    5.689987540e-02   -3.318481743e-01
     5832000000    1.889801174e-01   -2.922520339e-01
     5835000000    2.775341868e-01   -2.093154341e-01
     5838000000    3.389512300e-01   -9.803152829e-02
     5841000000    3.566707969e-01    3.841030598e-02
     5844000000    3.215649426e-01    1.466562450e-01
     5847000000    2.463644743e-01    2.637140453e-01
     5850000000    1.389289647e-01    3.344332874e-01
     5853000000    1.135185454e-02    3.618752658e-01
     5856000000   -1.303979456e-01    3.485214412e-01
     5859000000   -2.474383414e-01    2.781938612e-01
     5862000000   -3.369288743e-01    1.701226383e-01
     5865000000   -3.759509027e-01    4.330352694e-02
     5868000000   -3.698057234e-01   -9.079819918e-02
     5871000000   -3.116321564e-01   -2.304459065e-01
     5874000000   -2.058552653e-01   -3.441755772e-01
     5877000000   -8.801451325e-02   -3.859319389e-01
     5880000000    7.998161018e-02   -4.032036364e-01
     5883000000    2.203238606e-01   -3.468286991e-01
     5886000000    3.256577849e-01   -2.504201531e-01
     5889000000    3.910984397e-01   -1.244690046e-01
     5892000000    4.145613611e-01    2.357153036e-02
     5895000000    3.816460967e-01    1.833261251e-01
     5898000000    2.959276736e-01    2.992253900e-01
     5901000000    1.472078115e-01    4.094575047e-01
     5904000000    1.426789723e-02    4.283864200e-01
     5907000000   -1.576765031e-01    4.072710872e-01
     5910000000   -2.872650921e-01    3.307268023e-01
     5913000000   -3.937466741e-01    2.016559839e-01
     5916000000   -4.413557947e-01    5.758923292e-02
     5919000000   -4.377469718e-01   -1.170154586e-01
     5922000000   -3.630779386e-01   -2.751732171e-01
     5925000000   -2.644424140e-01   -3.709615469e-01
     5928000000   -9.151298553e-02   -4.518247843e-01
     5931000000    6.967367232e-02   -4.569860101e-01
     5934000000    2.251987010e-01   -4.055561423e-01
     5937000000    3.711067140e-01   -2.925668657e-01
     5940000000    4.490409195e-01   -1.423367709e-01
     5943000000    4.741105437e-01    1.463220920e-02
     5946000000    4.344510436e-01    2.008205652e-01
     5949000000    3.368592262e-01    3.413918018e-01
     5952000000    2.044752985e-01    4.381180108e-01
     5955000000   -5.373217631e-03    4.911029637e-01
     5958000000   -1.673388034e-01    4.623892605e-01
     5961000000   -3.101722002e-01    3.851549029e-01
     5964000000   -4.365598261e-01    2.420744300e-01
     5967000000   -4.900076091e-01    9.334215522e-02
     5970000000   -4.907540679e-01   -1.249089092e-01
     5973000000   -4.148538709e-01   -2.888915241e-01
     5976000000   -2.911259234e-01   -4.167965055e-01
     5979000000   -1.251643151e-01   -4.945664406e-01
     5982000000    4.933433607e-02   -5.098633766e-01
     5985000000    2.702501118e-01   -4.390294552e-01
     5988000000    3.953681290e-01   -3.384342492e-01
     5991000000    4.939680994e-01   -1.682147831e-01
     5994000000    5.234339237e-01    1.877566986e-02
     5997000000    4.809342325e-01    2.116352916e-01
     6000000000    3.849433064e-01    3.606302738e-01
