! NanoVNA-App
! Date: 2026-05-22 16:32:57
! Start: 4.8GHz Stop: 6GHz Points: 401
! S-Parameter data: F S11
# Hz S RI R 50
!     Frequency           S11_Real           S11_Imag
     4800000000   -1.601669937e-01   -1.610709727e-01
     4803000000   -8.931168169e-02   -2.060722560e-01
     4806000000   -9.715529159e-03   -2.212160230e-01
     4809000000    6.846302748e-02   -2.060325146e-01
     4812000000    1.362587661e-01   -1.623843461e-01
     4815000000    1.821138263e-01   -1.028070301e-01
     4818000000    2.007252574e-01   -3.346229345e-02
     4821000000    1.959166527e-01    4.265628010e-02
     4824000000    1.656104922e-01    1.072681397e-01
     4827000000    1.128579453e-01    1.547761410e-01
     4830000000    5.128948763e-02    1.804553568e-01
     4833000000   -1.791711152e-02    1.824527979e-01
     4836000000   -7.928554714e-02    1.590671688e-01
     4839000000   -1.287600547e-01    1.180696487e-01
     4842000000   -1.553583592e-01    6.423253566e-02
              0    3.163723350e-01   -6.101041101e-03
     4848000000   -1.518847644e-01   -5.703673884e-02
     4851000000   -1.199049428e-01   -1.038422436e-01
     4854000000   -7.509794086e-02   -1.384401023e-01
     4857000000   -2.195074223e-02   -1.501770467e-01
     4860000000    3.070397303e-02   -1.441706866e-01
     4863000000    7.749007642e-02   -1.216411665e-01
     4866000000    1.133279204e-01   -8.160702139e-02
     4869000000    1.344696134e-01   -3.245046362e-02
     4872000000    1.318245530e-01    1.168042608e-02
     4875000000    1.173712313e-01    5.388577282e-02
     4878000000    9.068446606e-02    8.496334404e-02
     4881000000    4.518951848e-02    1.181764528e-01
     4884000000    1.171268430e-02    1.167181358e-01
     4887000000   -2.756786719e-02    1.105046570e-01
     4890000000   -6.784722209e-02    8.756911755e-02
     4893000000   -8.955590427e-02    5.773964897e-02
     4896000000   -9.905909747e-02    2.602797374e-02
     4899000000   -9.775113314e-02   -6.457786076e-03
     4902000000   -8.453783393e-02   -4.084051028e-02
     4905000000   -6.325805187e-02   -6.339911371e-02
     4908000000   -3.500419483e-02   -7.873655856e-02
     4911000000   -4.917236976e-03   -8.082084358e-02
     4914000000    1.846106909e-02   -7.454758137e-02
     4917000000    4.438171536e-02   -5.890311301e-02
     4920000000    5.706853792e-02   -3.901579976e-02
     4923000000    6.584708393e-02   -1.389479451e-02
     4926000000    6.533788145e-02    7.966674864e-03
     4929000000    6.016875803e-02    2.518982626e-02
     4932000000    4.743117467e-02    3.997133300e-02
     4935000000    2.699948289e-02    5.305079371e-02
     4938000000    1.798012666e-02    5.662523955e-02
     4941000000   -7.288143039e-03    5.255138874e-02
     4944000000   -1.188418828e-02    5.481123552e-02
     4947000000   -3.117951192e-02    3.723143041e-02
     4950000000   -3.785479441e-02    3.194790706e-02
     4953000000   -4.195469245e-02    1.235128939e-02
     4956000000   -4.534225166e-02    4.745708779e-03
     4959000000   -4.096047208e-02   -8.603262715e-03
     4962000000   -3.945939988e-02   -1.888878271e-02
     4965000000   -3.223652020e-02   -3.051472269e-02
     4968000000   -2.252046391e-02   -3.861166537e-02
     4971000000   -1.120014396e-02   -4.428325966e-02
     4974000000    8.027992444e-04   -4.904765263e-02
     4977000000    1.353295613e-02   -4.753934219e-02
     4980000000    2.536235005e-02   -3.815838322e-02
     4983000000    3.996397927e-02   -3.400240093e-02
     4986000000    4.837644473e-02   -2.044375613e-02
     4989000000    5.879445374e-02   -2.475945745e-03
     4992000000    5.423591658e-02    1.229508687e-02
     4995000000    5.352318659e-02    3.726011142e-02
     4998000000    4.071831331e-02    5.132419243e-02
     5001000000    2.367472835e-02    6.487889588e-02
     5004000000   -2.119932033e-04    7.022038102e-02
     5007000000   -2.218314074e-02    6.960862875e-02
     5010000000   -4.595962912e-02    6.053167209e-02
     5013000000   -6.160520017e-02    4.291089624e-02
     5016000000   -8.072210103e-02    1.731802896e-02
     5019000000   -8.675501496e-02   -1.263711788e-02
     5022000000   -8.024692535e-02   -4.077715799e-02
     5025000000   -6.363809109e-02   -6.959591806e-02
     5028000000   -3.882562742e-02   -8.932954073e-02
     5031000000   -4.494433757e-03   -1.038003042e-01
     5034000000    3.077498078e-02   -1.018958986e-01
     5037000000    6.680997461e-02   -8.733183146e-02
     5040000000    9.418704361e-02   -6.236534566e-02
     5043000000    1.136399880e-01   -2.490895241e-02
     5046000000    1.189834997e-01    1.601340249e-02
     5049000000    1.099786386e-01    5.885965377e-02
     5052000000    8.530297875e-02    9.833289683e-02
     5055000000    4.873931408e-02    1.252848059e-01
     5058000000    1.801113365e-03    1.391722858e-01
     5061000000   -4.691055417e-02    1.346680671e-01
     5064000000   -9.270687401e-02    1.139038354e-01
     5067000000   -1.294905245e-01    7.634291798e-02
     5070000000   -1.506184191e-01    2.741567418e-02
     5073000000   -1.532605141e-01   -2.840039879e-02
     5076000000   -1.385225058e-01   -8.234412223e-02
     5079000000   -1.035978273e-01   -1.288984120e-01
     5082000000   -5.347177759e-02   -1.610682011e-01
     5085000000    6.697891280e-03   -1.746936738e-01
     5088000000    6.869690120e-02   -1.664475501e-01
     5091000000    1.250091642e-01   -1.357673705e-01
     5094000000    1.678487360e-01   -8.677569777e-02
     5097000000    1.928004026e-01   -2.423289977e-02
     5100000000    1.910441816e-01    4.386410862e-02
     5103000000    1.661624014e-01    1.093666553e-01
     5106000000    1.193966568e-01    1.616972089e-01
     5109000000    5.844876543e-02    1.964904815e-01
     5112000000   -1.188606210e-02    2.092393637e-01
     5115000000   -8.888387680e-02    1.864519268e-01
     5118000000   -1.521048099e-01    1.556174904e-01
     5121000000   -1.986340731e-01    8.812955767e-02
     5124000000   -2.199594080e-01    1.537964121e-02
     5127000000   -2.129403502e-01   -6.391623616e-02
     5130000000   -1.820563525e-01   -1.353797168e-01
     5133000000   -1.259637028e-01   -1.937637627e-01
     5136000000   -5.335910618e-02   -2.268104404e-01
     5139000000    3.185690567e-02   -2.287869751e-01
     5142000000    1.104860604e-01   -2.069946826e-01
     5145000000    1.797298342e-01   -1.559459120e-01
     5148000000    2.213513255e-01   -8.334773779e-02
     5151000000    2.399578393e-01    1.742331544e-03
     5154000000    2.256636024e-01    8.705600351e-02
     5157000000    1.850051582e-01    1.642693132e-01
     5160000000    1.150926873e-01    2.204370946e-01
     5163000000    3.161682934e-02    2.456480861e-01
     5166000000   -5.709982663e-02    2.487226427e-01
     5169000000   -1.435079873e-01    2.198454291e-01
     5172000000   -2.053743154e-01    1.519549787e-01
     5175000000   -2.572258115e-01    7.460117340e-02
     5178000000   -2.611150742e-01   -1.947207563e-02
     5181000000   -2.386187017e-01   -1.065916866e-01
     5184000000   -1.931377351e-01   -1.931621432e-01
     5187000000   -1.130986288e-01   -2.435413897e-01
     5190000000   -2.061507851e-02   -2.623685300e-01
     5193000000    7.605145872e-02   -2.597392201e-01
     5196000000    1.638378948e-01   -2.199594676e-01
     5199000000    2.254863530e-01   -1.473729908e-01
     5202000000    2.663075924e-01   -6.066844985e-02
     5205000000    2.718868256e-01    3.766603023e-02
     5208000000    2.429453433e-01    1.311483085e-01
     5211000000    1.851278841e-01    2.071976811e-01
     5214000000    9.976353496e-02    2.624602020e-01
     5217000000    5.224369932e-03    2.792200446e-01
     5220000000   -9.681034088e-02    2.671535313e-01
     5223000000   -1.760283113e-01    2.131677568e-01
     5226000000   -2.440693676e-01    1.404420882e-01
     5229000000   -2.752568126e-01    4.681408405e-02
     5232000000   -2.764719129e-01   -5.141637474e-02
     5235000000   -2.386461198e-01   -1.419969499e-01
     5238000000   -1.752216369e-01   -2.105349749e-01
     5241000000   -8.994513005e-02   -2.643031776e-01
     5244000000    8.988581598e-03   -2.775275409e-01
     5247000000    9.947764128e-02   -2.577204406e-01
     5250000000    1.872227043e-01   -2.052931786e-01
     5253000000    2.428573519e-01   -1.305934787e-01
     5256000000    2.808561027e-01   -3.309666738e-02
     5259000000    2.697107792e-01    6.214981899e-02
     5262000000    2.288173735e-01    1.455080956e-01
     5265000000    1.644446254e-01    2.165118605e-01
     5268000000    7.782071084e-02    2.589831352e-01
     5271000000   -1.316778455e-02    2.654631436e-01
     5274000000   -1.062540188e-01    2.410028428e-01
     5277000000   -1.901042610e-01    1.887904853e-01
     5280000000   -2.358784676e-01    1.121618226e-01
     5283000000   -2.589680851e-01    2.230343223e-02
     5286000000   -2.456296384e-01   -6.586803496e-02
     5289000000   -2.079557329e-01   -1.460293233e-01
     5292000000   -1.373136044e-01   -2.126272023e-01
     5295000000   -6.005583704e-02   -2.381127924e-01
     5298000000    2.983534336e-02   -2.443480194e-01
     5301000000    1.161239594e-01   -2.177140564e-01
     5304000000    1.801201999e-01   -1.637218148e-01
     5307000000    2.240453959e-01   -8.649103343e-02
     5310000000    2.382410765e-01   -4.602047149e-03
     5313000000    2.194461077e-01    7.461722195e-02
     5316000000    1.775281280e-01    1.496019661e-01
     5319000000    1.122754887e-01    2.026792914e-01
     5322000000    3.418144956e-02    2.259881347e-01
     5325000000   -4.459431395e-02    2.193785161e-01
     5328000000   -1.167764440e-01    1.872725934e-01
     5331000000   -1.750185788e-01    1.328401864e-01
     5334000000   -2.077008635e-01    6.421027333e-02
     5337000000   -2.137670815e-01   -1.729294285e-02
     5340000000   -1.940482706e-01   -8.759656549e-02
     5343000000   -1.480878443e-01   -1.480931491e-01
     5346000000   -8.440432698e-02   -1.919023991e-01
     5349000000   -1.593277976e-02   -2.036518455e-01
     5352000000    6.079543009e-02   -1.951941103e-01
     5355000000    1.268789023e-01   -1.565279663e-01
     5358000000    1.567247063e-01   -1.154218912e-01
     5361000000    1.911213994e-01   -3.802420944e-02
     5364000000    1.856948435e-01    2.340216003e-02
     5367000000    1.563995481e-01    1.096438542e-01
     5370000000    1.235531792e-01    1.418608725e-01
     5373000000    5.620728061e-02    1.768603176e-01
     5376000000   -1.791841537e-02    1.854984760e-01
     5379000000   -5.769238621e-02    1.704602838e-01
     5382000000   -1.180869862e-01    1.361534595e-01
     5385000000   -1.560985744e-01    8.243788034e-02
     5388000000   -1.740952134e-01   -7.226790767e-04
     5391000000   -1.668792665e-01   -3.871010616e-02
     5394000000   -1.379518062e-01   -9.637674689e-02
     5397000000   -9.584799409e-02   -1.356558204e-01
     5400000000   -4.075789079e-02   -1.596147716e-01
     5403000000    2.294623479e-02   -1.610948741e-01
     5406000000    7.679454237e-02   -1.420478970e-01
     5409000000    1.281398386e-01   -9.155179560e-02
     5412000000    1.482045650e-01   -6.154522672e-02
     5415000000    1.590194255e-01   -4.274132662e-03
     5418000000    1.457209438e-01    5.231405050e-02
     5421000000    1.168107912e-01    9.880874306e-02
     5424000000    7.066538185e-02    1.300950795e-01
     5427000000    1.923238672e-02    1.462210864e-01
     5430000000   -1.694201492e-02    1.500686556e-01
     5433000000   -7.306309044e-02    1.235742941e-01
     5436000000   -1.068030745e-01    9.852316976e-02
     5439000000   -1.309699714e-01    3.500904515e-02
     5442000000   -1.421160102e-01    9.082646109e-03
     5445000000   -1.245944723e-01   -4.828452319e-02
     5448000000   -9.961171448e-02   -8.564597368e-02
     5451000000   -6.368367374e-02   -1.116126478e-01
     5454000000   -1.931238547e-02   -1.274727583e-01
     5457000000    2.314015850e-02   -1.249640137e-01
     5460000000    6.742966175e-02   -1.037694663e-01
     5463000000    9.440431744e-02   -6.591536850e-02
     5466000000    1.140186563e-01   -3.266472369e-02
     5469000000    1.199162081e-01    4.920667503e-03
     5472000000    1.063075215e-01    4.567342997e-02
     5475000000    9.109202027e-02    7.621911913e-02
     5478000000    5.027354509e-02    9.717197716e-02
     5481000000    1.244533621e-02    1.035655588e-01
     5484000000   -2.293380164e-02    9.923749417e-02
     5487000000   -5.600560084e-02    8.591566980e-02
     5490000000   -8.315791190e-02    6.728113443e-02
     5493000000   -9.388219565e-02    2.788373455e-02
     5496000000   -9.933917969e-02   -3.280461766e-03
     5499000000   -9.708683938e-02   -3.727830574e-02
     5502000000   -6.927131861e-02   -6.574732810e-02
     5505000000   -4.414016008e-02   -8.390373737e-02
     5508000000   -1.261832099e-02   -9.644433856e-02
     5511000000    1.960536093e-02   -9.179267287e-02
     5514000000    4.971680045e-02   -8.032128960e-02
     5517000000    7.851511985e-02   -6.257472932e-02
     5520000000    8.357801288e-02   -2.732016332e-02
     5523000000    9.766482562e-02    3.845969914e-03
     5526000000    8.318287879e-02    3.273161501e-02
     5529000000    7.163508981e-02    6.302126497e-02
     5532000000    4.454202950e-02    8.064906299e-02
     5535000000    1.500240527e-02    8.936965466e-02
     5538000000   -1.284724940e-02    8.386468887e-02
     5541000000   -4.533523321e-02    7.804940641e-02
     5544000000   -6.256887317e-02    5.543941632e-02
     5547000000   -8.748667687e-02    2.773649432e-02
     5550000000   -8.886876702e-02    7.303176099e-04
     5553000000   -8.497799188e-02   -3.073363379e-02
     5556000000   -7.320272177e-02   -5.962024629e-02
     5559000000   -4.996613786e-02   -8.014814556e-02
     5562000000   -2.018982731e-02   -9.265202284e-02
     5565000000    1.297345757e-02   -9.689353406e-02
     5568000000    4.219217971e-02   -8.739655465e-02
     5571000000    6.926842034e-02   -7.146846503e-02
     5574000000    9.285175055e-02   -4.286711663e-02
     5577000000    1.074548811e-01   -1.937938505e-03
     5580000000    1.008510217e-01    2.654159255e-02
     5583000000    8.680618554e-02    6.241454557e-02
     5586000000    6.511717290e-02    8.329545707e-02
     5589000000    3.403206170e-02    1.030083522e-01
     5592000000   -1.290928014e-02    1.151351631e-01
     5595000000   -3.729847819e-02    1.044458821e-01
     5598000000   -7.196865231e-02    8.767995983e-02
     5601000000   -1.054919362e-01    4.979810864e-02
     5604000000   -1.157064810e-01    1.836968772e-02
     5607000000   -1.157779396e-01   -2.122005634e-02
     5610000000   -1.022084430e-01   -6.124325842e-02
     5613000000   -7.791330665e-02   -9.191130847e-02
     5616000000   -4.033375159e-02   -1.156666204e-01
     5619000000    5.314102396e-03   -1.236357987e-01
     5622000000    4.285128042e-02   -1.210045815e-01
     5625000000    8.192742616e-02   -1.014200300e-01
     5628000000    1.164585203e-01   -6.021978334e-02
     5631000000    1.335541904e-01   -2.472954988e-02
     5634000000    1.364114881e-01    2.306265570e-02
     5637000000    1.154835597e-01    7.551122457e-02
     5640000000    9.356457740e-02    1.083956435e-01
     5643000000    4.471671954e-02    1.326440722e-01
     5646000000    2.106810425e-04    1.459905058e-01
     5649000000   -5.478354171e-02    1.321889460e-01
     5652000000   -9.434045851e-02    1.147280261e-01
     5655000000   -1.301894337e-01    6.563697755e-02
     5658000000   -1.559488177e-01    2.609820291e-02
     5661000000   -1.469679028e-01   -3.437821567e-02
     5664000000   -1.343504637e-01   -8.532840759e-02
     5667000000   -8.808191121e-02   -1.246633828e-01
     5670000000   -4.441084340e-02   -1.557687372e-01
     5673000000    1.341130957e-02   -1.649645567e-01
     5676000000    7.149833441e-02   -1.504660398e-01
     5679000000    1.200300753e-01   -1.147620305e-01
     5682000000    1.581258327e-01   -6.621932238e-02
     5685000000    1.712426096e-01   -7.262732368e-03
     5688000000    1.757886559e-01    5.277165025e-02
     5691000000    1.335566044e-01    1.100118458e-01
     5694000000    9.234771132e-02    1.573334485e-01
     5697000000    3.496964276e-02    1.878552139e-01
     5700000000   -3.621853516e-02    1.784546226e-01
     5703000000   -1.021649018e-01    1.641202122e-01
     5706000000   -1.541937590e-01    1.162460670e-01
     5709000000   -1.748758703e-01    4.987677559e-02
     5712000000   -2.057927847e-01   -1.500729192e-02
     5715000000   -1.768087298e-01   -8.376699686e-02
     5718000000   -1.401011199e-01   -1.455454677e-01
     5721000000   -8.123923093e-02   -1.897246391e-01
     5724000000   -7.811497897e-03   -2.073942572e-01
     5727000000    6.555228680e-02   -1.993224770e-01
     5730000000    1.341769546e-01   -1.623742133e-01
     5733000000    1.941012889e-01   -1.077982783e-01
     5736000000    2.117503285e-01   -3.021490201e-02
     5739000000    2.161794603e-01    5.028655007e-02
     5742000000    1.854683310e-01    1.247770637e-01
     5745000000    1.312219650e-01    1.870953292e-01
     5748000000    5.848977715e-02    2.372837514e-01
     5751000000   -2.207804471e-02    2.252107561e-01
     5754000000   -1.103600785e-01    2.142325938e-01
     5757000000   -1.804590821e-01    1.587859988e-01
     5760000000   -2.316322029e-01    8.591080457e-02
     5763000000   -2.522292137e-01   -5.017905496e-04
     5766000000   -2.310680896e-01   -8.297106624e-02
     5769000000   -1.922405660e-01   -1.731278896e-01
     5772000000   -1.182793453e-01   -2.215586901e-01
     5775000000   -2.662614919e-02   -2.637689412e-01
     5778000000    6.976144761e-02   -2.580076754e-01
     5781000000    1.526672095e-01   -2.155810744e-01
     5784000000    2.274974436e-01   -1.485071033e-01
     5787000000    2.668912411e-01   -5.568272248e-02
     5790000000    2.738108933e-01    4.346552119e-02
     5793000000    2.434775382e-01    1.431399286e-01
     5796000000    1.775396615e-01    2.231875658e-01
     5799000000    8.803484589e-02    2.763478756e-01
     5802000000   -1.128951740e-02    2.827566862e-01
     5805000000   -1.258488894e-01    2.694004774e-01
     5808000000   -2.189152390e-01    2.092631310e-01
     5811000000   -2.760935724e-01    1.180564985e-01
     5814000000   -3.059682250e-01    1.200759318e-02
     5817000000   -2.919461727e-01   -1.020136327e-01
     5820000000   -2.376527339e-01   -2.030008584e-01
     5823000000   -1.532096416e-01   -2.757003009e-01
     5826000000   -4.769579321e-02   -3.139526248e-01
     5829000000    7.599444687e-02   -3.161906004e-01
     5832000000    1.813796312e-01   -2.715233862e-01
     5835000000    2.677235901e-01   -1.893381476e-01
     5838000000    3.199453950e-01   -8.092737198e-02
     5841000000    3.385028839e-01    5.520888418e-02
     5844000000    2.973338366e-01    1.568482518e-01
     5847000000    2.206583023e-01    2.643300891e-01
     5850000000    1.119867340e-01    3.286328018e-01
     5853000000   -1.129788160e-02    3.493601680e-01
     5856000000   -1.398355961e-01    3.251898587e-01
     5859000000   -2.382117659e-01    2.577225864e-01
     5862000000   -3.261802495e-01    1.506345123e-01
     5865000000   -3.609158695e-01    2.312852815e-02
     5868000000   -3.467471004e-01   -1.044957042e-01
     5871000000   -2.853451073e-01   -2.323916554e-01
     5874000000   -1.865544915e-01   -3.219864368e-01
     5877000000   -5.208159238e-02   -3.754914701e-01
     5880000000    8.283790201e-02   -3.728344440e-01
     5883000000    2.139575034e-01   -3.214380145e-01
     5886000000    3.079786897e-01   -2.313195467e-01
     5889000000    3.836211562e-01   -9.014197439e-02
     5892000000    3.881728053e-01    3.738175705e-02
     5895000000    3.519936204e-01    1.779430509e-01
     5898000000    2.548521459e-01    3.135754764e-01
     5901000000    1.391914338e-01    3.765599728e-01
     5904000000    1.389217190e-02    3.968115449e-01
     5907000000   -1.605718732e-01    3.767245114e-01
     5910000000   -2.813680470e-01    2.992421091e-01
     5913000000   -3.780934811e-01    1.689179242e-01
     5916000000   -4.164549112e-01    3.178431094e-02
     5919000000   -4.020579755e-01   -1.115667149e-01
     5922000000   -3.259766698e-01   -2.712970972e-01
     5925000000   -2.148015797e-01   -3.677695990e-01
     5928000000   -6.884812564e-02   -4.224399030e-01
     5931000000    9.204026312e-02   -4.211642146e-01
     5934000000    2.334575653e-01   -3.646268547e-01
     5937000000    3.627228737e-01   -2.465446591e-01
     5940000000    4.233715534e-01   -1.207146943e-01
     5943000000    4.393118620e-01    6.014911085e-02
     5946000000    3.904506266e-01    2.221862376e-01
     5949000000    2.938819230e-01    3.421204984e-01
     5952000000    1.658976823e-01    4.198003411e-01
     5955000000   -9.954467416e-03    4.580255449e-01
     5958000000   -1.802534908e-01    4.226358533e-01
     5961000000   -3.147060573e-01    3.373566568e-01
     5964000000   -4.159998298e-01    2.069559246e-01
     5967000000   -4.678279757e-01    2.875285968e-02
     5970000000   -4.453378022e-01   -1.595038176e-01
     5973000000   -3.658478856e-01   -3.019624054e-01
     5976000000   -2.421698570e-01   -4.102948606e-01
     5979000000   -7.239741087e-02   -4.763871431e-01
     5982000000    9.916535020e-02   -4.738238156e-01
     5985000000    2.660621405e-01   -4.096612334e-01
     5988000000    4.120385349e-01   -2.703334391e-01
     5991000000    4.769508839e-01   -1.334777623e-01
     5994000000    4.972518384e-01    6.260383129e-02
     5997000000    4.438140094e-01    2.402568161e-01
     6000000000    3.260482252e-01    3.849926889e-01
