! NanoVNA-App
! Date: 2026-05-22 16:32:18
! Start: 4.8GHz Stop: 6GHz Points: 401
! S-Parameter data: F S11
# Hz S RI R 50
!     Frequency           S11_Real           S11_Imag
     4800000000   -1.484101862e-01   -1.553547829e-01
     4803000000   -8.129790425e-02   -1.936384290e-01
     4806000000   -6.378499325e-03   -2.062282562e-01
     4809000000    7.224328816e-02   -1.942604184e-01
     4812000000    1.292040646e-01   -1.524539143e-01
     4815000000    1.764124334e-01   -9.299338609e-02
     4818000000    1.944179535e-01   -2.592263557e-02
     4821000000    1.889022887e-01    4.755644500e-02
     4824000000    1.564198285e-01    1.060744599e-01
     4827000000    1.057592332e-01    1.515409350e-01
     4830000000    4.131650180e-02    1.769084334e-01
     4833000000   -2.378341369e-02    1.756692380e-01
     4836000000   -8.476189524e-02    1.527604461e-01
     4839000000   -1.310932487e-01    1.096469238e-01
     4842000000   -1.584311724e-01    5.462684855e-02
     4845000000   -1.639954895e-01   -3.644742072e-03
     4848000000   -1.501326561e-01   -6.568825990e-02
     4851000000   -1.149427742e-01   -1.161582172e-01
     4854000000   -7.071465999e-02   -1.412439495e-01
     4857000000   -1.296313666e-02   -1.563747823e-01
     4860000000    3.863150999e-02   -1.466096491e-01
     4863000000    8.390160650e-02   -1.203218922e-01
     4866000000    1.151540726e-01   -7.993870229e-02
     4869000000    1.279075295e-01   -3.709760681e-02
     4872000000    1.341576129e-01    2.174467966e-02
     4875000000    1.141701862e-01    5.977619812e-02
     4878000000    8.321038634e-02    9.516178071e-02
     4881000000    4.329604656e-02    1.156390607e-01
     4884000000    1.918569556e-03    1.223908961e-01
     4887000000   -3.975195065e-02    1.113324165e-01
     4890000000   -7.151113451e-02    8.721216768e-02
     4893000000   -9.504986554e-02    5.526300147e-02
     4896000000   -1.060305163e-01    1.670286618e-02
     4899000000   -1.007490680e-01   -1.448764838e-02
     4902000000   -8.521083742e-02   -4.562719539e-02
     4905000000   -6.217681989e-02   -6.852933019e-02
     4908000000   -3.171889111e-02   -8.173169941e-02
     4911000000   -3.047556675e-04   -8.479771018e-02
     4914000000    2.341718040e-02   -7.776402682e-02
     4917000000    4.829656705e-02   -6.154696271e-02
     4920000000    6.375674158e-02   -3.969997913e-02
     4923000000    6.828206778e-02   -1.846442930e-02
     4926000000    6.851401925e-02    1.068455353e-02
     4929000000    6.090967357e-02    2.457073890e-02
     4932000000    4.342836142e-02    4.430305958e-02
     4935000000    3.180943057e-02    4.972546920e-02
     4938000000    1.014730800e-02    5.539922044e-02
     4941000000   -2.520187991e-03    5.417534336e-02
     4944000000   -1.864254102e-02    4.710377008e-02
     4947000000   -2.813109569e-02    4.122674838e-02
     4950000000   -3.873747215e-02    2.444420941e-02
     4953000000   -4.346367717e-02    1.588687673e-02
     4956000000   -4.584285989e-02    2.752434229e-03
     4959000000   -4.328843579e-02   -8.535933681e-03
     4962000000   -4.107551649e-02   -1.919597574e-02
     4965000000   -3.481045738e-02   -3.087162785e-02
     4968000000   -2.599662729e-02   -3.912890330e-02
     4971000000   -1.638734527e-02   -4.648613557e-02
     4974000000   -2.668719040e-03   -4.890900478e-02
     4977000000    1.050332561e-02   -4.971945286e-02
     4980000000    2.483581565e-02   -4.684532061e-02
     4983000000    3.779613599e-02   -3.826550767e-02
     4986000000    5.411144719e-02   -2.874221466e-02
     4989000000    5.854928493e-02   -1.241104212e-02
     4992000000    6.658080220e-02    1.075316314e-02
     4995000000    6.093284860e-02    2.909898013e-02
     4998000000    5.136449635e-02    4.958399758e-02
     5001000000    3.356317803e-02    7.564633340e-02
     5004000000    1.150593255e-02    8.104559779e-02
     5007000000   -1.525215153e-02    8.463324606e-02
     5010000000   -4.573294520e-02    7.925565541e-02
     5013000000   -7.001401484e-02    6.207225099e-02
     5016000000   -8.757631481e-02    3.834817931e-02
     5019000000   -1.031460166e-01    2.513541142e-03
     5022000000   -1.015558243e-01   -3.090018593e-02
     5025000000   -8.702920377e-02   -6.361998618e-02
     5028000000   -5.998846889e-02   -9.718099982e-02
     5031000000   -2.757577226e-02   -1.152648032e-01
     5034000000    1.449458022e-02   -1.213786080e-01
     5037000000    5.753356591e-02   -1.143113151e-01
     5040000000    9.524083883e-02   -9.194726497e-02
     5043000000    1.241720989e-01   -5.251888186e-02
     5046000000    1.392230839e-01   -8.734296076e-03
     5049000000    1.369448006e-01    4.080070183e-02
     5052000000    1.169306189e-01    8.691798896e-02
     5055000000    8.068623394e-02    1.268789023e-01
     5058000000    3.332700208e-02    1.512803286e-01
     5061000000   -2.293561772e-02    1.585080326e-01
     5064000000   -7.765261829e-02    1.447599977e-01
     5067000000   -1.272502095e-01    1.102039367e-01
     5070000000   -1.602745652e-01    6.125853583e-02
     5073000000   -1.752358526e-01    2.088607522e-03
     5076000000   -1.668197066e-01   -6.281966716e-02
     5079000000   -1.401293576e-01   -1.181946769e-01
     5082000000   -9.096200019e-02   -1.635226309e-01
     5085000000   -2.885125205e-02   -1.895906329e-01
     5088000000    3.908099979e-02   -1.904779375e-01
     5091000000    1.053255424e-01   -1.691103131e-01
     5094000000    1.610219181e-01   -1.228549927e-01
     5097000000    1.965290010e-01   -5.969369039e-02
     5100000000    2.096541524e-01    1.081387047e-02
     5103000000    1.954969317e-01    8.452572674e-02
     5106000000    1.555422246e-01    1.489700079e-01
     5109000000    9.522323310e-02    1.974632144e-01
     5112000000    1.849928871e-02    2.196495384e-01
     5115000000   -6.085662171e-02    2.166846097e-01
     5118000000   -1.335213929e-01    1.804421544e-01
     5121000000   -1.958178729e-01    1.250584424e-01
     5124000000   -2.292034030e-01    4.894626886e-02
     5127000000   -2.319938540e-01   -3.681464493e-02
     5130000000   -2.092540562e-01   -1.173796654e-01
     5133000000   -1.574068815e-01   -1.857016236e-01
     5136000000   -8.335949481e-02   -2.288347036e-01
     5139000000    3.415154526e-03   -2.481272370e-01
     5142000000    9.039529413e-02   -2.348969430e-01
     5145000000    1.696091443e-01   -1.873980165e-01
     5148000000    2.283339202e-01   -1.171921492e-01
     5151000000    2.580233514e-01   -2.992786653e-02
     5154000000    2.524563074e-01    6.442438066e-02
     5157000000    2.186883986e-01    1.514502764e-01
     5160000000    1.547720432e-01    2.265480161e-01
     5163000000    6.781765074e-02    2.649580836e-01
     5166000000   -3.021820821e-02    2.739413381e-01
     5169000000   -1.276740432e-01    2.535504699e-01
     5172000000   -2.012653947e-01    1.891214252e-01
     5175000000   -2.635501325e-01    1.092188135e-01
     5178000000   -2.842562795e-01    1.018870343e-02
     5181000000   -2.704689801e-01   -8.827894181e-02
     5184000000   -2.273330688e-01   -1.809064448e-01
     5187000000   -1.514916569e-01   -2.543680966e-01
     5190000000   -5.332097039e-02   -2.875020206e-01
     5193000000    4.857556894e-02   -2.892460823e-01
     5196000000    1.497012973e-01   -2.567661405e-01
     5199000000    2.301260978e-01   -1.890139878e-01
     5202000000    2.847742140e-01   -1.000072658e-01
     5205000000    3.017424941e-01    7.102693431e-03
     5208000000    2.772351503e-01    1.069473922e-01
     5211000000    2.259533405e-01    2.048866302e-01
     5214000000    1.431868076e-01    2.683978081e-01
     5217000000    3.890791163e-02    3.016817272e-01
     5220000000   -6.588337570e-02    2.953025997e-01
     5223000000   -1.656570286e-01    2.548156977e-01
     5226000000   -2.434937060e-01    1.799573600e-01
     5229000000   -2.923197150e-01    8.400570601e-02
     5232000000   -3.009305000e-01   -2.210667171e-02
     5235000000   -2.738307416e-01   -1.263610870e-01
     5238000000   -2.125646621e-01   -2.181155533e-01
     5241000000   -1.280998737e-01   -2.675902247e-01
     5244000000   -1.924782433e-02   -2.984319925e-01
     5247000000    8.694872260e-02   -2.881611586e-01
     5250000000    1.848012060e-01   -2.406338006e-01
     5253000000    2.580490708e-01   -1.587468833e-01
     5256000000    2.867949009e-01   -6.760882586e-02
     5259000000    2.953975797e-01    4.219536111e-02
     5262000000    2.609421313e-01    1.427651495e-01
     5265000000    1.946359724e-01    2.193539590e-01
     5268000000    1.063266173e-01    2.702196240e-01
     5271000000   -2.758690156e-03    2.929339111e-01
     5274000000   -9.831234813e-02    2.707189023e-01
     5277000000   -1.866336465e-01    2.183004022e-01
     5280000000   -2.476826608e-01    1.374880821e-01
     5283000000   -2.741542757e-01    4.547290877e-02
     5286000000   -2.763351500e-01   -7.147195935e-02
     5289000000   -2.334137261e-01   -1.464684904e-01
     5292000000   -1.645551622e-01   -2.198401242e-01
     5295000000   -7.216288149e-02   -2.610141635e-01
     5298000000    2.088206634e-02   -2.667974532e-01
     5301000000    1.178457364e-01   -2.417203337e-01
     5304000000    1.905530840e-01   -1.831412315e-01
     5307000000    2.429920435e-01   -1.017372981e-01
     5310000000    2.583803535e-01   -1.011150982e-02
     5313000000    2.453946024e-01    7.999483496e-02
     5316000000    1.982300729e-01    1.605680734e-01
     5319000000    1.292470247e-01    2.165149450e-01
     5322000000    3.518408537e-02    2.508065701e-01
     5325000000   -5.495424941e-02    2.424776852e-01
     5328000000   -1.359720677e-01    2.050426304e-01
     5331000000   -1.952421814e-01    1.458157301e-01
     5334000000   -2.313802540e-01    6.450463086e-02
     5337000000   -2.389648557e-01   -2.395206690e-02
     5340000000   -2.166826129e-01   -1.020659357e-01
     5343000000   -1.635712385e-01   -1.731967330e-01
     5346000000   -8.783394098e-02   -2.206895500e-01
     5349000000   -4.205604084e-03   -2.342008948e-01
     5352000000    7.829699665e-02   -2.208842486e-01
     5355000000    1.505667120e-01   -1.757429987e-01
     5358000000    2.018100023e-01   -1.062220111e-01
     5361000000    2.276259214e-01   -2.957638539e-02
     5364000000    2.199712545e-01    5.748304352e-02
     5367000000    1.857227981e-01    1.206171513e-01
     5370000000    1.361027956e-01    1.732477844e-01
     5373000000    5.971594155e-02    2.108252198e-01
     5376000000   -5.419502966e-03    2.194370478e-01
     5379000000   -1.048057526e-01    1.884537339e-01
     5382000000   -1.553717256e-01    1.491787732e-01
     5385000000   -1.977156550e-01    8.513822407e-02
     5388000000   -2.149442434e-01    6.198917981e-03
     5391000000   -1.985437572e-01   -6.345041841e-02
     5394000000   -1.581911743e-01   -1.333812177e-01
     5397000000   -1.103744209e-01   -1.714429855e-01
     5400000000   -3.712427244e-02   -1.957862973e-01
     5403000000    4.278573021e-02   -1.923341304e-01
     5406000000    1.030564681e-01   -1.642007828e-01
     5409000000    1.524302512e-01   -1.204931960e-01
     5412000000    1.820268780e-01   -5.355807021e-02
     5415000000    1.892428994e-01    7.859713398e-03
     5418000000    1.645587534e-01    7.769782841e-02
     5421000000    1.233508736e-01    1.332711279e-01
     5424000000    7.858376205e-02    1.643013805e-01
     5427000000    3.791181371e-03    1.747901440e-01
     5430000000   -4.356008768e-02    1.721530408e-01
     5433000000   -1.118497923e-01    1.243677437e-01
     5436000000   -1.421417743e-01    9.975379705e-02
     5439000000   -1.645203531e-01    1.894149184e-02
     5442000000   -1.688327789e-01   -2.187889069e-02
     5445000000   -1.358713955e-01   -8.815831691e-02
     5448000000   -1.079033762e-01   -1.222266704e-01
     5451000000   -4.080602899e-02   -1.501167119e-01
     5454000000    1.386881713e-02   -1.532761157e-01
     5457000000    6.164124981e-02   -1.422273070e-01
     5460000000    1.068820432e-01   -1.016444787e-01
     5463000000    1.348795593e-01   -5.940037221e-02
     5466000000    1.465728730e-01   -1.161791198e-02
     5469000000    1.383246481e-01    4.297458008e-02
     5472000000    1.125043780e-01    8.564148843e-02
     5475000000    7.313950360e-02    1.180785075e-01
     5478000000    3.780166805e-02    1.392139941e-01
     5481000000   -2.322511747e-02    1.263093054e-01
     5484000000   -6.348925829e-02    1.219981983e-01
     5487000000   -1.001278460e-01    8.169356734e-02
     5490000000   -1.220049933e-01    4.053912312e-02
     5493000000   -1.290122569e-01   -1.240679267e-04
     5496000000   -1.144845635e-01   -4.592022300e-02
     5499000000   -9.499784559e-02   -8.374203742e-02
     5502000000   -5.442330614e-02   -1.064582244e-01
     5505000000   -1.595372520e-02   -1.188394725e-01
     5508000000    2.344324253e-02   -1.232593060e-01
     5511000000    6.146210805e-02   -9.589023143e-02
     5514000000    8.966314793e-02   -6.818876415e-02
     5517000000    1.120327562e-01   -3.699037433e-02
     5520000000    1.075619012e-01    7.565274369e-03
     5523000000    1.038054526e-01    4.376426339e-02
     5526000000    7.510553300e-02    7.296527922e-02
     5529000000    5.810109898e-02    1.061831117e-01
     5532000000    1.522768196e-02    1.084111407e-01
     5535000000   -2.189960703e-02    1.022259817e-01
     5538000000   -5.181322619e-02    8.258357644e-02
     5541000000   -7.989543676e-02    6.385388225e-02
     5544000000   -9.363026172e-02    3.111333586e-02
     5547000000   -1.068670154e-01   -1.341535710e-03
     5550000000   -8.698777854e-02   -3.060621023e-02
     5553000000   -7.475553453e-02   -6.012900919e-02
     5556000000   -4.952104390e-02   -8.289667219e-02
     5559000000   -1.936642826e-02   -9.230776131e-02
     5562000000    1.237537619e-02   -9.400013834e-02
     5565000000    4.188131168e-02   -8.218719065e-02
     5568000000    6.361301243e-02   -6.187095121e-02
     5571000000    8.654619753e-02   -3.678065911e-02
     5574000000    8.115983009e-02   -1.012584474e-02
     5577000000    8.955803514e-02    2.548904158e-02
     5580000000    7.300987840e-02    5.103072524e-02
     5583000000    5.359702185e-02    6.980539113e-02
     5586000000    3.012242354e-02    7.593397051e-02
     5589000000   -4.604284652e-03    9.054353088e-02
     5592000000   -3.590090573e-02    8.464693278e-02
     5595000000   -5.082145333e-02    6.738542020e-02
     5598000000   -7.832132280e-02    4.440525919e-02
     5601000000   -8.481886238e-02    1.991986297e-02
     5604000000   -9.480917454e-02   -2.283939160e-02
     5607000000   -8.344142139e-02   -3.672691435e-02
     5610000000   -6.628594548e-02   -6.289362907e-02
     5613000000   -3.921965137e-02   -8.602524549e-02
     5616000000   -1.270159800e-02   -9.251079708e-02
     5619000000    2.179418877e-02   -9.391018748e-02
     5622000000    4.575854540e-02   -8.572428674e-02
     5625000000    7.681667805e-02   -5.979371443e-02
     5628000000    9.178683162e-02   -3.075233847e-02
     5631000000    1.000323072e-01   -3.099404043e-03
     5634000000    9.315932542e-02    3.373076767e-02
     5637000000    7.928119600e-02    6.567959487e-02
     5640000000    6.134528294e-02    8.651864529e-02
     5643000000    2.036979049e-02    1.012334079e-01
     5646000000   -1.453850046e-02    1.044440642e-01
     5649000000   -4.635447636e-02    9.862565994e-02
     5652000000   -7.786518335e-02    7.623054087e-02
     5655000000   -1.007956862e-01    4.228093103e-02
     5658000000   -1.083338559e-01    2.768774750e-03
     5661000000   -1.006382406e-01   -3.808393702e-02
     5664000000   -8.806169033e-02   -6.902901083e-02
     5667000000   -6.289610267e-02   -9.947837144e-02
     5670000000   -1.697010919e-02   -1.138912588e-01
     5673000000    2.151704952e-02   -1.199943125e-01
     5676000000    6.307856739e-02   -1.086408645e-01
     5679000000    9.842336923e-02   -8.426535130e-02
     5682000000    1.227725372e-01   -4.180739820e-02
     5685000000    1.332823485e-01    1.123752445e-03
     5688000000    1.284971833e-01    4.793532938e-02
     5691000000    1.016445160e-01    9.169910848e-02
     5694000000    5.586172268e-02    1.169360876e-01
     5697000000    2.041792311e-02    1.485779881e-01
     5700000000   -3.660887107e-02    1.379732788e-01
     5703000000   -8.770875633e-02    1.279674172e-01
     5706000000   -1.250863969e-01    8.375262469e-02
     5709000000   -1.486797780e-01    3.567862883e-02
     5712000000   -1.634482592e-01   -1.765571162e-02
     5715000000   -1.421910822e-01   -7.280648500e-02
     5718000000   -1.132718325e-01   -1.230429262e-01
     5721000000   -6.556803733e-02   -1.611795574e-01
     5724000000   -3.201508662e-03   -1.705437452e-01
     5727000000    5.722486600e-02   -1.607880741e-01
     5730000000    1.160883829e-01   -1.358505785e-01
     5733000000    1.513072550e-01   -8.173231781e-02
     5736000000    1.820691377e-01   -2.291984111e-02
     5739000000    1.805687845e-01    4.296355322e-02
     5742000000    1.580677330e-01    1.075811833e-01
     5745000000    1.093575135e-01    1.594907790e-01
     5748000000    4.843583703e-02    1.951986998e-01
     5751000000   -2.261747420e-02    1.959572136e-01
     5754000000   -9.839202464e-02    1.868743896e-01
     5757000000   -1.638945639e-01    1.416812986e-01
     5760000000   -2.004341334e-01    7.398447394e-02
     5763000000   -2.227943838e-01   -2.372582443e-03
     5766000000   -2.135015428e-01   -8.243001252e-02
     5769000000   -1.686300337e-01   -1.479775310e-01
     5772000000   -1.083807498e-01   -2.004152536e-01
     5775000000   -2.794893645e-02   -2.327234894e-01
     5778000000    5.392922834e-02   -2.303455770e-01
     5781000000    1.368957311e-01   -2.017166317e-01
     5784000000    1.997455508e-01   -1.379905194e-01
     5787000000    2.416822314e-01   -5.616518855e-02
     5790000000    2.499475032e-01    3.339203075e-02
     5793000000    2.239033580e-01    1.220991090e-01
     5796000000    1.683637947e-01    1.981796473e-01
     5799000000    8.972339332e-02    2.467168272e-01
     5802000000   -5.712205544e-03    2.679188848e-01
     5805000000   -1.006974801e-01    2.513586581e-01
     5808000000   -1.880326271e-01    2.015470713e-01
     5811000000   -2.508194149e-01    1.227031052e-01
     5814000000   -2.893903852e-01    2.012855373e-02
     5817000000   -2.688471079e-01   -7.122196257e-02
     5820000000   -2.289033383e-01   -1.768677384e-01
     5823000000   -1.553156078e-01   -2.382993698e-01
     5826000000   -5.607598275e-02   -2.854157090e-01
     5829000000    5.377571285e-02   -2.940677702e-01
     5832000000    1.642850339e-01   -2.563880384e-01
     5835000000    2.387322783e-01   -1.866037250e-01
     5838000000    3.011940122e-01   -8.531295508e-02
     5841000000    3.136555254e-01    3.102874570e-02
     5844000000    2.864208519e-01    1.339970529e-01
     5847000000    2.194381058e-01    2.400383949e-01
     5850000000    1.224059239e-01    3.027042150e-01
     5853000000    1.050091116e-03    3.338464499e-01
     5856000000   -1.138764843e-01    3.120886385e-01
     5859000000   -2.208911479e-01    2.530103624e-01
     5862000000   -3.056362569e-01    1.546378136e-01
     5865000000   -3.441211879e-01    3.652355075e-02
     5868000000   -3.374135792e-01   -9.230468422e-02
     5871000000   -2.864207029e-01   -2.137401104e-01
     5874000000   -1.922348291e-01   -3.080961406e-01
     5877000000   -7.770160586e-02   -3.571016192e-01
     5880000000    5.712042376e-02   -3.678944111e-01
     5883000000    2.077716589e-01   -3.245187998e-01
     5886000000    3.002735376e-01   -2.391915768e-01
     5889000000    3.697931767e-01   -1.127098277e-01
     5892000000    3.907790780e-01    2.215764672e-02
     5895000000    3.617088795e-01    1.332588941e-01
     5898000000    2.706675828e-01    2.987805009e-01
     5901000000    1.618589759e-01    3.668230176e-01
     5904000000    2.470337041e-02    3.999527097e-01
     5907000000   -1.196837053e-01    3.886016011e-01
     5910000000   -2.674470246e-01    3.151945174e-01
     5913000000   -3.641604483e-01    1.992533654e-01
     5916000000   -4.154609442e-01    6.253539026e-02
     5919000000   -4.151028395e-01   -8.780506253e-02
     5922000000   -3.556071520e-01   -2.384957224e-01
     5925000000   -2.482373565e-01   -3.561984301e-01
     5928000000   -9.807765484e-02   -4.288921058e-01
     5931000000    6.126221269e-02   -4.380454719e-01
     5934000000    1.991677284e-01   -3.909152150e-01
     5937000000    3.363090158e-01   -2.934955359e-01
     5940000000    4.238957763e-01   -1.484591812e-01
     5943000000    4.512664676e-01    2.313577197e-02
     5946000000    4.147796631e-01    1.897355318e-01
     5949000000    3.423353136e-01    3.054801524e-01
     5952000000    1.927259713e-01    4.221529067e-01
     5955000000    2.467908897e-02    4.693813324e-01
     5958000000   -1.186331734e-01    4.562509060e-01
     5961000000   -2.916195989e-01    3.748124540e-01
     5964000000   -4.089082181e-01    2.463418096e-01
     5967000000   -4.662965834e-01    1.131799147e-01
     5970000000   -4.723313749e-01   -1.032868624e-01
     5973000000   -4.186064005e-01   -2.448539287e-01
     5976000000   -2.932073474e-01   -3.918653429e-01
     5979000000   -1.268524379e-01   -4.747959375e-01
     5982000000    4.902336374e-02   -4.901060760e-01
     5985000000    2.282302976e-01   -4.437341094e-01
     5988000000    3.737967610e-01   -3.373872638e-01
     5991000000    4.741627872e-01   -1.794055402e-01
     5994000000    5.094537139e-01    4.353872966e-03
     5997000000    4.738937616e-01    1.950104684e-01
     6000000000    3.916278481e-01    3.383016288e-01
