! NanoVNA-App
! Date: 2026-05-22 16:36:03
! Start: 4.8GHz Stop: 6GHz Points: 401
! S-Parameter data: F S11
# Hz S RI R 50
!     Frequency           S11_Real           S11_Imag
     4800000000   -1.248228997e-01   -5.071626306e-01
     4803000000    5.315900967e-02   -5.197463632e-01
     4806000000    2.287124246e-01   -4.683915377e-01
     4809000000    3.708894849e-01   -3.658451438e-01
     4812000000    4.714500904e-01   -2.172794044e-01
     4815000000    5.165144801e-01   -4.104660451e-02
     4818000000    4.993460774e-01    1.265103668e-01
     4821000000    4.259088337e-01    2.855527103e-01
     4824000000    3.025858998e-01    4.169031382e-01
     4827000000    1.478040069e-01    4.881119132e-01
     4830000000   -2.304473706e-02    5.062929392e-01
     4833000000   -1.892201453e-01    4.667284191e-01
     4836000000   -3.374734223e-01    3.738681674e-01
     4839000000   -4.409479201e-01    2.404950708e-01
     4842000000   -4.974948168e-01    7.225114852e-02
     4845000000   -4.904299974e-01   -9.515070915e-02
     4848000000   -4.280903935e-01   -2.549742758e-01
     4851000000   -3.145362139e-01   -3.867543936e-01
     4854000000   -1.753826290e-01   -4.595704973e-01
     4857000000   -4.086405970e-03   -4.948569834e-01
     4860000000    1.580574214e-01   -4.665459096e-01
     4863000000    3.055095673e-01   -3.812595010e-01
     4866000000    4.158860147e-01   -2.582017779e-01
     4869000000    4.764095545e-01   -9.707203507e-02
     4872000000    4.790021181e-01    6.018361077e-02
     4875000000    4.292458892e-01    2.165112942e-01
     4878000000    3.277543485e-01    3.481725454e-01
     4881000000    1.873894632e-01    4.394088686e-01
     4884000000    3.049276024e-02    4.731219709e-01
     4887000000   -1.179699153e-01    4.543091655e-01
     4890000000   -2.690940797e-01    3.851471543e-01
     4893000000   -3.788931966e-01    2.708129287e-01
     4896000000   -4.440200329e-01    1.265228093e-01
     4899000000   -4.596500695e-01   -3.353322297e-02
     4902000000   -4.197516739e-01   -1.852890700e-01
     4905000000   -3.304678798e-01   -3.134633601e-01
     4908000000   -2.021794021e-01   -4.052102566e-01
     4911000000   -5.815459043e-02   -4.475381076e-01
     4914000000    9.981793165e-02   -4.360147417e-01
     4917000000    2.447316051e-01   -3.741755784e-01
     4920000000    3.511646092e-01   -2.698281407e-01
     4923000000    4.190059900e-01   -1.337881088e-01
     4926000000    4.374808967e-01    1.455938071e-02
     4929000000    4.042165279e-01    1.607631743e-01
     4932000000    3.197144270e-01    2.935822904e-01
     4935000000    2.028542310e-01    3.786328733e-01
     4938000000    6.728333980e-02    4.211449027e-01
     4941000000   -7.682640851e-02    4.186065495e-01
     4944000000   -2.184032053e-01    3.619175255e-01
     4947000000   -3.306689560e-01    2.562231421e-01
     4950000000   -3.958986104e-01    1.343655437e-01
     4953000000   -4.159784019e-01   -2.689239802e-03
     4956000000   -3.869099319e-01   -1.430855691e-01
     4959000000   -3.113648891e-01   -2.670238614e-01
     4962000000   -1.980572939e-01   -3.542250991e-01
     4965000000   -7.286877930e-02   -3.982873559e-01
     4968000000    7.367439568e-02   -3.934337497e-01
     4971000000    2.013594210e-01   -3.436517417e-01
     4974000000    3.023186028e-01   -2.536793649e-01
     4977000000    3.679523766e-01   -1.283149719e-01
     4980000000    3.877925575e-01    4.973511212e-03
     4983000000    3.603854775e-01    1.356917918e-01
     4986000000    2.896166146e-01    2.495129853e-01
     4989000000    1.882729977e-01    3.303228617e-01
     4992000000    6.217361987e-02    3.723532259e-01
     4995000000   -7.649669051e-02    3.608685136e-01
     4998000000   -1.882215291e-01    3.191765845e-01
     5001000000   -2.886637449e-01    2.233380526e-01
     5004000000   -3.441492617e-01    1.089331731e-01
     5007000000   -3.589738011e-01   -8.856925182e-03
     5010000000   -3.324935138e-01   -1.293947697e-01
     5013000000   -2.635687590e-01   -2.351884544e-01
     5016000000   -1.682191193e-01   -3.089802265e-01
     5019000000   -4.857963696e-02   -3.421628475e-01
     5022000000    7.008682191e-02   -3.373876512e-01
     5025000000    1.829001307e-01   -2.841539979e-01
     5028000000    2.675464749e-01   -2.032334358e-01
     5031000000    3.160012066e-01   -9.723028541e-02
     5034000000    3.278089762e-01    1.601531915e-02
     5037000000    2.998670340e-01    1.256265789e-01
     5040000000    2.345419079e-01    2.198310047e-01
     5043000000    1.379561573e-01    2.791376114e-01
     5046000000    3.468821570e-02    3.096749485e-01
     5049000000   -7.214608043e-02    2.998129427e-01
     5052000000   -1.683671474e-01    2.489209622e-01
     5055000000   -2.397628874e-01    1.768475473e-01
     5058000000   -2.844064534e-01    8.193589002e-02
     5061000000   -2.848176658e-01   -2.088664658e-02
     5064000000   -2.570192218e-01   -1.167094335e-01
     5067000000   -1.985512376e-01   -1.947016418e-01
     5070000000   -1.162191927e-01   -2.470763326e-01
     5073000000   -2.335584164e-02   -2.659950852e-01
     5076000000    6.908921897e-02   -2.526395619e-01
     5079000000    1.495463699e-01   -2.079631835e-01
     5082000000    2.072452009e-01   -1.427751034e-01
     5085000000    2.386242002e-01   -6.175960600e-02
     5088000000    2.383126616e-01    2.538709342e-02
     5091000000    2.079731077e-01    1.025983468e-01
     5094000000    1.562350839e-01    1.653727442e-01
     5097000000    8.609853685e-02    2.062468678e-01
     5100000000    9.351548739e-03    2.135794163e-01
     5103000000   -6.401095539e-02    1.954342127e-01
     5106000000   -1.258925945e-01    1.584218293e-01
     5109000000   -1.679289043e-01    9.999382496e-02
     5112000000   -1.901731640e-01    3.508772701e-02
     5115000000   -1.806964427e-01   -3.239203990e-02
     5118000000   -1.533068568e-01   -8.902372420e-02
     5121000000   -1.096781045e-01   -1.369051635e-01
     5124000000   -5.261361971e-02   -1.618005186e-01
     5127000000    4.896657541e-03   -1.605971158e-01
     5130000000    6.094099581e-02   -1.430662423e-01
     5133000000    1.003604904e-01   -1.086904332e-01
     5136000000    1.250985414e-01   -6.413082033e-02
     5139000000    1.353930384e-01   -1.200383995e-02
     5142000000    1.240835562e-01    3.259528801e-02
     5145000000    9.949488193e-02    7.303849608e-02
     5148000000    6.257071346e-02    9.885346889e-02
     5151000000    2.315947041e-02    1.084948480e-01
     5154000000   -1.786102727e-02    1.031591818e-01
     5157000000   -4.669285566e-02    8.330059052e-02
     5160000000   -6.910255551e-02    5.594213307e-02
     5163000000   -7.801356912e-02    2.507922612e-02
     5166000000   -7.286008447e-02   -2.640527440e-03
     5169000000   -5.990955606e-02   -3.105802089e-02
     5172000000   -3.878060356e-02   -4.564040154e-02
     5175000000   -1.508540474e-02   -4.840827733e-02
     5178000000    1.068869885e-02   -4.704519361e-02
     5181000000    2.375127748e-02   -3.334071115e-02
     5184000000    2.840658650e-02   -1.684237458e-02
     5187000000    2.970999852e-02    1.406141557e-03
     5190000000    2.597817220e-02    2.574393339e-02
     5193000000    9.376149625e-03    2.782318741e-02
     5196000000   -6.570423953e-03    2.801639028e-02
     5199000000   -2.408855781e-02    2.103171125e-02
     5202000000   -3.705800697e-02    9.575849399e-03
     5205000000   -3.465197235e-02   -1.019634400e-02
     5208000000   -3.546848893e-02   -2.938934788e-02
     5211000000   -1.637110300e-02   -4.294161499e-02
     5214000000    3.470127936e-03   -5.274578556e-02
     5217000000    2.658987977e-02   -5.348711088e-02
     5220000000    4.871995747e-02   -4.373238236e-02
     5223000000    7.015684247e-02   -2.391649783e-02
     5226000000    7.938268036e-02    2.896230202e-03
     5229000000    8.060111105e-02    3.474586084e-02
     5232000000    5.837219954e-02    6.495691091e-02
     5235000000    3.470382094e-02    8.628819138e-02
     5238000000    1.077012057e-04    9.989169985e-02
     5241000000   -3.812117502e-02    9.646164626e-02
     5244000000   -7.524687797e-02    8.564270288e-02
     5247000000   -1.044155806e-01    5.167925358e-02
     5250000000   -1.200592220e-01    9.481706657e-03
     5253000000   -1.259265393e-01   -3.256534785e-02
     5256000000   -1.030963436e-01   -7.619982958e-02
     5259000000   -7.463474572e-02   -1.162560508e-01
     5262000000   -2.799885906e-02   -1.375988871e-01
     5265000000    2.347819880e-02   -1.434210539e-01
     5268000000    7.450108230e-02   -1.227957904e-01
     5271000000    1.195479780e-01   -1.057391316e-01
     5274000000    1.484394372e-01   -5.245271325e-02
     5277000000    1.629937142e-01    2.784686629e-03
     5280000000    1.496908814e-01    6.178971007e-02
     5283000000    1.248439550e-01    1.166891605e-01
     5286000000    8.032274246e-02    1.589042991e-01
     5289000000    1.482423395e-02    1.737421751e-01
     5292000000   -4.947148636e-02    1.736995280e-01
     5295000000   -1.106031090e-01    1.445619613e-01
     5298000000   -1.563522518e-01    1.008747816e-01
     5301000000   -1.868334860e-01    3.909341618e-02
     5304000000   -1.895142198e-01   -3.032755107e-02
     5307000000   -1.704889089e-01   -9.716004878e-02
     5310000000   -1.277998835e-01   -1.548603177e-01
     5313000000   -6.542022526e-02   -1.914126426e-01
     5316000000    7.376392372e-03   -2.040385902e-01
     5319000000    7.924820483e-02   -1.914615482e-01
     5322000000    1.421034485e-01   -1.508407742e-01
     5325000000    1.882809699e-01   -9.421574324e-02
     5328000000    2.099612951e-01   -2.101975679e-02
     5331000000    2.074832320e-01    5.523268878e-02
     5334000000    1.736268699e-01    1.238433793e-01
     5337000000    1.186899319e-01    1.777491122e-01
     5340000000    4.688043520e-02    2.083667219e-01
     5343000000   -3.102140687e-02    2.097596079e-01
     5346000000   -1.075152308e-01    1.885695457e-01
     5349000000   -1.676901728e-01    1.382215619e-01
     5352000000   -2.104230076e-01    6.945075840e-02
     5355000000   -2.187764049e-01   -9.219883010e-03
     5358000000   -1.969782561e-01   -8.492770046e-02
     5361000000   -1.631203890e-01   -1.621555537e-01
     5364000000   -9.235126525e-02   -2.009855956e-01
     5367000000   -1.328743063e-02   -2.199178785e-01
     5370000000    7.324378192e-02   -2.293430865e-01
     5373000000    1.318389028e-01   -1.682184637e-01
     5376000000    1.866945028e-01   -1.098032221e-01
     5379000000    2.273073643e-01   -3.589689732e-02
     5382000000    2.233165801e-01    4.714005440e-02
     5385000000    1.904769093e-01    1.241580844e-01
     5388000000    1.312716752e-01    1.849647015e-01
     5391000000    5.520461500e-02    2.192165405e-01
     5394000000   -2.461436018e-02    2.244072706e-01
     5397000000   -1.098754779e-01    2.046880424e-01
     5400000000   -1.749811769e-01    1.520947218e-01
     5403000000   -2.154446840e-01    8.061056584e-02
     5406000000   -2.306238264e-01   -1.075757318e-03
     5409000000   -2.126204073e-01   -8.461369574e-02
     5412000000   -1.680178642e-01   -1.551725864e-01
     5415000000   -9.925791621e-02   -2.031421810e-01
     5418000000   -1.636365429e-02   -2.315064818e-01
     5421000000    6.418193132e-02   -2.202569544e-01
     5424000000    1.393702030e-01   -1.822015047e-01
     5427000000    1.901094317e-01   -1.199307144e-01
     5430000000    2.286465764e-01   -3.912992775e-02
     5433000000    2.219131142e-01    4.148900509e-02
     5436000000    1.911652386e-01    1.204418018e-01
     5439000000    1.323974431e-01    1.817243397e-01
     5442000000    5.852677673e-02    2.160279751e-01
     5445000000   -2.352267876e-02    2.207549065e-01
     5448000000   -1.043714508e-01    1.978094876e-01
     5451000000   -1.647699475e-01    1.474712044e-01
     5454000000   -2.055619657e-01    7.584269345e-02
     5457000000   -2.183243781e-01   -7.536258548e-03
     5460000000   -1.996766776e-01   -8.381744474e-02
     5463000000   -1.534483284e-01   -1.539408863e-01
     5466000000   -8.814324439e-02   -1.973390132e-01
     5469000000   -9.332585149e-03   -2.139959484e-01
     5472000000    7.298076898e-02   -2.034349740e-01
     5475000000    1.362997591e-01   -1.612888575e-01
     5478000000    1.954584271e-01   -9.529165179e-02
     5481000000    2.084693015e-01   -2.653358504e-02
     5484000000    2.050004750e-01    5.968246982e-02
     5487000000    1.678810865e-01    1.271255761e-01
     5490000000    1.070676744e-01    1.801576465e-01
     5493000000    2.975411154e-02    2.115395665e-01
     5496000000   -4.313840717e-02    2.051214278e-01
     5499000000   -1.231529638e-01    1.735537201e-01
     5502000000   -1.691693217e-01    1.221016645e-01
     5505000000   -2.069527209e-01    4.442024231e-02
     5508000000   -2.091422081e-01   -3.302779794e-02
     5511000000   -1.798769683e-01   -1.089584604e-01
     5514000000   -1.312337071e-01   -1.625388563e-01
     5517000000   -5.513935536e-02   -2.039169371e-01
     5520000000    2.128100581e-02   -2.081768215e-01
     5523000000    9.974732995e-02   -1.848966181e-01
     5526000000    1.581794024e-01   -1.368058920e-01
     5529000000    2.010583282e-01   -6.265121698e-02
     5532000000    2.085286528e-01    1.326855458e-02
     5535000000    1.900403053e-01    8.812682331e-02
     5538000000    1.445035934e-01    1.561050862e-01
     5541000000    7.748273760e-02    1.988813877e-01
     5544000000   -3.055063309e-03    2.146461755e-01
     5547000000   -8.844379336e-02    1.976921111e-01
     5550000000   -1.577810943e-01    1.519089937e-01
     5553000000   -1.994938403e-01    8.992104232e-02
     5556000000   -2.193596363e-01    1.250083372e-02
     5559000000   -2.094708681e-01   -7.458545268e-02
     5562000000   -1.689655781e-01   -1.481996775e-01
     5565000000   -1.048652157e-01   -2.008499652e-01
     5568000000   -2.146530896e-02   -2.265567780e-01
     5571000000    6.068805605e-02   -2.206027061e-01
     5574000000    1.410295218e-01   -1.839940548e-01
     5577000000    2.018616349e-01   -1.171497926e-01
     5580000000    2.318361551e-01   -3.677440435e-02
     5583000000    2.333365083e-01    4.916074127e-02
     5586000000    2.000673860e-01    1.323961020e-01
     5589000000    1.363450289e-01    1.999293119e-01
     5592000000    5.696743727e-02    2.384979874e-01
     5595000000   -3.219213337e-02    2.441334426e-01
     5598000000   -1.168604568e-01    2.173240781e-01
     5601000000   -1.913417727e-01    1.585044712e-01
     5604000000   -2.389538288e-01    7.749603689e-02
     5607000000   -2.543385327e-01   -8.695233613e-03
     5610000000   -2.317963094e-01   -1.043714657e-01
     5613000000   -1.773563325e-01   -1.851164401e-01
     5616000000   -1.021894515e-01   -2.362863123e-01
     5619000000   -6.314687897e-03   -2.571910322e-01
     5622000000    8.730629086e-02   -2.444396317e-01
     5625000000    1.711774170e-01   -1.975488663e-01
     5628000000    2.332459390e-01   -1.153324246e-01
     5631000000    2.628459334e-01   -3.286800906e-02
     5634000000    2.573714852e-01    6.911361217e-02
     5637000000    2.158222049e-01    1.612516791e-01
     5640000000    1.411766559e-01    2.291286886e-01
     5643000000    5.511263013e-02    2.682239413e-01
     5646000000   -4.760168120e-02    2.723764777e-01
     5649000000   -1.439371109e-01    2.368956208e-01
     5652000000   -2.200959623e-01    1.749098301e-01
     5655000000   -2.677771449e-01    7.308728248e-02
     5658000000   -2.813699841e-01   -2.378917299e-02
     5661000000   -2.532051802e-01   -1.232769862e-01
     5664000000   -1.977716088e-01   -2.077661604e-01
     5667000000   -1.096860692e-01   -2.644166350e-01
     5670000000   -7.267522626e-03   -2.905865312e-01
     5673000000    9.851039201e-02   -2.768970728e-01
     5676000000    1.922466606e-01   -2.176839262e-01
     5679000000    2.583748996e-01   -1.356195062e-01
     5682000000    2.946055233e-01   -3.454120085e-02
     5685000000    2.871250510e-01    7.368044555e-02
     5688000000    2.444068044e-01    1.716223806e-01
     5691000000    1.650923938e-01    2.491662651e-01
     5694000000    6.158933043e-02    2.906416655e-01
     5697000000   -4.411543533e-02    2.975262702e-01
     5700000000   -1.499091685e-01    2.666704059e-01
     5703000000   -2.358799875e-01    1.921111643e-01
     5706000000   -2.886239588e-01    9.256541729e-02
     5709000000   -3.073891699e-01   -1.482689008e-02
     5712000000   -2.798386514e-01   -1.246185154e-01
     5715000000   -2.227647305e-01   -2.205021083e-01
     5718000000   -1.206209958e-01   -2.793608308e-01
     5721000000   -1.680094004e-02   -3.151452541e-01
     5724000000    9.664157778e-02   -2.990461886e-01
     5727000000    1.961088926e-01   -2.465461195e-01
     5730000000    2.721351385e-01   -1.592967808e-01
     5733000000    3.138538003e-01   -5.126376823e-02
     5736000000    3.083840013e-01    6.496179104e-02
     5739000000    2.714806795e-01    1.720621884e-01
     5742000000    1.909971982e-01    2.573762238e-01
     5745000000    8.634256572e-02    3.077453077e-01
     5748000000   -2.650942467e-02    3.187680840e-01
     5751000000   -1.362495869e-01    2.824296653e-01
     5754000000   -2.403028160e-01    2.255850285e-01
     5757000000   -2.906205654e-01    1.183262169e-01
     5760000000   -3.181382120e-01    5.321207456e-03
     5763000000   -2.998296916e-01   -1.054729521e-01
     5766000000   -2.473109812e-01   -2.116271406e-01
     5769000000   -1.501185298e-01   -2.792699337e-01
     5772000000   -4.146968573e-02   -3.153272271e-01
     5775000000    7.794065773e-02   -3.133767247e-01
     5778000000    1.737445593e-01   -2.612619102e-01
     5781000000    2.650401294e-01   -1.866149306e-01
     5784000000    3.098285794e-01   -7.778911293e-02
     5787000000    3.247214556e-01    4.058771208e-02
     5790000000    2.807877958e-01    1.435778886e-01
     5793000000    2.096667737e-01    2.325626910e-01
     5796000000    1.131184101e-01    2.960537970e-01
     5799000000   -1.729835174e-03    3.200895190e-01
     5802000000   -1.115567759e-01    2.964495718e-01
     5805000000   -2.086757123e-01    2.361074090e-01
     5808000000   -2.799368501e-01    1.468953639e-01
     5811000000   -3.146689534e-01    3.733979911e-02
     5814000000   -3.040257096e-01   -7.297058403e-02
     5817000000   -2.572995424e-01   -1.805907786e-01
     5820000000   -1.730802059e-01   -2.534074187e-01
     5823000000   -6.973782182e-02   -3.024265170e-01
     5826000000    3.787473962e-02   -2.987029254e-01
     5829000000    1.493283510e-01   -2.694238126e-01
     5832000000    2.406388670e-01   -1.960798204e-01
     5835000000    2.839251161e-01   -9.850670397e-02
     5838000000    3.033899069e-01    1.147242635e-02
     5841000000    2.727853656e-01    1.093591526e-01
     5844000000    2.160238326e-01    2.017880082e-01
     5847000000    1.309323460e-01    2.632333040e-01
     5850000000    3.311839327e-02    2.842256725e-01
     5853000000   -7.723646611e-02    2.791442275e-01
     5856000000   -1.721813232e-01    2.325531691e-01
     5859000000   -2.402772307e-01    1.537471563e-01
     5862000000   -2.786627114e-01    5.757906660e-02
     5865000000   -2.724504769e-01   -3.978142887e-02
     5868000000   -2.385176271e-01   -1.410500556e-01
     5871000000   -1.705978066e-01   -2.153633684e-01
     5874000000   -8.781911433e-02   -2.542059124e-01
     5877000000    9.846706875e-03   -2.663291991e-01
     5880000000    1.124285385e-01   -2.483280301e-01
     5883000000    2.009407878e-01   -1.875815392e-01
     5886000000    2.265888751e-01   -1.144649312e-01
     5889000000    2.590717375e-01   -1.222242601e-02
     5892000000    2.448177636e-01    7.958833873e-02
     5895000000    1.979930252e-01    1.365315318e-01
     5898000000    1.181741655e-01    2.255710959e-01
     5901000000    5.375593528e-02    2.267682850e-01
     5904000000   -5.557064340e-02    2.349872142e-01
     5907000000   -1.277232170e-01    1.974214017e-01
     5910000000   -1.682291180e-01    1.463517100e-01
     5913000000   -2.235514671e-01    5.555855483e-02
     5916000000   -2.182201594e-01   -4.923381377e-03
     5919000000   -1.979744136e-01   -1.097975150e-01
     5922000000   -1.504705697e-01   -1.454959661e-01
     5925000000   -8.394596726e-02   -1.916524768e-01
     5928000000   -4.208986647e-03   -2.046183348e-01
     5931000000    6.243730709e-02   -1.874388605e-01
     5934000000    1.179568321e-01   -1.472950429e-01
     5937000000    1.600437313e-01   -9.286168963e-02
     5940000000    1.819492280e-01   -1.884685270e-02
     5943000000    1.661021113e-01    3.010511398e-02
     5946000000    1.332517862e-01    1.082104146e-01
     5949000000    9.387556463e-02    1.271111816e-01
     5952000000    3.385851905e-02    1.494294554e-01
     5955000000   -2.994939685e-02    1.474893540e-01
     5958000000   -6.623353809e-02    1.221008375e-01
     5961000000   -1.131739318e-01    7.931541651e-02
     5964000000   -1.253395230e-01    2.879338339e-02
     5967000000   -1.219761446e-01   -2.103636414e-02
     5970000000   -1.036220044e-01   -4.599629343e-02
     5973000000   -5.771169066e-02   -9.924674779e-02
     5976000000   -2.295205183e-02   -1.029721349e-01
     5979000000    1.927314885e-02   -9.703248739e-02
     5982000000    4.140706733e-02   -7.776194811e-02
     5985000000    8.144081384e-02   -4.274971783e-02
     5988000000    8.126810193e-02   -9.774275124e-03
     5991000000    7.683434337e-02    3.073390946e-02
     5994000000    5.363867059e-02    5.794403702e-02
     5997000000    2.072951756e-02    7.437554747e-02
     6000000000   -1.678019017e-02    7.652879506e-02
