! NanoVNA-App
! Date: 2026-05-22 16:36:47
! Start: 4.8GHz Stop: 6GHz Points: 401
! S-Parameter data: F S11
# Hz S RI R 50
!     Frequency           S11_Real           S11_Imag
     4800000000   -3.036817722e-02   -5.798034668e-01
     4803000000    1.746588051e-01   -5.546290278e-01
     4806000000    3.439889848e-01   -4.622665346e-01
     4809000000    4.850442708e-01   -3.138098121e-01
     4812000000    5.548813343e-01   -1.359800249e-01
     4815000000    5.663607717e-01    6.548194587e-02
     4818000000    5.089080930e-01    2.545543015e-01
     4821000000    3.920381665e-01    4.086972773e-01
     4824000000    2.345956713e-01    5.092659593e-01
     4827000000    3.522176296e-02    5.608804226e-01
     4830000000   -1.506318152e-01    5.363589525e-01
     4833000000   -3.182067871e-01    4.517100751e-01
     4836000000   -4.544489682e-01    3.135479987e-01
     4839000000   -5.292663574e-01    1.414790154e-01
     4842000000   -5.444395542e-01   -4.636571929e-02
     4845000000   -4.918024242e-01   -2.207237929e-01
     4848000000   -3.836164474e-01   -3.777841628e-01
     4851000000   -2.314863503e-01   -4.828779399e-01
     4854000000   -5.835162103e-02   -5.247253776e-01
     4857000000    1.376749277e-01   -5.148826241e-01
     4860000000    2.850627601e-01   -4.394714236e-01
     4863000000    4.212780893e-01   -3.095485866e-01
     4866000000    4.953564405e-01   -1.517563164e-01
     4869000000    5.173039436e-01    3.884409741e-02
     4872000000    4.726860225e-01    2.005870640e-01
     4875000000    3.738867044e-01    3.461624384e-01
     4878000000    2.261396497e-01    4.536886811e-01
     4881000000    6.593348086e-02    4.994117618e-01
     4884000000   -9.887358546e-02    4.870473146e-01
     4887000000   -2.678400278e-01    4.170198739e-01
     4890000000   -3.925969899e-01    2.989971340e-01
     4893000000   -4.648603797e-01    1.479106247e-01
     4896000000   -4.825188220e-01   -1.688524336e-02
     4899000000   -4.453940690e-01   -1.775261909e-01
     4902000000   -3.525412679e-01   -3.243985772e-01
     4905000000   -2.241628468e-01   -4.152081907e-01
     4908000000   -7.036752254e-02   -4.644281268e-01
     4911000000    9.196167439e-02   -4.566962421e-01
     4914000000    2.394171059e-01   -3.935893476e-01
     4917000000    3.554898202e-01   -2.867366672e-01
     4920000000    4.226257503e-01   -1.540306211e-01
     4923000000    4.490622580e-01    1.387837902e-02
     4926000000    4.131835103e-01    1.594357491e-01
     4929000000    3.358169794e-01    2.871240973e-01
     4932000000    2.071363181e-01    3.897251487e-01
     4935000000    7.805910707e-02    4.276731014e-01
     4938000000   -7.984840870e-02    4.260874391e-01
     4941000000   -2.280635089e-01    3.668830693e-01
     4944000000   -3.262516558e-01    2.721644044e-01
     4947000000   -3.963871002e-01    1.474884301e-01
     4950000000   -4.195668399e-01   -3.171919379e-04
     4953000000   -3.872885108e-01   -1.503336579e-01
     4956000000   -3.201243877e-01   -2.569238245e-01
     4959000000   -1.999204904e-01   -3.568234742e-01
     4962000000   -6.816202402e-02   -3.978410661e-01
     4965000000    6.904529035e-02   -3.926014602e-01
     4968000000    1.998573244e-01   -3.418921530e-01
     4971000000    3.011046648e-01   -2.536247373e-01
     4974000000    3.654375076e-01   -1.297258288e-01
     4977000000    3.850570619e-01   -5.757911131e-03
     4980000000    3.576190472e-01    1.298270822e-01
     4983000000    2.874958515e-01    2.434923798e-01
     4986000000    1.899967045e-01    3.199621439e-01
     4989000000    6.435792148e-02    3.628383875e-01
     4992000000   -7.096749544e-02    3.557686806e-01
     4995000000   -1.792104393e-01    3.110932410e-01
     4998000000   -2.704268396e-01    2.321126312e-01
     5001000000   -3.318739831e-01    1.197642684e-01
     5004000000   -3.445486128e-01   -1.278521400e-02
     5007000000   -3.276606202e-01   -1.145528927e-01
     5010000000   -2.513320148e-01   -2.250513285e-01
     5013000000   -1.626475304e-01   -2.932412624e-01
     5016000000   -5.334413797e-02   -3.258932829e-01
     5019000000    6.388806552e-02   -3.171348870e-01
     5022000000    1.616313607e-01   -2.785000801e-01
     5025000000    2.462094426e-01   -1.926365495e-01
     5028000000    2.957892716e-01   -1.039220169e-01
     5031000000    3.022677600e-01    1.362933777e-02
     5034000000    2.807600200e-01    1.116590127e-01
     5037000000    2.211272717e-01    1.970226765e-01
     5040000000    1.319932193e-01    2.567995191e-01
     5043000000    4.164166003e-02    2.848446369e-01
     5046000000   -5.798742548e-02    2.784226835e-01
     5049000000   -1.474163830e-01    2.369532585e-01
     5052000000   -2.166329324e-01    1.629679352e-01
     5055000000   -2.554592192e-01    8.180067688e-02
     5058000000   -2.605827153e-01   -1.413311530e-02
     5061000000   -2.382305115e-01   -9.811391681e-02
     5064000000   -1.828595102e-01   -1.705232412e-01
     5067000000   -1.067276672e-01   -2.194422781e-01
     5070000000   -2.284554206e-02   -2.378314137e-01
     5073000000    6.011848152e-02   -2.263408750e-01
     5076000000    1.314122826e-01   -1.862400919e-01
     5079000000    1.855036169e-01   -1.273061484e-01
     5082000000    2.124164551e-01   -5.341286585e-02
     5085000000    2.126595229e-01    2.144473419e-02
     5088000000    1.936024576e-01    9.130705148e-02
     5091000000    1.411139071e-01    1.460262984e-01
     5094000000    7.808493078e-02    1.806840748e-01
     5097000000    1.171101537e-02    1.916303337e-01
     5100000000   -5.429047719e-02    1.779199392e-01
     5103000000   -1.069281399e-01    1.386285126e-01
     5106000000   -1.448817849e-01    9.128981829e-02
     5109000000   -1.692000180e-01    3.446129337e-02
     5112000000   -1.568404585e-01   -2.260971814e-02
     5115000000   -1.432362199e-01   -7.874181867e-02
     5118000000   -9.460809082e-02   -1.083219498e-01
     5121000000   -5.087550730e-02   -1.357547492e-01
     5124000000   -2.094480209e-03   -1.353349239e-01
     5127000000    4.353187606e-02   -1.197077706e-01
     5130000000    7.857669890e-02   -9.349685907e-02
     5133000000    9.934679419e-02   -5.776641518e-02
     5136000000    1.105822474e-01   -1.792535186e-02
     5139000000    9.891519696e-02    1.992030255e-02
     5142000000    8.044575155e-02    4.877958447e-02
     5145000000    5.459611863e-02    7.360509783e-02
     5148000000    2.399853617e-02    7.683766633e-02
     5151000000   -5.932401866e-03    7.486061752e-02
     5154000000   -2.757569589e-02    5.878493562e-02
     5157000000   -4.669423774e-02    3.967248276e-02
     5160000000   -4.993817583e-02    1.618524827e-02
     5163000000   -4.491528496e-02   -3.581828438e-03
     5166000000   -3.357760608e-02   -2.076483518e-02
     5169000000   -1.826034859e-02   -2.698354051e-02
     5172000000   -1.511250506e-03   -2.974353358e-02
     5175000000    1.296421327e-02   -2.189989761e-02
     5178000000    2.371680550e-02   -1.258550771e-02
     5181000000    2.318062447e-02    4.109233152e-03
     5184000000    1.110389363e-02    1.491571497e-02
     5187000000   -1.991828438e-03    2.039774880e-02
     5190000000   -1.043879148e-02    2.930115350e-02
     5193000000   -2.729616500e-02    1.613031141e-02
     5196000000   -3.604459763e-02    2.842502203e-03
     5199000000   -4.034553096e-02   -1.729734801e-02
     5202000000   -3.430858999e-02   -3.673359007e-02
     5205000000   -2.463331260e-02   -5.355198681e-02
     5208000000   -3.048932180e-03   -6.450590491e-02
     5211000000    2.357569709e-02   -6.621160358e-02
     5214000000    5.074929073e-02   -5.617275462e-02
     5217000000    7.434249669e-02   -3.789690882e-02
     5220000000    8.980935067e-02   -1.622844115e-02
     5223000000    9.420340508e-02    2.078261785e-02
     5226000000    8.522038907e-02    5.910461023e-02
     5229000000    6.056826562e-02    8.830711991e-02
     5232000000    2.823316865e-02    1.104084104e-01
     5235000000   -1.619429141e-02    1.179683208e-01
     5238000000   -6.009161100e-02    1.081373021e-01
     5241000000   -9.921634197e-02    8.650010824e-02
     5244000000   -1.289961934e-01    4.358049855e-02
     5247000000   -1.433859766e-01   -5.000630859e-03
     5250000000   -1.413219273e-01   -5.361000448e-02
     5253000000   -1.125329360e-01   -1.052126363e-01
     5256000000   -7.180297375e-02   -1.405658871e-01
     5259000000   -1.510488801e-02   -1.604957581e-01
     5262000000    3.487157077e-02   -1.686012447e-01
     5265000000    9.817852825e-02   -1.430941224e-01
     5268000000    1.454007328e-01   -9.994819015e-02
     5271000000    1.784308255e-01   -5.712010711e-02
     5274000000    1.851555109e-01    2.033277042e-02
     5277000000    1.773978621e-01    8.104812354e-02
     5280000000    1.340680271e-01    1.413746774e-01
     5283000000    7.696396112e-02    1.840948015e-01
     5286000000    8.152946830e-03    2.035318911e-01
     5289000000   -6.601168215e-02    1.951387525e-01
     5292000000   -1.332258731e-01    1.641756296e-01
     5295000000   -1.850779206e-01    1.075904518e-01
     5298000000   -2.142503262e-01    3.718379140e-02
     5301000000   -2.161777914e-01   -4.209063202e-02
     5304000000   -1.901055872e-01   -1.167034879e-01
     5307000000   -1.385807097e-01   -1.785739660e-01
     5310000000   -6.909879297e-02   -2.186927348e-01
     5313000000    1.275314111e-02   -2.346609831e-01
     5316000000    9.675914049e-02   -2.165403962e-01
     5319000000    1.677783430e-01   -1.676522046e-01
     5322000000    2.209295630e-01   -1.049234718e-01
     5325000000    2.445483357e-01   -1.932522655e-02
     5328000000    2.361768335e-01    6.726786494e-02
     5331000000    1.994168162e-01    1.483664811e-01
     5334000000    1.347076446e-01    2.078894824e-01
     5337000000    5.234898254e-02    2.405103296e-01
     5340000000   -3.428566083e-02    2.456369698e-01
     5343000000   -1.204784065e-01    2.194653451e-01
     5346000000   -1.913960725e-01    1.593500376e-01
     5349000000   -2.362476289e-01    8.226309717e-02
     5352000000   -2.585977018e-01   -4.187812097e-03
     5355000000   -2.425535768e-01   -9.529288113e-02
     5358000000   -1.727998406e-01   -1.710068285e-01
     5361000000   -1.132938042e-01   -2.347574532e-01
     5364000000   -1.912466623e-02   -2.524831295e-01
     5367000000    7.107031345e-02   -2.474686354e-01
     5370000000    1.549725384e-01   -2.027333826e-01
     5373000000    2.173802853e-01   -1.338189989e-01
     5376000000    2.547551095e-01   -4.912253097e-02
     5379000000    2.482591122e-01    4.761805013e-02
     5382000000    2.228631973e-01    1.337721497e-01
     5385000000    1.550635099e-01    2.016603798e-01
     5388000000    6.580828130e-02    2.377786636e-01
     5391000000   -2.064281143e-02    2.646419108e-01
     5394000000   -1.118227243e-01    2.306665480e-01
     5397000000   -1.900923401e-01    1.768593937e-01
     5400000000   -2.444724888e-01    9.746395797e-02
     5403000000   -2.578965127e-01    4.555084743e-03
     5406000000   -2.418983579e-01   -8.826371282e-02
     5409000000   -1.945621371e-01   -1.705605537e-01
     5412000000   -1.196431518e-01   -2.308398187e-01
     5415000000   -2.799122222e-02   -2.553605437e-01
     5418000000    6.739981472e-02   -2.496277094e-01
     5421000000    1.522481889e-01   -2.064657062e-01
     5424000000    2.200830132e-01   -1.395797282e-01
     5427000000    2.433236688e-01   -4.871961847e-02
     5430000000    2.518326938e-01    4.477611557e-02
     5433000000    2.223865092e-01    1.365261823e-01
     5436000000    1.568494737e-01    2.067922801e-01
     5439000000    6.953317672e-02    2.415942103e-01
     5442000000   -2.500434592e-02    2.576252222e-01
     5445000000   -1.143076345e-01    2.277573794e-01
     5448000000   -1.962698698e-01    1.756271720e-01
     5451000000   -2.344944924e-01    8.972913772e-02
     5454000000   -2.517019212e-01   -3.024990903e-03
     5457000000   -2.369437069e-01   -9.882904589e-02
     5460000000   -1.833637804e-01   -1.751503944e-01
     5463000000   -1.082850918e-01   -2.371811271e-01
     5466000000   -1.594700478e-02   -2.526848316e-01
     5469000000    8.243127167e-02   -2.482536137e-01
     5472000000    1.642807871e-01   -1.982741803e-01
     5475000000    2.225805968e-01   -1.246356815e-01
     5478000000    2.616831362e-01   -3.298167512e-02
     5481000000    2.471500635e-01    5.751043186e-02
     5484000000    2.126757354e-01    1.557559222e-01
     5487000000    1.412129104e-01    2.175974399e-01
     5490000000    5.149358511e-02    2.511766851e-01
     5493000000   -4.539853334e-02    2.569058537e-01
     5496000000   -1.320382357e-01    2.219101936e-01
     5499000000   -2.075955570e-01    1.568309069e-01
     5502000000   -2.475055009e-01    7.136064023e-02
     5505000000   -2.612651587e-01   -2.783646993e-02
     5508000000   -2.291388959e-01   -1.169589907e-01
     5511000000   -1.708938032e-01   -2.000629455e-01
     5514000000   -8.796935529e-02   -2.441806942e-01
     5517000000    1.270945929e-02   -2.659978569e-01
     5520000000    1.122361720e-01   -2.433142215e-01
     5523000000    1.891127378e-01   -1.876202673e-01
     5526000000    2.449290156e-01   -1.064383686e-01
     5529000000    2.699500620e-01   -5.236940458e-03
     5532000000    2.551544905e-01    9.598173201e-02
     5535000000    2.015609890e-01    1.767569631e-01
     5538000000    1.237950623e-01    2.405372709e-01
     5541000000    2.321377210e-02    2.734140158e-01
     5544000000   -7.993103564e-02    2.659043670e-01
     5547000000   -1.694400162e-01    2.182361931e-01
     5550000000   -2.448790967e-01    1.409585029e-01
     5553000000   -2.809995115e-01    4.413343221e-02
     5556000000   -2.757066190e-01   -5.625041202e-02
     5559000000   -2.404878438e-01   -1.594640166e-01
     5562000000   -1.681694835e-01   -2.365316302e-01
     5565000000   -6.977943331e-02   -2.827152312e-01
     5568000000    3.722555563e-02   -2.919450104e-01
     5571000000    1.404430419e-01   -2.599781752e-01
     5574000000    2.272631079e-01   -1.912039071e-01
     5577000000    2.841937542e-01   -9.469169378e-02
     5580000000    3.001218140e-01    1.139986422e-02
     5583000000    2.756167054e-01    1.239683032e-01
     5586000000    2.157277018e-01    2.126157731e-01
     5589000000    1.237025410e-01    2.804045081e-01
     5592000000    1.456430368e-02    3.083316684e-01
     5595000000   -9.354383498e-02    2.937487066e-01
     5598000000   -1.968550235e-01    2.400291860e-01
     5601000000   -2.745161951e-01    1.498753130e-01
     5604000000   -3.125192821e-01    4.354416952e-02
     5607000000   -3.092174232e-01   -6.874163449e-02
     5610000000   -2.600779831e-01   -1.811565310e-01
     5613000000   -1.823570579e-01   -2.601209283e-01
     5616000000   -7.105557621e-02   -3.099510372e-01
     5619000000    4.485593736e-02   -3.166609108e-01
     5622000000    1.544276327e-01   -2.829268873e-01
     5625000000    2.467072308e-01   -2.080281228e-01
     5628000000    3.074356019e-01   -1.014430895e-01
     5631000000    3.263152540e-01    1.090666186e-02
     5634000000    3.016495705e-01    1.305855364e-01
     5637000000    2.301677018e-01    2.349819243e-01
     5640000000    1.324627250e-01    3.031695783e-01
     5643000000    1.639587618e-02    3.319439888e-01
     5646000000   -1.033462957e-01    3.184055984e-01
     5649000000   -2.128302604e-01    2.558589578e-01
     5652000000   -2.903382182e-01    1.705877930e-01
     5655000000   -3.329176903e-01    5.061669648e-02
     5658000000   -3.293406963e-01   -7.312922180e-02
     5661000000   -2.779343724e-01   -1.881030798e-01
     5664000000   -1.982752383e-01   -2.778652310e-01
     5667000000   -8.692915738e-02   -3.302510083e-01
     5670000000    3.886101022e-02   -3.402986228e-01
     5673000000    1.608144194e-01   -2.988701761e-01
     5676000000    2.588193119e-01   -2.249482572e-01
     5679000000    3.234852850e-01   -1.186268255e-01
     5682000000    3.468395472e-01    7.184780203e-03
     5685000000    3.169737458e-01    1.306471229e-01
     5688000000    2.587782145e-01    2.368461192e-01
     5691000000    1.512198895e-01    3.132478297e-01
     5694000000    2.611505985e-02    3.452395797e-01
     5697000000   -9.664418548e-02    3.340909779e-01
     5700000000   -2.112763822e-01    2.759411633e-01
     5703000000   -2.991496027e-01    1.833664775e-01
     5706000000   -3.436412215e-01    6.200320646e-02
     5709000000   -3.479234576e-01   -6.331279874e-02
     5712000000   -3.032592237e-01   -1.873579919e-01
     5715000000   -2.157515883e-01   -2.813655138e-01
     5718000000   -1.004769504e-01   -3.434078395e-01
     5721000000    2.866347320e-02   -3.542562425e-01
     5724000000    1.499158591e-01   -3.186965883e-01
     5727000000    2.609606683e-01   -2.522516251e-01
     5730000000    3.341522515e-01   -1.420354396e-01
     5733000000    3.543980420e-01   -1.141243149e-02
     5736000000    3.340947628e-01    1.175819412e-01
     5739000000    2.767724097e-01    2.294406444e-01
     5742000000    1.736536622e-01    3.103344440e-01
     5745000000    5.066170543e-02    3.517694175e-01
     5748000000   -7.543155551e-02    3.445049524e-01
     5751000000   -1.986024380e-01    2.958710492e-01
     5754000000   -2.987592518e-01    2.127788216e-01
     5757000000   -3.350948691e-01    8.575221151e-02
     5760000000   -3.607780933e-01   -4.349498078e-02
     5763000000   -3.140721619e-01   -1.619335860e-01
     5766000000   -2.365535647e-01   -2.630158663e-01
     5769000000   -1.239484996e-01   -3.307079077e-01
     5772000000   -3.800219274e-04   -3.445146382e-01
     5775000000    1.316969693e-01   -3.350243866e-01
     5778000000    2.336437553e-01   -2.628083825e-01
     5781000000    3.174519539e-01   -1.652488112e-01
     5784000000    3.357594311e-01   -4.304024205e-02
     5787000000    3.485648334e-01    9.136602283e-02
     5790000000    2.845742106e-01    1.997333765e-01
     5793000000    1.954337806e-01    2.900691628e-01
     5796000000    7.758928835e-02    3.343296647e-01
     5799000000   -4.867350683e-02    3.417052329e-01
     5802000000   -1.649349481e-01    2.985778451e-01
     5805000000   -2.525234222e-01    2.165252268e-01
     5808000000   -3.277223110e-01    1.121909246e-01
     5811000000   -3.379395306e-01   -1.004968397e-02
     5814000000   -3.137929440e-01   -1.307901591e-01
     5817000000   -2.459304184e-01   -2.339072376e-01
     5820000000   -1.446815133e-01   -2.956476808e-01
     5823000000   -2.846972458e-02   -3.274363279e-01
     5826000000    8.960454911e-02   -3.122050166e-01
     5829000000    1.969890445e-01   -2.607832849e-01
     5832000000    2.738658786e-01   -1.712947637e-01
     5835000000    3.123052120e-01   -6.159414351e-02
     5838000000    3.126365244e-01    5.458066240e-02
     5841000000    2.708356678e-01    1.639009118e-01
     5844000000    1.943451315e-01    2.440817505e-01
     5847000000    9.323097765e-02    2.960878611e-01
     5850000000   -1.961500384e-02    3.077664673e-01
     5853000000   -1.264820695e-01    2.767408490e-01
     5856000000   -2.148586959e-01    2.120317072e-01
     5859000000   -2.743885219e-01    1.210219190e-01
     5862000000   -2.989087701e-01    1.224060822e-02
     5865000000   -2.763257623e-01   -8.901634812e-02
     5868000000   -2.229793817e-01   -1.824274808e-01
     5871000000   -1.394484490e-01   -2.538030446e-01
     5874000000   -4.593444616e-02   -2.728030384e-01
     5877000000    6.292073429e-02   -2.735032439e-01
     5880000000    1.408390701e-01   -2.257724702e-01
     5883000000    2.223188728e-01   -1.559221894e-01
     5886000000    2.572734952e-01   -6.442008913e-02
     5889000000    2.581773996e-01    3.178855032e-02
     5892000000    2.290026546e-01    1.221832484e-01
     5895000000    1.670779437e-01    1.845809817e-01
     5898000000    7.894575596e-02    2.413550168e-01
     5901000000    7.131849881e-03    2.327049971e-01
     5904000000   -9.963276982e-02    2.206186801e-01
     5907000000   -1.543600112e-01    1.685962975e-01
     5910000000   -1.957000047e-01    1.009527296e-01
     5913000000   -2.202515304e-01    1.286013611e-02
     5916000000   -2.115374207e-01   -7.312441617e-02
     5919000000   -1.628494412e-01   -1.355317831e-01
     5922000000   -1.010560468e-01   -1.725883335e-01
     5925000000   -2.550305426e-02   -1.988135576e-01
     5928000000    4.832953215e-02   -1.869127303e-01
     5931000000    1.174540818e-01   -1.515130997e-01
     5934000000    1.456776559e-01   -9.756349027e-02
     5937000000    1.651809216e-01   -3.326725215e-02
     5940000000    1.688230187e-01    4.346666485e-02
     5943000000    1.327608824e-01    8.706289530e-02
     5946000000    8.417224139e-02    1.354290098e-01
     5949000000    2.282018587e-02    1.557621062e-01
     5952000000   -2.711817622e-02    1.418039799e-01
     5955000000   -9.455247223e-02    1.192906126e-01
     5958000000   -1.135809571e-01    7.344431430e-02
     5961000000   -1.336968690e-01    1.917258464e-02
     5964000000   -1.324925125e-01   -4.428435117e-02
     5967000000   -1.007139683e-01   -9.141678363e-02
     5970000000   -5.718088895e-02   -1.146666557e-01
     5973000000    6.289661978e-04   -1.321521103e-01
     5976000000    5.403471738e-02   -1.187755540e-01
     5979000000    9.313502163e-02   -8.464536071e-02
     5982000000    1.176868975e-01   -3.903964162e-02
     5985000000    1.269057989e-01    1.484356262e-02
     5988000000    1.172745749e-01    7.401803136e-02
     5991000000    7.885733247e-02    1.135129556e-01
     5994000000    2.702458948e-02    1.421864033e-01
     5997000000   -2.920764312e-02    1.402049959e-01
     6000000000   -9.099370986e-02    1.239582673e-01
