! NanoVNA-App
! Date: 2026-05-22 16:35:52
! Start: 2.3GHz Stop: 2.6GHz Points: 401
! S-Parameter data: F S11
# Hz S RI R 50
!     Frequency           S11_Real           S11_Imag
     2300000000    3.055246174e-01   -2.646819949e-01
     2300750000    3.257015646e-01   -2.340328842e-01
     2301500000    3.418855965e-01   -2.069621980e-01
     2302250000    3.562255800e-01   -1.744390577e-01
     2303000000    3.678261340e-01   -1.425100416e-01
     2303750000    3.763363063e-01   -1.105864942e-01
     2304500000    3.822639585e-01   -7.815463841e-02
     2305250000    3.853544891e-01   -4.626681656e-02
     2306000000    3.849240541e-01   -9.203542955e-03
     2306750000    3.831438720e-01    2.180278860e-02
     2307500000    3.774786890e-01    5.613462999e-02
     2308250000    3.700091541e-01    8.606027812e-02
     2309000000    3.599267304e-01    1.175052449e-01
     2309750000    3.460542560e-01    1.479888111e-01
     2310500000    3.311999142e-01    1.751142442e-01
     2311250000    3.133110702e-01    2.030438185e-01
     2312000000    2.943108082e-01    2.270520627e-01
     2312750000    2.726254463e-01    2.500641942e-01
     2313500000    2.488930970e-01    2.711266577e-01
     2314250000    2.249061763e-01    2.888437212e-01
     2315000000    1.968476623e-01    3.064057529e-01
     2315750000    1.698415279e-01    3.200592101e-01
     2316500000    1.429204345e-01    3.309841752e-01
     2317250000    1.133366227e-01    3.397783041e-01
     2318000000    8.340746164e-02    3.467447758e-01
     2318750000    5.371910706e-02    3.505221307e-01
     2319500000    2.318894118e-02    3.514636159e-01
     2320250000   -5.979160313e-03    3.508709073e-01
     2321000000   -3.522698581e-02    3.481234908e-01
     2321750000   -6.589797884e-02    3.409481943e-01
     2322500000   -9.384601563e-02    3.328577578e-01
     2323250000   -1.197659746e-01    3.223600388e-01
     2324000000   -1.469403803e-01    3.091657758e-01
     2324750000   -1.721218079e-01    2.925860286e-01
     2325500000   -1.951769739e-01    2.772096992e-01
     2326250000   -2.161641717e-01    2.608152926e-01
     2327000000   -2.377519459e-01    2.364432514e-01
     2327750000   -2.534904778e-01    2.184714228e-01
     2328500000   -2.701394260e-01    1.910737008e-01
     2329250000   -2.841016352e-01    1.708878875e-01
     2330000000   -2.955502570e-01    1.444993615e-01
     2330750000   -3.051425815e-01    1.179682314e-01
     2331500000   -3.120931685e-01    9.346462786e-02
     2332250000   -3.171272576e-01    6.576751173e-02
     2333000000   -3.194885850e-01    3.895834088e-02
     2333750000   -3.200626373e-01    1.376908459e-02
     2334500000   -3.184270263e-01   -1.370859332e-02
     2335250000   -3.136368990e-01   -4.010716826e-02
     2336000000   -3.061487675e-01   -6.704758108e-02
     2336750000   -2.990731597e-01   -8.976000547e-02
     2337500000   -2.881578803e-01   -1.147063226e-01
     2338250000   -2.759861648e-01   -1.371522993e-01
     2339000000   -2.610498369e-01   -1.591172069e-01
     2339750000   -2.450373024e-01   -1.787041128e-01
     2340500000   -2.277594656e-01   -1.975826174e-01
     2341250000   -2.085570991e-01   -2.145223022e-01
     2342000000   -1.906992495e-01   -2.293063104e-01
     2342750000   -1.667220592e-01   -2.428193986e-01
     2343500000   -1.464809477e-01   -2.547798753e-01
     2344250000   -1.227989793e-01   -2.646871209e-01
     2345000000   -9.834980965e-02   -2.718929350e-01
     2345750000   -7.575304806e-02   -2.781220973e-01
     2346500000   -4.983043671e-02   -2.816947997e-01
     2347250000   -2.845407277e-02   -2.849197984e-01
     2348000000   -3.395204199e-03   -2.842366397e-01
     2348750000    2.199218050e-02   -2.817334831e-01
     2349500000    4.549593106e-02   -2.770469189e-01
     2350250000    6.614717841e-02   -2.741450369e-01
     2351000000    8.932559192e-02   -2.640520036e-01
     2351750000    1.097754762e-01   -2.552808225e-01
     2352500000    1.302669644e-01   -2.427221537e-01
     2353250000    1.492677778e-01   -2.307445556e-01
     2354000000    1.669556648e-01   -2.159758508e-01
     2354750000    1.833800524e-01   -2.012041360e-01
     2355500000    1.991161555e-01   -1.862907410e-01
     2356250000    2.123475522e-01   -1.646233648e-01
     2357000000    2.235311717e-01   -1.469071060e-01
     2357750000    2.346909791e-01   -1.287348419e-01
     2358500000    2.440513819e-01   -1.091173142e-01
     2359250000    2.499145120e-01   -8.656141907e-02
     2360000000    2.549918890e-01   -6.518084556e-02
     2360750000    2.590040565e-01   -4.389848188e-02
     2361500000    2.601986527e-01   -2.318188176e-02
     2362250000    2.604253292e-01   -1.682151807e-03
     2363000000    2.589649260e-01    1.922949404e-02
     2363750000    2.550541461e-01    3.986262903e-02
     2364500000    2.500607669e-01    6.006504968e-02
     2365250000    2.435558736e-01    7.918990403e-02
     2366000000    2.359336019e-01    9.707749635e-02
     2366750000    2.265277356e-01    1.151792556e-01
     2367500000    2.158902586e-01    1.321873814e-01
     2368250000    2.034533769e-01    1.476727277e-01
     2369000000    1.908467710e-01    1.620354503e-01
     2369750000    1.756476313e-01    1.760579646e-01
     2370500000    1.609636843e-01    1.877926141e-01
     2371250000    1.445996612e-01    1.992909163e-01
     2372000000    1.274715215e-01    2.081916332e-01
     2372750000    1.098629311e-01    2.172439843e-01
     2373500000    9.148958325e-02    2.235667109e-01
     2374250000    7.369537652e-02    2.287224829e-01
     2375000000    5.377631634e-02    2.313183248e-01
     2375750000    3.646093979e-02    2.344360054e-01
     2376500000    1.702447236e-02    2.341529578e-01
     2377250000   -2.288242336e-03    2.332883477e-01
     2378000000   -2.032419853e-02    2.312050611e-01
     2378750000   -3.840003535e-02    2.274317294e-01
     2379500000   -5.642204732e-02    2.209285498e-01
     2380250000   -7.314647734e-02    2.146702111e-01
     2381000000   -9.016165137e-02    2.066254616e-01
     2381750000   -1.057809889e-01    1.970264614e-01
     2382500000   -1.201079041e-01    1.861773878e-01
     2383250000   -1.346721053e-01    1.734609753e-01
     2384000000   -1.479858458e-01    1.613893062e-01
     2384750000   -1.590956002e-01    1.479795873e-01
     2385500000   -1.703761816e-01    1.330781728e-01
     2386250000   -1.792362928e-01    1.176700369e-01
     2387000000   -1.875932962e-01    1.020419598e-01
     2387750000   -1.944585741e-01    8.620491624e-02
     2388500000   -1.999593377e-01    6.911137700e-02
     2389250000   -2.040521204e-01    5.254568160e-02
     2390000000   -2.067922056e-01    3.582605720e-02
     2390750000   -2.082563788e-01    1.786907390e-02
     2391500000   -2.082991898e-01    1.269616419e-03
     2392250000   -2.070794255e-01   -1.483733580e-02
     2393000000   -2.044928521e-01   -3.168076649e-02
     2393750000   -2.010810226e-01   -4.830365628e-02
     2394500000   -1.954654604e-01   -6.354284286e-02
     2395250000   -1.893360913e-01   -7.894025743e-02
     2396000000   -1.819257736e-01   -9.352218360e-02
     2396750000   -1.733073145e-01   -1.075044647e-01
     2397500000   -1.638866216e-01   -1.203890294e-01
     2398250000   -1.533208340e-01   -1.324903816e-01
     2399000000   -1.421258152e-01   -1.439515352e-01
     2399750000   -1.297037154e-01   -1.541800350e-01
     2400500000   -1.168494150e-01   -1.636380404e-01
     2401250000   -1.032420322e-01   -1.720327884e-01
     2402000000   -8.872282505e-02   -1.786690354e-01
     2402750000   -7.553555816e-02   -1.845805347e-01
     2403500000   -6.100695580e-02   -1.900050491e-01
     2404250000   -4.601984471e-02   -1.932776272e-01
     2405000000   -3.106365539e-02   -1.956227571e-01
     2405750000   -1.616097987e-02   -1.967902184e-01
     2406500000   -9.145972435e-04   -1.964862794e-01
     2407250000    1.360372454e-02   -1.952988505e-01
     2408000000    2.839672938e-02   -1.930213720e-01
     2408750000    4.305813462e-02   -1.891054362e-01
     2409500000    5.663567409e-02   -1.841594577e-01
     2410250000    7.026397437e-02   -1.784692705e-01
     2411000000    8.316904306e-02   -1.710755974e-01
     2411750000    9.573546052e-02   -1.631797850e-01
     2412500000    1.076175719e-01   -1.540604383e-01
     2413250000    1.182984710e-01   -1.448784471e-01
     2414000000    1.286560297e-01   -1.341591030e-01
     2414750000    1.382430941e-01   -1.224529967e-01
     2415500000    1.465551555e-01   -1.102951095e-01
     2416250000    1.541218162e-01   -9.831041843e-02
     2417000000    1.606149226e-01   -8.476376534e-02
     2417750000    1.657978296e-01   -7.137830555e-02
     2418500000    1.705455929e-01   -5.767518654e-02
     2419250000    1.736100018e-01   -4.398665577e-02
     2420000000    1.754757017e-01   -2.919027023e-02
     2420750000    1.766165942e-01   -1.499801967e-02
     2421500000    1.767610013e-01   -6.500994787e-04
     2422250000    1.748170406e-01    1.353316382e-02
     2423000000    1.730517447e-01    2.758710831e-02
     2423750000    1.692459881e-01    4.152479023e-02
     2424500000    1.650789678e-01    5.498548597e-02
     2425250000    1.596782357e-01    6.809699535e-02
     2426000000    1.534575522e-01    8.050767332e-02
     2426750000    1.459636241e-01    9.296197444e-02
     2427500000    1.377898902e-01    1.039629728e-01
     2428250000    1.283204556e-01    1.149997562e-01
     2429000000    1.181218475e-01    1.243961304e-01
     2429750000    1.076425463e-01    1.342242509e-01
     2430500000    9.613461047e-02    1.415296048e-01
     2431250000    8.414328098e-02    1.495381594e-01
     2432000000    7.110197842e-02    1.550723016e-01
     2432750000    5.777277425e-02    1.605999619e-01
     2433500000    4.418519139e-02    1.656672806e-01
     2434250000    3.055808879e-02    1.684178859e-01
     2435000000    1.667943783e-02    1.704735309e-01
     2435750000    2.659369726e-03    1.709887683e-01
     2436500000   -1.248305384e-02    1.725829691e-01
     2437250000   -2.635693178e-02    1.704247743e-01
     2438000000   -5.017280579e-02    1.643252820e-01
     2438750000   -6.353250146e-02    1.608686447e-01
     2439500000   -7.681056857e-02    1.558035016e-01
     2440250000   -8.944122493e-02    1.499909014e-01
     2441000000   -1.018635929e-01    1.432365477e-01
     2441750000   -1.131286696e-01    1.353015602e-01
     2442500000   -1.240071878e-01    1.268301010e-01
     2443250000   -1.342180669e-01    1.170857623e-01
     2444000000   -1.435263455e-01    1.071080938e-01
     2444750000   -1.524391472e-01    9.586766362e-02
     2445500000   -1.594879478e-01    8.399525285e-02
     2446250000   -1.668383330e-01    7.232528180e-02
     2447000000   -1.725542545e-01    5.946094543e-02
     2447750000   -1.768311858e-01    4.566992447e-02
     2448500000   -1.803587228e-01    3.213196248e-02
     2449250000   -1.831893474e-01    1.804742403e-02
     2450000000   -1.842104346e-01    3.696952481e-03
     2450750000   -1.851686686e-01   -1.081006136e-02
     2451500000   -1.832062155e-01   -2.512325533e-02
     2452250000   -1.814514846e-01   -3.953899816e-02
     2453000000   -1.779204160e-01   -5.370794609e-02
     2453750000   -1.740378886e-01   -6.781130284e-02
     2454500000   -1.679385900e-01   -8.102294058e-02
     2455250000   -1.608854085e-01   -9.460015595e-02
     2456000000   -1.538893431e-01   -1.079585776e-01
     2456750000   -1.444842368e-01   -1.200912595e-01
     2457500000   -1.350509226e-01   -1.318242699e-01
     2458250000   -1.241386533e-01   -1.424209923e-01
     2459000000   -1.125370786e-01   -1.530306637e-01
     2459750000   -1.004349887e-01   -1.626530737e-01
     2460500000   -8.722110838e-02   -1.698464900e-01
     2461250000   -7.352692634e-02   -1.781278551e-01
     2462000000   -5.869903415e-02   -1.847591251e-01
     2462750000   -4.468564317e-02   -1.883455813e-01
     2463500000   -2.833342366e-02   -1.935266852e-01
     2464250000   -1.307234541e-02   -1.953914165e-01
     2465000000    3.175734077e-03   -1.982776821e-01
     2465750000    1.832292415e-02   -1.965558529e-01
     2466500000    3.511786088e-02   -1.966165453e-01
     2467250000    4.942751676e-02   -1.936653256e-01
     2468000000    6.615059823e-02   -1.908772886e-01
     2468750000    8.202237636e-02   -1.866251826e-01
     2469500000    9.692239016e-02   -1.803055257e-01
     2470250000    1.110833138e-01   -1.727947891e-01
     2471000000    1.268481016e-01   -1.655483693e-01
     2471750000    1.383344233e-01   -1.561186016e-01
     2472500000    1.505422443e-01   -1.456843168e-01
     2473250000    1.641626209e-01   -1.333624125e-01
     2474000000    1.741172969e-01   -1.215492785e-01
     2474750000    1.832205206e-01   -1.077046469e-01
     2475500000    1.931363791e-01   -9.442479163e-02
     2476250000    2.015009075e-01   -7.855421305e-02
     2477000000    2.067951858e-01   -6.389321387e-02
     2477750000    2.128522098e-01   -4.761590809e-02
     2478500000    2.165010422e-01   -3.150292486e-02
     2479250000    2.192913890e-01   -1.514608972e-02
     2480000000    2.205740660e-01    2.097947756e-03
     2480750000    2.204165459e-01    1.946513355e-02
     2481500000    2.187529504e-01    3.684792295e-02
     2482250000    2.163841128e-01    5.380664021e-02
     2483000000    2.119931728e-01    7.066276670e-02
     2483750000    2.071953416e-01    8.776970208e-02
     2484500000    1.996370256e-01    1.039085165e-01
     2485250000    1.918025315e-01    1.192044020e-01
     2486000000    1.819323301e-01    1.329912692e-01
     2486750000    1.714929938e-01    1.479129940e-01
     2487500000    1.595371068e-01    1.620530784e-01
     2488250000    1.474260390e-01    1.717060208e-01
     2489000000    1.336884499e-01    1.847319752e-01
     2489750000    1.189226732e-01    1.945571154e-01
     2490500000    1.032875776e-01    2.041133642e-01
     2491250000    8.730291575e-02    2.114677876e-01
     2492000000    6.908059120e-02    2.189749628e-01
     2492750000    5.228404328e-02    2.238608450e-01
     2493500000    3.618626669e-02    2.269855589e-01
     2494250000    1.556203235e-02    2.307997793e-01
     2495000000    4.444407241e-04    2.299580574e-01
     2495750000   -2.054162882e-02    2.302962691e-01
     2496500000   -3.949955106e-02    2.274733037e-01
     2497250000   -5.472408235e-02    2.229961008e-01
     2498000000   -7.542202622e-02    2.191440314e-01
     2498750000   -9.220410138e-02    2.122192085e-01
     2499500000   -1.095558405e-01    2.044591010e-01
     2500250000   -1.248414218e-01    1.951455772e-01
     2501000000   -1.392042637e-01    1.847785562e-01
     2501750000   -1.568720639e-01    1.726672351e-01
     2502500000   -1.668161899e-01    1.614006907e-01
     2503250000   -1.819893718e-01    1.456123739e-01
     2504000000   -1.925875396e-01    1.305247545e-01
     2504750000   -2.028779685e-01    1.149724871e-01
     2505500000   -2.111141384e-01    9.940756857e-02
     2506250000   -2.197727114e-01    8.108067513e-02
     2507000000   -2.247223854e-01    6.401732564e-02
     2507750000   -2.292887866e-01    4.623595998e-02
     2508500000   -2.354614884e-01    2.385961264e-02
     2509250000   -2.346471250e-01    8.490262553e-03
     2510000000   -2.352023572e-01   -1.093742810e-02
     2510750000   -2.338190377e-01   -3.136144951e-02
     2511500000   -2.305874527e-01   -5.063930154e-02
     2512250000   -2.253376395e-01   -6.712215394e-02
     2513000000   -2.191203982e-01   -8.467361331e-02
     2513750000   -2.115614265e-01   -1.038015932e-01
     2514500000   -2.022988051e-01   -1.194232851e-01
     2515250000   -1.913163513e-01   -1.358143091e-01
     2516000000   -1.796885580e-01   -1.502267718e-01
     2516750000   -1.658232510e-01   -1.658957899e-01
     2517500000   -1.519705802e-01   -1.776853353e-01
     2518250000   -1.369518191e-01   -1.898110807e-01
     2519000000   -1.200351939e-01   -2.000408173e-01
     2519750000   -1.029680222e-01   -2.087644488e-01
     2520500000   -8.517225832e-02   -2.179777920e-01
     2521250000   -6.784904003e-02   -2.232546210e-01
     2522000000   -4.626936093e-02   -2.284783721e-01
     2522750000   -2.893994749e-02   -2.309672087e-01
     2523500000   -8.638129570e-03   -2.327830791e-01
     2524250000    1.127629448e-02   -2.333161086e-01
     2525000000    3.009630926e-02   -2.306692153e-01
     2525750000    4.970373958e-02   -2.272116989e-01
     2526500000    7.082173973e-02   -2.231703550e-01
     2527250000    8.744379878e-02   -2.166579217e-01
     2528000000    1.059543192e-01   -2.090197057e-01
     2528750000    1.230526268e-01   -1.988695860e-01
     2529500000    1.401301026e-01   -1.888488680e-01
     2530250000    1.538662761e-01   -1.775330603e-01
     2531000000    1.722271591e-01   -1.618772447e-01
     2531750000    1.826782823e-01   -1.482118964e-01
     2532500000    1.949501336e-01   -1.331217140e-01
     2533250000    2.045309693e-01   -1.160028428e-01
     2534000000    2.147671580e-01   -9.840444475e-02
     2534750000    2.217557579e-01   -8.128312230e-02
     2535500000    2.283923179e-01   -6.248619780e-02
     2536250000    2.317911088e-01   -4.318365827e-02
     2537000000    2.355990708e-01   -2.286305651e-02
     2537750000    2.364896685e-01   -2.950721188e-03
     2538500000    2.364122719e-01    1.662623137e-02
     2539250000    2.343415618e-01    3.702536598e-02
     2540000000    2.300918996e-01    5.367048085e-02
     2540750000    2.252656668e-01    7.501523942e-02
     2541500000    2.186746001e-01    9.358359128e-02
     2542250000    2.097926140e-01    1.123782024e-01
     2543000000    1.999892294e-01    1.287667751e-01
     2543750000    1.893422753e-01    1.439657062e-01
     2544500000    1.756890565e-01    1.600629091e-01
     2545250000    1.620903760e-01    1.742561907e-01
     2546000000    1.478259712e-01    1.856540143e-01
     2546750000    1.348470449e-01    1.964045018e-01
     2547500000    1.149186790e-01    2.068988830e-01
     2548250000    9.677460790e-02    2.166168243e-01
     2549000000    8.054739237e-02    2.223709673e-01
     2549750000    5.971413106e-02    2.284432352e-01
     2550500000    4.010242596e-02    2.331355214e-01
     2551250000    2.311070636e-02    2.340502739e-01
     2552000000    3.298472846e-03    2.346325815e-01
     2552750000   -1.687942445e-02    2.331454158e-01
     2553500000   -3.523676842e-02    2.297226340e-01
     2554250000   -5.538193509e-02    2.245931178e-01
     2555000000   -7.138065249e-02    2.192248553e-01
     2555750000   -9.068314731e-02    2.110179514e-01
     2556500000   -1.089817956e-01    2.014938444e-01
     2557250000   -1.242269874e-01    1.912709922e-01
     2558000000   -1.400255412e-01    1.788836271e-01
     2558750000   -1.531450152e-01    1.667235494e-01
     2559500000   -1.646600217e-01    1.532185376e-01
     2560250000   -1.790934950e-01    1.352440268e-01
     2561000000   -1.883171052e-01    1.201439872e-01
     2561750000   -1.985067278e-01    1.012092680e-01
     2562500000   -2.061539292e-01    8.322738856e-02
     2563250000   -2.112803161e-01    6.722911447e-02
     2564000000   -2.144288570e-01    4.874692485e-02
     2564750000   -2.177920938e-01    2.821045741e-02
     2565500000   -2.192791104e-01    5.848408211e-03
     2566250000   -2.190227956e-01   -8.219930343e-03
     2567000000   -2.160414904e-01   -3.001286276e-02
     2567750000   -2.125798464e-01   -4.603771493e-02
     2568500000   -2.058982700e-01   -6.691204756e-02
     2569250000   -1.990794390e-01   -8.456210792e-02
     2570000000   -1.905348897e-01   -1.022094041e-01
     2570750000   -1.804517210e-01   -1.183047518e-01
     2571500000   -1.686663926e-01   -1.335877031e-01
     2572250000   -1.566755474e-01   -1.476661563e-01
     2573000000   -1.440806985e-01   -1.605723947e-01
     2573750000   -1.271918565e-01   -1.742739677e-01
     2574500000   -1.120287329e-01   -1.849966049e-01
     2575250000   -9.590481967e-02   -1.946187317e-01
     2576000000   -7.770701498e-02   -2.019539177e-01
     2576750000   -6.000370532e-02   -2.078681737e-01
     2577500000   -4.248113185e-02   -2.128928453e-01
     2578250000   -2.267037146e-02   -2.155370563e-01
     2579000000   -5.809393246e-03   -2.167188525e-01
     2579750000    1.336437836e-02   -2.177517712e-01
     2580500000    3.215273842e-02   -2.156574577e-01
     2581250000    5.074098706e-02   -2.121406347e-01
     2582000000    6.840077043e-02   -2.067578733e-01
     2582750000    8.734614402e-02   -2.002487481e-01
     2583500000    1.043087244e-01   -1.912231296e-01
     2584250000    1.190975234e-01   -1.831953824e-01
     2585000000    1.343625933e-01   -1.721775383e-01
     2585750000    1.485309899e-01   -1.595618129e-01
     2586500000    1.621820927e-01   -1.455071867e-01
     2587250000    1.727617830e-01   -1.319478899e-01
     2588000000    1.836951673e-01   -1.164814234e-01
     2588750000    1.920712739e-01   -1.001007706e-01
     2589500000    2.004908025e-01   -8.181463182e-02
     2590250000    2.053349018e-01   -6.564112008e-02
     2591000000    2.104874700e-01   -4.780425876e-02
     2591750000    2.125919163e-01   -2.966287732e-02
     2592500000    2.137296498e-01   -1.051730383e-02
     2593250000    2.126937807e-01    8.270200342e-03
     2594000000    2.120197117e-01    2.496754564e-02
     2594750000    2.067250460e-01    4.406003654e-02
     2595500000    2.022374272e-01    6.266383082e-02
     2596250000    1.950512528e-01    7.862343639e-02
     2597000000    1.878110319e-01    9.387734532e-02
     2597750000    1.768369079e-01    1.111253053e-01
     2598500000    1.652231216e-01    1.276394129e-01
     2599250000    1.543112844e-01    1.388178766e-01
     2600000000    1.386390477e-01    1.523006409e-01
