! NanoVNA-App
! Date: 2026-05-22 16:35:11
! Start: 2.3GHz Stop: 2.6GHz Points: 401
! S-Parameter data: F S11
# Hz S RI R 50
!     Frequency           S11_Real           S11_Imag
     2300000000    2.604267001e-01   -2.666780949e-01
     2300750000    2.810298204e-01   -2.417035848e-01
     2301500000    2.997559905e-01   -2.153297216e-01
     2302250000    3.148950636e-01   -1.881257594e-01
     2303000000    3.289281130e-01   -1.583361626e-01
     2303750000    3.392243385e-01   -1.333605349e-01
     2304500000    3.468676209e-01   -9.859634191e-02
     2305250000    3.527279496e-01   -7.150172442e-02
     2306000000    3.549350500e-01   -3.711543977e-02
     2306750000    3.558837473e-01   -9.964731522e-03
     2307500000    3.530870378e-01    2.237781137e-02
     2308250000    3.473736048e-01    5.206588656e-02
     2309000000    3.399620354e-01    8.173806965e-02
     2309750000    3.304719329e-01    1.095153093e-01
     2310500000    3.179999292e-01    1.363347322e-01
     2311250000    3.028374910e-01    1.633064151e-01
     2312000000    2.869528234e-01    1.866147965e-01
     2312750000    2.671015859e-01    2.100392729e-01
     2313500000    2.479294986e-01    2.307550162e-01
     2314250000    2.256178111e-01    2.489592284e-01
     2315000000    2.017615587e-01    2.666254342e-01
     2315750000    1.781295091e-01    2.809532583e-01
     2316500000    1.538650841e-01    2.931097746e-01
     2317250000    1.250179410e-01    3.033740819e-01
     2318000000    1.008978412e-01    3.118703067e-01
     2318750000    7.036556304e-02    3.166542947e-01
     2319500000    4.459931329e-02    3.198983371e-01
     2320250000    1.593462750e-02    3.203484416e-01
     2321000000   -1.094596367e-02    3.192547858e-01
     2321750000   -3.924277052e-02    3.145848811e-01
     2322500000   -6.410811096e-02    3.093826473e-01
     2323250000   -9.052801877e-02    2.996349335e-01
     2324000000   -1.170995831e-01    2.878722847e-01
     2324750000   -1.388282925e-01    2.767418027e-01
     2325500000   -1.612989604e-01    2.627244592e-01
     2326250000   -1.841974556e-01    2.429422289e-01
     2327000000   -2.028405070e-01    2.266030759e-01
     2327750000   -2.199201286e-01    2.078967094e-01
     2328500000   -2.357577682e-01    1.846343577e-01
     2329250000   -2.501534820e-01    1.647254229e-01
     2330000000   -2.619313002e-01    1.432589889e-01
     2330750000   -2.719882727e-01    1.168905050e-01
     2331500000   -2.801232636e-01    9.532688558e-02
     2332250000   -2.845639884e-01    6.640907377e-02
     2333000000   -2.891477942e-01    4.468091950e-02
     2333750000   -2.896861434e-01    1.769488677e-02
     2334500000   -2.888868451e-01   -6.493786350e-03
     2335250000   -2.873922586e-01   -3.001163527e-02
     2336000000   -2.818721831e-01   -5.489331111e-02
     2336750000   -2.755560875e-01   -7.767710090e-02
     2337500000   -2.669498920e-01   -9.997197986e-02
     2338250000   -2.551402152e-01   -1.228202507e-01
     2339000000   -2.436093539e-01   -1.424554437e-01
     2339750000   -2.285289317e-01   -1.618924439e-01
     2340500000   -2.124269307e-01   -1.804707944e-01
     2341250000   -1.964899153e-01   -1.964970082e-01
     2342000000   -1.788677275e-01   -2.110229135e-01
     2342750000   -1.590773165e-01   -2.243290544e-01
     2343500000   -1.374635249e-01   -2.359218150e-01
     2344250000   -1.173946112e-01   -2.456555367e-01
     2345000000   -9.463004023e-02   -2.530040145e-01
     2345750000   -7.425231487e-02   -2.595468760e-01
     2346500000   -4.908950999e-02   -2.628533542e-01
     2347250000   -2.812255733e-02   -2.656905353e-01
     2348000000   -4.294516053e-03   -2.652644813e-01
     2348750000    1.788271405e-02   -2.642779052e-01
     2349500000    4.014511779e-02   -2.604097724e-01
     2350250000    6.162612140e-02   -2.560358942e-01
     2351000000    8.145160973e-02   -2.501174808e-01
     2351750000    1.028819382e-01   -2.387131155e-01
     2352500000    1.212770566e-01   -2.296920419e-01
     2353250000    1.399948746e-01   -2.183235884e-01
     2354000000    1.566499323e-01   -2.061180025e-01
     2354750000    1.730509400e-01   -1.898228526e-01
     2355500000    1.878471524e-01   -1.760915369e-01
     2356250000    2.005052418e-01   -1.576339900e-01
     2357000000    2.117028534e-01   -1.413055956e-01
     2357750000    2.219927460e-01   -1.225485653e-01
     2358500000    2.307288498e-01   -1.032708362e-01
     2359250000    2.369125336e-01   -8.410004526e-02
     2360000000    2.423356473e-01   -6.488978118e-02
     2360750000    2.453342825e-01   -4.351791739e-02
     2361500000    2.463333160e-01   -2.352599055e-02
     2362250000    2.467182279e-01   -3.745340277e-03
     2363000000    2.449525297e-01    1.672319509e-02
     2363750000    2.415284514e-01    3.641587868e-02
     2364500000    2.368132919e-01    5.545055121e-02
     2365250000    2.298489809e-01    7.453087717e-02
     2366000000    2.218076438e-01    9.228039533e-02
     2366750000    2.123066783e-01    1.096475497e-01
     2367500000    2.014424801e-01    1.262024194e-01
     2368250000    1.894510835e-01    1.411488652e-01
     2369000000    1.759586036e-01    1.554199010e-01
     2369750000    1.626666039e-01    1.685593277e-01
     2370500000    1.473296881e-01    1.807240993e-01
     2371250000    1.305364519e-01    1.909514070e-01
     2372000000    1.149348244e-01    1.998235136e-01
     2372750000    9.730719775e-02    2.083518803e-01
     2373500000    7.956775278e-02    2.141568661e-01
     2374250000    6.157787144e-02    2.185082436e-01
     2375000000    4.379308969e-02    2.224355638e-01
     2375750000    2.515302040e-02    2.229954302e-01
     2376500000    7.886065170e-03    2.240397781e-01
     2377250000   -1.117855124e-02    2.221745998e-01
     2378000000   -2.867308632e-02    2.197227925e-01
     2378750000   -4.613916576e-02    2.153188735e-01
     2379500000   -6.313090771e-02    2.098025084e-01
     2380250000   -7.888957113e-02    2.029549628e-01
     2381000000   -9.471929818e-02    1.950307488e-01
     2381750000   -1.094302610e-01    1.856060028e-01
     2382500000   -1.225504205e-01    1.743115038e-01
     2383250000   -1.368429959e-01    1.635223180e-01
     2384000000   -1.482666731e-01    1.509244144e-01
     2384750000   -1.587184221e-01    1.372730583e-01
     2385500000   -1.689036191e-01    1.230024397e-01
     2386250000   -1.773551255e-01    1.088917479e-01
     2387000000   -1.844450086e-01    9.278627485e-02
     2387750000   -1.905371398e-01    7.748726010e-02
     2388500000   -1.951562166e-01    6.059124321e-02
     2389250000   -1.982346177e-01    4.482596740e-02
     2390000000   -2.003585249e-01    2.848446928e-02
     2390750000   -2.013044208e-01    1.113041304e-02
     2391500000   -2.003999501e-01   -5.013403483e-03
     2392250000   -1.985954195e-01   -2.087915502e-02
     2393000000   -1.956644654e-01   -3.702152893e-02
     2393750000   -1.912365854e-01   -5.311886966e-02
     2394500000   -1.855870932e-01   -6.755184382e-02
     2395250000   -1.789617389e-01   -8.214855194e-02
     2396000000   -1.712641716e-01   -9.616911411e-02
     2396750000   -1.620428562e-01   -1.092584133e-01
     2397500000   -1.521646231e-01   -1.216276214e-01
     2398250000   -1.415341794e-01   -1.327574402e-01
     2399000000   -1.299727410e-01   -1.433038712e-01
     2399750000   -1.176225767e-01   -1.533751786e-01
     2400500000   -1.046519205e-01   -1.621454507e-01
     2401250000   -9.070748836e-02   -1.692484021e-01
     2402000000   -7.698205858e-02   -1.760775149e-01
     2402750000   -6.281068176e-02   -1.810589731e-01
     2403500000   -4.823795706e-02   -1.849522591e-01
     2404250000   -3.352501243e-02   -1.878486425e-01
     2405000000   -1.862172410e-02   -1.892600507e-01
     2405750000   -3.263231367e-03   -1.900997460e-01
     2406500000    1.147497818e-02   -1.895947456e-01
     2407250000    2.575166523e-02   -1.876246929e-01
     2408000000    4.009280726e-02   -1.847139895e-01
     2408750000    5.452003703e-02   -1.804344803e-01
     2409500000    6.765853614e-02   -1.754630506e-01
     2410250000    8.101629466e-02   -1.688302159e-01
     2411000000    9.328667819e-02   -1.619708538e-01
     2411750000    1.051393300e-01   -1.535149962e-01
     2412500000    1.164729521e-01   -1.442261934e-01
     2413250000    1.266679466e-01   -1.345141828e-01
     2414000000    1.358967721e-01   -1.237138361e-01
     2414750000    1.449475735e-01   -1.120956615e-01
     2415500000    1.521569639e-01   -1.001672894e-01
     2416250000    1.591126174e-01   -8.785486966e-02
     2417000000    1.648919582e-01   -7.484064251e-02
     2417750000    1.693585217e-01   -6.130672619e-02
     2418500000    1.732391566e-01   -4.757317156e-02
     2419250000    1.755372286e-01   -3.364754096e-02
     2420000000    1.768607050e-01   -1.967931353e-02
     2420750000    1.773624122e-01   -5.116113462e-03
     2421500000    1.761833280e-01    8.788242005e-03
     2422250000    1.748717129e-01    2.294793911e-02
     2423000000    1.719517261e-01    3.707048669e-02
     2423750000    1.679625213e-01    5.071321502e-02
     2424500000    1.630369127e-01    6.391816586e-02
     2425250000    1.573965251e-01    7.686637342e-02
     2426000000    1.504095495e-01    8.923953772e-02
     2426750000    1.423695236e-01    1.013366058e-01
     2427500000    1.344862729e-01    1.126638800e-01
     2428250000    1.246442199e-01    1.231580675e-01
     2429000000    1.138491184e-01    1.325894892e-01
     2429750000    1.034263223e-01    1.421771049e-01
     2430500000    9.205201268e-02    1.497634053e-01
     2431250000    8.032272011e-02    1.573025286e-01
     2432000000    6.665714830e-02    1.630935520e-01
     2432750000    5.338177457e-02    1.686752439e-01
     2433500000    3.976944461e-02    1.729632616e-01
     2434250000    2.654083259e-02    1.755932719e-01
     2435000000    1.234609541e-02    1.770992279e-01
     2435750000   -1.996860141e-03    1.792934090e-01
     2436500000   -1.635704562e-02    1.794686913e-01
     2437250000   -3.059454821e-02    1.770690382e-01
     2438000000   -4.490730539e-02    1.762856692e-01
     2438750000   -5.823587254e-02    1.728130132e-01
     2439500000   -7.171948254e-02    1.679139584e-01
     2440250000   -8.507063985e-02    1.630441248e-01
     2441000000   -9.780500829e-02    1.565166861e-01
     2441750000   -1.102062762e-01    1.496618837e-01
     2442500000   -1.216170415e-01    1.415439993e-01
     2443250000   -1.327363998e-01    1.327550560e-01
     2444000000   -1.430533826e-01    1.229137853e-01
     2444750000   -1.519008130e-01    1.118513197e-01
     2445500000   -1.606075019e-01    1.007428318e-01
     2446250000   -1.680814028e-01    8.870686591e-02
     2447000000   -1.748877615e-01    7.625200599e-02
     2447750000   -1.802611351e-01    6.287238747e-02
     2448500000   -1.850262433e-01    4.932026565e-02
     2449250000   -1.885884553e-01    3.555518389e-02
     2450000000   -1.913510561e-01    2.042833343e-02
     2450750000   -1.921282858e-01    6.402169820e-03
     2451500000   -1.921523511e-01   -7.909807377e-03
     2452250000   -1.912190616e-01   -2.320894226e-02
     2453000000   -1.886221617e-01   -3.761766478e-02
     2453750000   -1.856845021e-01   -5.190899968e-02
     2454500000   -1.807657182e-01   -6.651418656e-02
     2455250000   -1.755878627e-01   -8.051935583e-02
     2456000000   -1.682884097e-01   -9.349054098e-02
     2456750000   -1.607180238e-01   -1.079219431e-01
     2457500000   -1.521391422e-01   -1.201729849e-01
     2458250000   -1.425927579e-01   -1.322012097e-01
     2459000000   -1.317561269e-01   -1.421760470e-01
     2459750000   -1.203135774e-01   -1.551732868e-01
     2460500000   -1.083525941e-01   -1.625223905e-01
     2461250000   -9.513474256e-02   -1.733713299e-01
     2462000000   -8.166634291e-02   -1.784082651e-01
     2462750000   -6.701017171e-02   -1.872228235e-01
     2463500000   -5.232553557e-02   -1.924136132e-01
     2464250000   -3.680790588e-02   -1.988077611e-01
     2465000000   -2.250542864e-02   -2.003538609e-01
     2465750000   -6.506283302e-03   -2.018258274e-01
     2466500000    9.513678029e-03   -2.021916211e-01
     2467250000    2.549614385e-02   -2.025094777e-01
     2468000000    4.171770066e-02   -2.010079920e-01
     2468750000    5.675821751e-02   -1.982004493e-01
     2469500000    7.248332351e-02   -1.945379376e-01
     2470250000    8.809440583e-02   -1.884757131e-01
     2471000000    1.032339782e-01   -1.816464365e-01
     2471750000    1.155787408e-01   -1.736168414e-01
     2472500000    1.296750158e-01   -1.655738205e-01
     2473250000    1.445277035e-01   -1.549964696e-01
     2474000000    1.559103578e-01   -1.443227530e-01
     2474750000    1.679598093e-01   -1.319941431e-01
     2475500000    1.774028093e-01   -1.194147840e-01
     2476250000    1.885640323e-01   -1.046894640e-01
     2477000000    1.953129321e-01   -9.138038009e-02
     2477750000    2.032521218e-01   -7.529520988e-02
     2478500000    2.084765583e-01   -6.059556827e-02
     2479250000    2.141031921e-01   -4.345839843e-02
     2480000000    2.175969630e-01   -2.647886612e-02
     2480750000    2.200350314e-01   -9.394497611e-03
     2481500000    2.206054330e-01    7.407621946e-03
     2482250000    2.204483747e-01    2.534332126e-02
     2483000000    2.187205404e-01    4.331916571e-02
     2483750000    2.152429223e-01    6.015130877e-02
     2484500000    2.115254700e-01    7.740073651e-02
     2485250000    2.055021375e-01    9.405403584e-02
     2486000000    1.980266124e-01    1.093528792e-01
     2486750000    1.899735928e-01    1.256098002e-01
     2487500000    1.796280146e-01    1.397081167e-01
     2488250000    1.696890146e-01    1.549066901e-01
     2489000000    1.573475599e-01    1.681559533e-01
     2489750000    1.441585720e-01    1.808294356e-01
     2490500000    1.302826107e-01    1.910618097e-01
     2491250000    1.145096645e-01    2.041941583e-01
     2492000000    9.985220432e-02    2.106696814e-01
     2492750000    8.366955817e-02    2.183049470e-01
     2493500000    6.021692231e-02    2.189050764e-01
     2494250000    4.059476033e-02    2.255839556e-01
     2495000000    2.567652240e-02    2.282521129e-01
     2495750000    7.043269929e-03    2.309807688e-01
     2496500000   -1.091999188e-02    2.312394977e-01
     2497250000   -3.031529672e-02    2.314656675e-01
     2498000000   -4.607422277e-02    2.293878645e-01
     2498750000   -6.445705891e-02    2.261170149e-01
     2499500000   -8.475920558e-02    2.223782092e-01
     2500250000   -1.023214385e-01    2.159975767e-01
     2501000000   -1.186827496e-01    2.078117281e-01
     2501750000   -1.382037848e-01    1.983212233e-01
     2502500000   -1.503525525e-01    1.886454523e-01
     2503250000   -1.646256149e-01    1.766360551e-01
     2504000000   -1.815257370e-01    1.621361375e-01
     2504750000   -1.929846853e-01    1.475697458e-01
     2505500000   -2.031994164e-01    1.341648996e-01
     2506250000   -2.158041447e-01    1.144827902e-01
     2507000000   -2.216014713e-01    9.858188778e-02
     2507750000   -2.291243970e-01    8.029130846e-02
     2508500000   -2.340628058e-01    6.260713190e-02
     2509250000   -2.359386832e-01    4.733609036e-02
     2510000000   -2.399444580e-01    2.543783747e-02
     2510750000   -2.406598330e-01    8.136142977e-03
     2511500000   -2.398341447e-01   -8.766563609e-03
     2512250000   -2.373367101e-01   -2.882877551e-02
     2513000000   -2.351702005e-01   -4.633487388e-02
     2513750000   -2.306641787e-01   -6.350290775e-02
     2514500000   -2.247797698e-01   -8.068229258e-02
     2515250000   -2.167993784e-01   -1.000523195e-01
     2516000000   -2.092506588e-01   -1.153700277e-01
     2516750000   -1.998660713e-01   -1.324165016e-01
     2517500000   -1.871667057e-01   -1.503725499e-01
     2518250000   -1.759413779e-01   -1.645658463e-01
     2519000000   -1.614359021e-01   -1.785908788e-01
     2519750000   -1.467037946e-01   -1.909205467e-01
     2520500000   -1.284752935e-01   -2.050127387e-01
     2521250000   -1.107359082e-01   -2.162218243e-01
     2522000000   -9.275316447e-02   -2.237280160e-01
     2522750000   -7.266452163e-02   -2.307066470e-01
     2523500000   -5.429333821e-02   -2.367527485e-01
     2524250000   -3.209982812e-02   -2.403850257e-01
     2525000000   -1.279791817e-02   -2.420896739e-01
     2525750000    7.327340078e-03   -2.423596829e-01
     2526500000    2.887133695e-02   -2.407196164e-01
     2527250000    4.807431251e-02   -2.371477783e-01
     2528000000    6.833807379e-02   -2.326399088e-01
     2528750000    8.512306213e-02   -2.258364260e-01
     2529500000    1.035356671e-01   -2.185371369e-01
     2530250000    1.219291762e-01   -2.102433145e-01
     2531000000    1.367774606e-01   -2.001172602e-01
     2531750000    1.546647251e-01   -1.876833737e-01
     2532500000    1.686429679e-01   -1.764598489e-01
     2533250000    1.832122356e-01   -1.611148119e-01
     2534000000    1.964079589e-01   -1.469214857e-01
     2534750000    2.081864923e-01   -1.302802265e-01
     2535500000    2.192434072e-01   -1.134859622e-01
     2536250000    2.282163501e-01   -9.518946707e-02
     2537000000    2.356122434e-01   -7.425782084e-02
     2537750000    2.405525446e-01   -5.484019965e-02
     2538500000    2.453621030e-01   -3.403880075e-02
     2539250000    2.469807416e-01   -1.166157238e-02
     2540000000    2.468233556e-01    8.524955250e-03
     2540750000    2.456206679e-01    2.989226766e-02
     2541500000    2.419163585e-01    5.083359778e-02
     2542250000    2.364503592e-01    7.210515440e-02
     2543000000    2.297355235e-01    9.218417853e-02
     2543750000    2.207597196e-01    1.098261625e-01
     2544500000    2.095692754e-01    1.297768950e-01
     2545250000    1.982586831e-01    1.474801004e-01
     2546000000    1.850724965e-01    1.627951711e-01
     2546750000    1.704778075e-01    1.776825637e-01
     2547500000    1.536605954e-01    1.921345592e-01
     2548250000    1.374627948e-01    2.033615857e-01
     2549000000    1.209838837e-01    2.133226991e-01
     2549750000    1.016235650e-01    2.233351916e-01
     2550500000    8.424213529e-02    2.297821492e-01
     2551250000    6.705687195e-02    2.358717769e-01
     2552000000    4.628425837e-02    2.405217737e-01
     2552750000    2.461386286e-02    2.436302751e-01
     2553500000    2.361919731e-03    2.449840158e-01
     2554250000   -1.552160271e-02    2.449369580e-01
     2555000000   -3.627961874e-02    2.423289269e-01
     2555750000   -5.675866455e-02    2.388994545e-01
     2556500000   -7.547347248e-02    2.345614880e-01
     2557250000   -9.546131641e-02    2.267773449e-01
     2558000000   -1.122221053e-01    2.192592770e-01
     2558750000   -1.324232370e-01    2.079266608e-01
     2559500000   -1.485135853e-01    1.980914176e-01
     2560250000   -1.672541350e-01    1.813975722e-01
     2561000000   -1.800379306e-01    1.701623797e-01
     2561750000   -1.957058012e-01    1.523115635e-01
     2562500000   -2.072187662e-01    1.365166605e-01
     2563250000   -2.177289426e-01    1.197308451e-01
     2564000000   -2.264232934e-01    1.030964479e-01
     2564750000   -2.355323732e-01    7.780121267e-02
     2565500000   -2.404482216e-01    6.068092212e-02
     2566250000   -2.448721975e-01    4.054727033e-02
     2567000000   -2.476958632e-01    1.843700930e-02
     2567750000   -2.482627630e-01    2.303350630e-04
     2568500000   -2.465297133e-01   -2.229233272e-02
     2569250000   -2.429761291e-01   -4.372917861e-02
     2570000000   -2.387059927e-01   -6.387384236e-02
     2570750000   -2.323189080e-01   -8.349112421e-02
     2571500000   -2.240223438e-01   -1.035140306e-01
     2572250000   -2.129988670e-01   -1.232924089e-01
     2573000000   -2.028606981e-01   -1.403365284e-01
     2573750000   -1.887080073e-01   -1.574688554e-01
     2574500000   -1.740875244e-01   -1.730114967e-01
     2575250000   -1.593697816e-01   -1.869646013e-01
     2576000000   -1.412644386e-01   -1.999200732e-01
     2576750000   -1.244744509e-01   -2.101566046e-01
     2577500000   -1.046849713e-01   -2.217091173e-01
     2578250000   -8.477472514e-02   -2.291066200e-01
     2579000000   -6.440304965e-02   -2.356353402e-01
     2579750000   -4.434621707e-02   -2.405528128e-01
     2580500000   -2.266482823e-02   -2.437407672e-01
     2581250000   -1.557906973e-03   -2.451234162e-01
     2582000000    2.138023637e-02   -2.443347126e-01
     2582750000    4.219474271e-02   -2.418135405e-01
     2583500000    6.140687317e-02   -2.377087623e-01
     2584250000    8.508569002e-02   -2.296578884e-01
     2585000000    1.025924459e-01   -2.238797545e-01
     2585750000    1.229192019e-01   -2.125063986e-01
     2586500000    1.427616328e-01   -2.008779496e-01
     2587250000    1.588911116e-01   -1.887871623e-01
     2588000000    1.737880409e-01   -1.772947907e-01
     2588750000    1.885447949e-01   -1.607591808e-01
     2589500000    2.034735829e-01   -1.405115128e-01
     2590250000    2.142181695e-01   -1.253968328e-01
     2591000000    2.238072902e-01   -1.107676998e-01
     2591750000    2.329964638e-01   -8.553276956e-02
     2592500000    2.396366149e-01   -6.445540488e-02
     2593250000    2.445409000e-01   -4.716214538e-02
     2594000000    2.478896976e-01   -2.380988002e-02
     2594750000    2.482103705e-01   -1.243442181e-03
     2595500000    2.477742136e-01    1.753729582e-02
     2596250000    2.459462732e-01    3.857856616e-02
     2597000000    2.400137931e-01    6.152500957e-02
     2597750000    2.337503880e-01    8.233196288e-02
     2598500000    2.275337428e-01    1.009032652e-01
     2599250000    2.154821604e-01    1.212870851e-01
     2600000000    2.028824985e-01    1.395018995e-01
