! NanoVNA-App
! Date: 2026-05-22 16:35:26
! Start: 4.8GHz Stop: 6GHz Points: 401
! S-Parameter data: F S11
# Hz S RI R 50
!     Frequency           S11_Real           S11_Imag
     4800000000   -1.537809968e-01   -4.666059017e-01
     4803000000    8.915831335e-03   -4.904590249e-01
     4806000000    1.728428751e-01   -4.571594894e-01
     4809000000    3.217148483e-01   -3.723841310e-01
     4812000000    4.217319489e-01   -2.446622998e-01
     4815000000    4.811909497e-01   -8.573898673e-02
     4818000000    4.777734876e-01    7.448609173e-02
     4821000000    4.233116508e-01    2.310198843e-01
     4824000000    3.230898082e-01    3.565417826e-01
     4827000000    1.816944778e-01    4.406335950e-01
     4830000000    2.682956308e-02    4.730846286e-01
     4833000000   -1.393904835e-01    4.536557198e-01
     4836000000   -2.787363529e-01    3.786748946e-01
     4839000000   -3.842182457e-01    2.650722265e-01
     4842000000   -4.486106932e-01    1.196506023e-01
     4845000000   -4.604549408e-01   -3.766980767e-02
     4848000000   -4.193492532e-01   -1.979381591e-01
     4851000000   -3.279964328e-01   -3.190058172e-01
     4854000000   -2.019539624e-01   -4.067540765e-01
     4857000000   -5.899339542e-02   -4.458732307e-01
     4860000000    1.016440168e-01   -4.382928610e-01
     4863000000    2.298722863e-01   -3.807889223e-01
     4866000000    3.515943587e-01   -2.736295760e-01
     4869000000    4.164294899e-01   -1.417617202e-01
     4872000000    4.374191463e-01    7.138854358e-03
     4875000000    4.067645669e-01    1.623866409e-01
     4878000000    3.323603272e-01    2.748005688e-01
     4881000000    2.143493891e-01    3.704781830e-01
     4884000000    7.981703430e-02    4.180463850e-01
     4887000000   -5.811480433e-02    4.158116579e-01
     4890000000   -2.011405379e-01    3.688374758e-01
     4893000000   -3.137359619e-01    2.739574313e-01
     4896000000   -3.798854649e-01    1.587899923e-01
     4899000000   -4.098512530e-01    1.548369788e-02
     4902000000   -3.885523975e-01   -1.210464984e-01
     4905000000   -3.226108551e-01   -2.445844859e-01
     4908000000   -2.178696990e-01   -3.360206783e-01
     4911000000   -9.036355466e-02   -3.867774308e-01
     4914000000    4.168148711e-02   -3.924598694e-01
     4917000000    1.699525714e-01   -3.522657454e-01
     4920000000    2.803795934e-01   -2.676837444e-01
     4923000000    3.505929410e-01   -1.582283527e-01
     4926000000    3.814150691e-01   -3.006845340e-02
     4929000000    3.673768938e-01    9.592489153e-02
     4932000000    3.043320775e-01    2.226247340e-01
     4935000000    2.121038884e-01    3.102259338e-01
     4938000000    1.036853045e-01    3.575757742e-01
     4941000000   -2.883371338e-02    3.689226210e-01
     4944000000   -1.524717659e-01    3.326033056e-01
     4947000000   -2.520656586e-01    2.614326477e-01
     4950000000   -3.267156184e-01    1.509341002e-01
     4953000000   -3.548362851e-01    3.335846215e-02
     4956000000   -3.416022062e-01   -8.970850706e-02
     4959000000   -2.893998325e-01   -1.999214143e-01
     4962000000   -1.992829144e-01   -2.832785547e-01
     4965000000   -9.397671372e-02   -3.311339021e-01
     4968000000    2.807142772e-02   -3.392060101e-01
     4971000000    1.374675632e-01   -3.114098608e-01
     4974000000    2.319546789e-01   -2.400522977e-01
     4977000000    2.981360257e-01   -1.443344355e-01
     4980000000    3.263019025e-01   -2.816237323e-02
     4983000000    3.144406676e-01    8.073898405e-02
     4986000000    2.625677884e-01    1.827510148e-01
     4989000000    1.876463592e-01    2.591211796e-01
     4992000000    8.216968179e-02    3.046156466e-01
     4995000000   -2.679262869e-02    3.088494241e-01
     4998000000   -1.324139386e-01    2.754321098e-01
     5001000000   -2.162659168e-01    2.146940082e-01
     5004000000   -2.735293806e-01    1.311393380e-01
     5007000000   -2.917620540e-01    1.976189949e-02
     5010000000   -2.840155959e-01   -7.626778632e-02
     5013000000   -2.373520732e-01   -1.683674455e-01
     5016000000   -1.593389362e-01   -2.360892594e-01
     5019000000   -6.715533137e-02   -2.739310861e-01
     5022000000    3.011017479e-02   -2.762175798e-01
     5025000000    1.219588444e-01   -2.417619228e-01
     5028000000    1.939773113e-01   -1.861380935e-01
     5031000000    2.387880236e-01   -9.956610948e-02
     5034000000    2.589507103e-01   -1.418506075e-02
     5037000000    2.352607548e-01    7.689809799e-02
     5040000000    1.981423348e-01    1.531563103e-01
     5043000000    1.258619577e-01    2.053305954e-01
     5046000000    4.899062589e-02    2.371329218e-01
     5049000000   -3.585444763e-02    2.344219536e-01
     5052000000   -1.127556711e-01    2.027481794e-01
     5055000000   -1.734052598e-01    1.497838646e-01
     5058000000   -2.115411162e-01    7.985135913e-02
     5061000000   -2.160497755e-01    2.830447396e-03
     5064000000   -1.993121356e-01   -7.181373984e-02
     5067000000   -1.578703374e-01   -1.315508485e-01
     5070000000   -9.862457961e-02   -1.724677384e-01
     5073000000   -3.077847697e-02   -1.915856451e-01
     5076000000    3.831361234e-02   -1.832178980e-01
     5079000000    9.919064492e-02   -1.553882062e-01
     5082000000    1.424822062e-01   -1.069064885e-01
     5085000000    1.659738719e-01   -4.875211045e-02
     5088000000    1.639617831e-01    1.102632005e-02
     5091000000    1.518219560e-01    6.918064505e-02
     5094000000    1.098050177e-01    1.118642762e-01
     5097000000    6.081469357e-02    1.391297877e-01
     5100000000    7.189873606e-03    1.472951174e-01
     5103000000   -4.175726324e-02    1.297253072e-01
     5106000000   -8.587686718e-02    1.047268808e-01
     5109000000   -1.151019856e-01    6.303756684e-02
     5112000000   -1.287783831e-01    1.608569734e-02
     5115000000   -1.192713231e-01   -2.650981955e-02
     5118000000   -9.923336655e-02   -6.572714448e-02
     5121000000   -6.399529427e-02   -8.883062750e-02
     5124000000   -2.493494935e-02   -1.087740958e-01
     5127000000    1.083958987e-02   -9.884899855e-02
     5130000000    4.492511973e-02   -8.510559797e-02
     5133000000    6.767712533e-02   -5.885988101e-02
     5136000000    8.193257451e-02   -2.618643641e-02
     5139000000    7.927325368e-02    5.784961395e-03
     5142000000    6.591407210e-02    3.219527751e-02
     5145000000    4.511574283e-02    5.597279221e-02
     5148000000    1.984247938e-02    6.081204116e-02
     5151000000   -6.388229784e-03    6.201064959e-02
     5154000000   -2.781552263e-02    5.100240558e-02
     5157000000   -4.118433595e-02    3.198738396e-02
     5160000000   -4.526050016e-02    1.173164509e-02
     5163000000   -3.961934149e-02   -6.933067460e-03
     5166000000   -3.000299074e-02   -2.053169720e-02
     5169000000   -1.275874116e-02   -2.912576124e-02
     5172000000    4.818920046e-03   -3.212616965e-02
     5175000000    2.521914802e-02   -2.950265817e-02
     5178000000    2.827733383e-02   -9.580158629e-03
     5181000000    3.853461519e-02    5.851451308e-03
     5184000000    2.615962550e-02    2.302448638e-02
     5187000000    9.269331582e-03    3.193407133e-02
     5190000000   -3.549185814e-03    4.620638490e-02
     5193000000   -2.513539977e-02    3.556828573e-02
     5196000000   -4.426109791e-02    2.155496366e-02
     5199000000   -5.946086347e-02    5.982968491e-03
     5202000000   -5.747354776e-02   -1.840200461e-02
     5205000000   -5.353552103e-02   -4.564410076e-02
     5208000000   -3.357115388e-02   -6.547555327e-02
     5211000000   -2.626130823e-03   -7.779352367e-02
     5214000000    2.870193683e-02   -7.912702113e-02
     5217000000    5.942675844e-02   -6.891445071e-02
     5220000000    8.416084945e-02   -4.352565482e-02
     5223000000    1.050432771e-01   -1.666177996e-02
     5226000000    1.056703106e-01    2.715905942e-02
     5229000000    9.663797170e-02    6.466142833e-02
     5232000000    7.255993038e-02    1.005815193e-01
     5235000000    3.311139345e-02    1.233067289e-01
     5238000000   -1.243038662e-02    1.292482018e-01
     5241000000   -6.000982225e-02    1.242373139e-01
     5244000000   -1.030958071e-01    8.714929968e-02
     5247000000   -1.371809095e-01    5.800371617e-02
     5250000000   -1.457760632e-01   -2.660990460e-03
     5253000000   -1.462097317e-01   -5.441834778e-02
     5256000000   -1.236114129e-01   -1.043610573e-01
     5259000000   -7.283749431e-02   -1.431528330e-01
     5262000000   -2.426361665e-02   -1.700401008e-01
     5265000000    3.972453997e-02   -1.699480116e-01
     5268000000    1.001732722e-01   -1.375163198e-01
     5271000000    1.474586874e-01   -1.004828960e-01
     5274000000    1.767151952e-01   -4.409287497e-02
     5277000000    1.869271398e-01    2.073045634e-02
     5280000000    1.685827076e-01    8.736781776e-02
     5283000000    1.313702762e-01    1.447535604e-01
     5286000000    7.048622519e-02    1.857389510e-01
     5289000000    5.844649859e-04    2.013357133e-01
     5292000000   -7.056770474e-02    1.945347339e-01
     5295000000   -1.366385520e-01    1.510674208e-01
     5298000000   -1.876190752e-01    1.044353247e-01
     5301000000   -2.110640705e-01    2.954380214e-02
     5304000000   -2.053795606e-01   -4.377605766e-02
     5307000000   -1.803563237e-01   -1.146946549e-01
     5310000000   -1.293024421e-01   -1.709109396e-01
     5313000000   -6.061469764e-02   -2.109264731e-01
     5316000000    1.942419074e-02   -2.164936513e-01
     5319000000    9.565253556e-02   -1.988998502e-01
     5322000000    1.614708900e-01   -1.530430913e-01
     5325000000    2.064733356e-01   -8.605398983e-02
     5328000000    2.230680138e-01   -5.652918480e-03
     5331000000    2.101919651e-01    7.531935722e-02
     5334000000    1.733220816e-01    1.479243785e-01
     5337000000    1.104687527e-01    2.001221180e-01
     5340000000    3.249809518e-02    2.295107096e-01
     5343000000   -5.262262374e-02    2.299289703e-01
     5346000000   -1.298737228e-01    1.949387342e-01
     5349000000   -1.915140003e-01    1.394063085e-01
     5352000000   -2.289817333e-01    6.025418267e-02
     5355000000   -2.323720902e-01   -2.585544437e-02
     5358000000   -2.090296447e-01   -1.069662124e-01
     5361000000   -1.551784575e-01   -1.753709316e-01
     5364000000   -8.408360183e-02   -2.226671278e-01
     5367000000    1.904177829e-03   -2.401406467e-01
     5370000000    8.407827467e-02   -2.135014832e-01
     5373000000    1.664275974e-01   -1.768630743e-01
     5376000000    2.141409516e-01   -1.056697145e-01
     5379000000    2.251747549e-01   -1.959260367e-02
     5382000000    2.320851088e-01    6.751235574e-02
     5385000000    1.920963824e-01    1.441379189e-01
     5388000000    1.227992922e-01    2.012161314e-01
     5391000000    4.474665225e-02    2.397311628e-01
     5394000000   -3.967520967e-02    2.266037613e-01
     5397000000   -1.275397390e-01    2.017803043e-01
     5400000000   -1.910777688e-01    1.411466897e-01
     5403000000   -2.244634181e-01    6.342088431e-02
     5406000000   -2.355718613e-01   -2.433551662e-02
     5409000000   -2.075036764e-01   -1.059082076e-01
     5412000000   -1.560247540e-01   -1.758735627e-01
     5415000000   -8.031798154e-02   -2.184524089e-01
     5418000000    3.045608988e-03   -2.314929366e-01
     5421000000    8.655455709e-02   -2.128212452e-01
     5424000000    1.560347229e-01   -1.674780846e-01
     5427000000    2.053097188e-01   -9.760084003e-02
     5430000000    2.309981436e-01   -1.416262612e-02
     5433000000    2.194732428e-01    6.975261122e-02
     5436000000    1.768597662e-01    1.420471817e-01
     5439000000    1.118559390e-01    1.993290633e-01
     5442000000    3.180086613e-02    2.251806110e-01
     5445000000   -5.267496035e-02    2.183987349e-01
     5448000000   -1.254552752e-01    1.831003428e-01
     5451000000   -1.842865348e-01    1.230069399e-01
     5454000000   -2.171782255e-01    4.445220903e-02
     5457000000   -2.180079222e-01   -3.796938062e-02
     5460000000   -1.873056740e-01   -1.153334379e-01
     5463000000   -1.323237866e-01   -1.751418263e-01
     5466000000   -5.837461352e-02   -2.117127478e-01
     5469000000    2.719887719e-02   -2.194620818e-01
     5472000000    1.015699655e-01   -1.922272742e-01
     5475000000    1.683416367e-01   -1.404891312e-01
     5478000000    2.064220160e-01   -6.895589083e-02
     5481000000    2.212898433e-01    1.321303286e-02
     5484000000    1.983585954e-01    9.609299153e-02
     5487000000    1.479313821e-01    1.563908607e-01
     5490000000    7.753545791e-02    2.080288678e-01
     5493000000   -2.421310637e-03    2.163334340e-01
     5496000000   -8.584053069e-02    2.029121369e-01
     5499000000   -1.561233550e-01    1.565811336e-01
     5502000000   -2.032903880e-01    8.777634054e-02
     5505000000   -2.196996063e-01    8.563547395e-03
     5508000000   -2.076983601e-01   -7.654230297e-02
     5511000000   -1.647315472e-01   -1.499651968e-01
     5514000000   -9.783634543e-02   -1.973122358e-01
     5517000000   -1.509201061e-02   -2.224243879e-01
     5520000000    6.840242445e-02   -2.103043497e-01
     5523000000    1.477396637e-01   -1.721902341e-01
     5526000000    1.964046061e-01   -1.081233770e-01
     5529000000    2.301385552e-01   -2.038091607e-02
     5532000000    2.215631604e-01    6.804264337e-02
     5535000000    1.831005663e-01    1.403911263e-01
     5538000000    1.178810447e-01    2.107420713e-01
     5541000000    3.585071862e-02    2.331254482e-01
     5544000000   -5.806675553e-02    2.360359132e-01
     5547000000   -1.377751231e-01    1.985894889e-01
     5550000000   -2.081166953e-01    1.342827678e-01
     5553000000   -2.462638319e-01    5.296311527e-02
     5556000000   -2.515822053e-01   -4.538417980e-02
     5559000000   -2.203265280e-01   -1.351800114e-01
     5562000000   -1.598181278e-01   -2.086961120e-01
     5565000000   -7.455863804e-02   -2.550655901e-01
     5568000000    2.222450636e-02   -2.674476504e-01
     5571000000    1.230031773e-01   -2.445033789e-01
     5574000000    1.993748099e-01   -1.855152696e-01
     5577000000    2.627063990e-01   -9.628055245e-02
     5580000000    2.804956436e-01    4.907631665e-04
     5583000000    2.631513476e-01    1.056916714e-01
     5586000000    2.124215961e-01    1.920285225e-01
     5589000000    1.285637319e-01    2.595287263e-01
     5592000000    2.641828731e-02    2.919179499e-01
     5595000000   -7.642420381e-02    2.841168642e-01
     5598000000   -1.760606468e-01    2.361496240e-01
     5601000000   -2.546832263e-01    1.555826813e-01
     5604000000   -2.958298624e-01    5.686799809e-02
     5607000000   -2.980146706e-01   -5.495386943e-02
     5610000000   -2.609833479e-01   -1.605509222e-01
     5613000000   -1.828226298e-01   -2.468370497e-01
     5616000000   -8.576659858e-02   -2.971551120e-01
     5619000000    2.796833776e-02   -3.116774559e-01
     5622000000    1.353478581e-01   -2.839803100e-01
     5625000000    2.323082387e-01   -2.162241638e-01
     5628000000    2.959160209e-01   -1.188954785e-01
     5631000000    3.208771646e-01   -9.760168381e-03
     5634000000    3.047218025e-01    1.081897244e-01
     5637000000    2.466224283e-01    2.145755738e-01
     5640000000    1.531755328e-01    2.888042629e-01
     5643000000    4.068105295e-02    3.246438503e-01
     5646000000   -8.269759268e-02    3.168642521e-01
     5649000000   -1.893297285e-01    2.746980190e-01
     5652000000   -2.737736106e-01    1.906141639e-01
     5655000000   -3.253524601e-01    7.346989214e-02
     5658000000   -3.322932720e-01   -4.667283595e-02
     5661000000   -2.895031273e-01   -1.612153053e-01
     5664000000   -2.219633758e-01   -2.580922842e-01
     5667000000   -1.181849763e-01   -3.207304776e-01
     5670000000    6.753789261e-03   -3.376334012e-01
     5673000000    1.272234321e-01   -3.172453046e-01
     5676000000    2.312183827e-01   -2.490082234e-01
     5679000000    3.058322370e-01   -1.526018232e-01
     5682000000    3.432482481e-01   -3.039195202e-02
     5685000000    3.252481818e-01    9.375517815e-02
     5688000000    2.803468108e-01    2.049129754e-01
     5691000000    1.788568050e-01    2.871409059e-01
     5694000000    6.911635399e-02    3.407421112e-01
     5697000000   -5.355523899e-02    3.417272866e-01
     5700000000   -1.721606106e-01    2.960821092e-01
     5703000000   -2.687385082e-01    2.181560695e-01
     5706000000   -3.217796981e-01    1.051096767e-01
     5709000000   -3.439604938e-01   -1.459869836e-02
     5712000000   -3.166046739e-01   -1.383295506e-01
     5715000000   -2.394143939e-01   -2.359770983e-01
     5718000000   -1.413672119e-01   -3.137842715e-01
     5721000000   -1.978983544e-02   -3.369661272e-01
     5724000000    1.015402228e-01   -3.247119188e-01
     5727000000    2.129127979e-01   -2.705894411e-01
     5730000000    2.932490706e-01   -1.739300340e-01
     5733000000    3.340170681e-01   -5.694143847e-02
     5736000000    3.308532238e-01    6.734662503e-02
     5739000000    2.880513072e-01    1.772179157e-01
     5742000000    2.041769773e-01    2.670309842e-01
     5745000000    9.339702874e-02    3.169493377e-01
     5748000000   -2.639370970e-02    3.438079655e-01
     5751000000   -1.365661919e-01    2.912338078e-01
     5754000000   -2.449867576e-01    2.352179289e-01
     5757000000   -3.011260927e-01    1.275961399e-01
     5760000000   -3.315156102e-01    9.075209498e-03
     5763000000   -3.105729222e-01   -1.063739732e-01
     5766000000   -2.510590851e-01   -2.075939029e-01
     5769000000   -1.551483721e-01   -2.808761597e-01
     5772000000   -4.622783884e-02   -3.156635463e-01
     5775000000    7.682310045e-02   -3.215200007e-01
     5778000000    1.738146544e-01   -2.657501400e-01
     5781000000    2.621668279e-01   -1.879644394e-01
     5784000000    3.047978282e-01   -7.875895500e-02
     5787000000    3.121275902e-01    3.525678441e-02
     5790000000    2.787397504e-01    1.448544264e-01
     5793000000    2.063782364e-01    2.317322344e-01
     5796000000    1.089388579e-01    2.896982133e-01
     5799000000   -1.294755843e-03    3.118959069e-01
     5802000000   -1.074878052e-01    2.855103016e-01
     5805000000   -1.992378384e-01    2.260400355e-01
     5808000000   -2.609440088e-01    1.407974064e-01
     5811000000   -2.963573635e-01    3.672596440e-02
     5814000000   -2.862288654e-01   -6.696506590e-02
     5817000000   -2.433825135e-01   -1.708410084e-01
     5820000000   -1.612344980e-01   -2.337962985e-01
     5823000000   -6.569607556e-02   -2.775465846e-01
     5826000000    3.676191345e-02   -2.765563130e-01
     5829000000    1.402008384e-01   -2.492899299e-01
     5832000000    2.008264363e-01   -1.775081903e-01
     5835000000    2.500381172e-01   -9.147217125e-02
     5838000000    2.649787664e-01    4.181887954e-03
     5841000000    2.458531857e-01    1.043913513e-01
     5844000000    1.866942644e-01    1.636165828e-01
     5847000000    1.110745668e-01    2.295227647e-01
     5850000000    2.535906248e-02    2.412487864e-01
     5853000000   -6.588233262e-02    2.322566658e-01
     5856000000   -1.448388547e-01    1.915618330e-01
     5859000000   -2.058958709e-01    1.214610785e-01
     5862000000   -2.209716886e-01    4.648908600e-02
     5865000000   -2.192183137e-01   -3.557649627e-02
     5868000000   -1.860593408e-01   -1.080320477e-01
     5871000000   -1.294329911e-01   -1.755854785e-01
     5874000000   -5.879321694e-02   -2.006785423e-01
     5877000000    1.473165397e-02   -2.002953142e-01
     5880000000    7.531712949e-02   -1.745442003e-01
     5883000000    1.488010883e-01   -1.299714893e-01
     5886000000    1.745540947e-01   -6.337029487e-02
     5889000000    1.786283106e-01    1.507962937e-03
     5892000000    1.643822044e-01    7.317743450e-02
     5895000000    1.216059998e-01    1.008133441e-01
     5898000000    6.542529166e-02    1.575777084e-01
     5901000000    2.384869382e-03    1.646483839e-01
     5904000000   -4.654673859e-02    1.424493343e-01
     5907000000   -8.797525615e-02    1.103359908e-01
     5910000000   -1.304003447e-01    6.372504681e-02
     5913000000   -1.384404153e-01    6.656131707e-03
     5916000000   -1.328989863e-01   -5.356187746e-02
     5919000000   -9.491857141e-02   -8.646333218e-02
     5922000000   -5.232201144e-02   -1.067923233e-01
     5925000000   -8.165573818e-04   -1.199953556e-01
     5928000000    4.304301366e-02   -1.046755090e-01
     5931000000    8.035451919e-02   -7.285916805e-02
     5934000000    9.434690326e-02   -3.384389728e-02
     5937000000    1.053174585e-01    1.451077219e-02
     5940000000    8.800219744e-02    5.435948819e-02
     5943000000    5.444841832e-02    8.269954473e-02
     5946000000    1.542609651e-02    1.007944345e-01
     5949000000   -3.057302907e-02    1.002178043e-01
     5952000000   -6.130908057e-02    7.061327249e-02
     5955000000   -9.916561842e-02    4.190043360e-02
     5958000000   -9.897609800e-02   -3.492173040e-03
     5961000000   -9.308523685e-02   -4.773543775e-02
     5964000000   -7.070693374e-02   -8.953515440e-02
     5967000000   -2.931234054e-02   -1.143386289e-01
     5970000000    1.640001684e-02   -1.134967729e-01
     5973000000    7.441266626e-02   -1.162154749e-01
     5976000000    1.037263796e-01   -7.356084138e-02
     5979000000    1.370992213e-01   -2.965393290e-02
     5982000000    1.350614578e-01    2.274685167e-02
     5985000000    1.284682453e-01    8.344492316e-02
     5988000000    8.803650737e-02    1.233309805e-01
     5991000000    3.808500990e-02    1.609927565e-01
     5994000000   -2.565257624e-02    1.657025069e-01
     5997000000   -8.708678186e-02    1.481347382e-01
     6000000000   -1.472998261e-01    1.125180647e-01
