! NanoVNA-App
! Date: 2026-05-22 16:37:23
! Start: 4.8GHz Stop: 6GHz Points: 401
! S-Parameter data: F S11
# Hz S RI R 50
!     Frequency           S11_Real           S11_Imag
     4800000000    1.162278373e-02   -5.373454094e-01
     4803000000    1.937762946e-01   -5.032205582e-01
     4806000000    3.521691561e-01   -4.076536000e-01
     4809000000    4.697030187e-01   -2.667948306e-01
     4812000000    5.296782851e-01   -9.106522053e-02
     4815000000    5.272769928e-01    8.946627378e-02
     4818000000    4.680299163e-01    2.666507959e-01
     4821000000    3.508208692e-01    4.040828645e-01
     4824000000    1.938683540e-01    4.990999401e-01
     4827000000    1.226717886e-02    5.336436629e-01
     4830000000   -1.671746075e-01    5.073098540e-01
     4833000000   -3.262037337e-01    4.203548431e-01
     4836000000   -4.484082758e-01    2.840720415e-01
     4839000000   -5.137509108e-01    1.232980266e-01
     4842000000   -5.228718519e-01   -6.045481563e-02
     4845000000   -4.702905416e-01   -2.291027457e-01
     4848000000   -3.626118004e-01   -3.834891021e-01
     4851000000   -2.141064107e-01   -4.769727886e-01
     4854000000   -4.648456350e-02   -5.136424303e-01
     4857000000    1.317682415e-01   -4.990599751e-01
     4860000000    2.898918986e-01   -4.244968891e-01
     4863000000    4.159502983e-01   -2.978427410e-01
     4866000000    4.851818085e-01   -1.463975757e-01
     4869000000    5.059866905e-01    2.849859744e-02
     4872000000    4.643583596e-01    1.912222505e-01
     4875000000    3.717293143e-01    3.385989368e-01
     4878000000    2.425598353e-01    4.308963716e-01
     4881000000    6.795985252e-02    4.930077791e-01
     4884000000   -8.696439117e-02    4.854803681e-01
     4887000000   -2.525688112e-01    4.221231639e-01
     4890000000   -3.740226924e-01    3.112814724e-01
     4893000000   -4.525291026e-01    1.677628607e-01
     4896000000   -4.812726974e-01    6.237875670e-03
     4899000000   -4.509060383e-01   -1.557057202e-01
     4902000000   -3.691712022e-01   -2.980940342e-01
     4905000000   -2.425792366e-01   -4.091387391e-01
     4908000000   -9.805829823e-02   -4.592352211e-01
     4911000000    6.992869079e-02   -4.614039063e-01
     4914000000    2.120737731e-01   -4.118708968e-01
     4917000000    3.393925428e-01   -3.112038076e-01
     4920000000    4.200598896e-01   -1.761430949e-01
     4923000000    4.480093122e-01   -3.305728361e-02
     4926000000    4.310722947e-01    1.251261979e-01
     4929000000    3.576790392e-01    2.688439488e-01
     4932000000    2.424100786e-01    3.744339645e-01
     4935000000    1.055986062e-01    4.281109571e-01
     4938000000   -3.665549681e-02    4.362785518e-01
     4941000000   -1.814237386e-01    3.971266448e-01
     4944000000   -3.036444783e-01    3.090144694e-01
     4947000000   -3.850571811e-01    1.903101355e-01
     4950000000   -4.254494905e-01    3.424799442e-02
     4953000000   -4.100309014e-01   -1.040459126e-01
     4956000000   -3.478545845e-01   -2.360859662e-01
     4959000000   -2.485895008e-01   -3.334161341e-01
     4962000000   -1.148445308e-01   -3.958132565e-01
     4965000000    2.325145900e-02   -4.087948799e-01
     4968000000    1.612348109e-01   -3.713577092e-01
     4971000000    2.756400108e-01   -2.920805812e-01
     4974000000    3.545239866e-01   -1.790572554e-01
     4977000000    3.918484151e-01   -5.150762200e-02
     4980000000    3.809483647e-01    8.919491619e-02
     4983000000    3.253945112e-01    2.100783736e-01
     4986000000    2.373471856e-01    3.012341261e-01
     4989000000    1.129696891e-01    3.617241979e-01
     4992000000   -1.446749642e-02    3.766299188e-01
     4995000000   -1.463745534e-01    3.393988907e-01
     4998000000   -2.487210780e-01    2.743434012e-01
     5001000000   -3.272838593e-01    1.664077342e-01
     5004000000   -3.611237705e-01    4.126964882e-02
     5007000000   -3.545871377e-01   -7.218797505e-02
     5010000000   -2.954796851e-01   -1.962869316e-01
     5013000000   -2.178702354e-01   -2.806842327e-01
     5016000000   -1.042983979e-01   -3.328690529e-01
     5019000000    1.457743905e-02   -3.460010886e-01
     5022000000    1.295921803e-01   -3.155288100e-01
     5025000000    2.286755294e-01   -2.421942651e-01
     5028000000    2.938959002e-01   -1.460759491e-01
     5031000000    3.231579959e-01   -3.892265633e-02
     5034000000    3.136739433e-01    7.457594573e-02
     5037000000    2.608946264e-01    1.772634983e-01
     5040000000    1.869905144e-01    2.539329529e-01
     5043000000    8.330568671e-02    2.957388759e-01
     5046000000   -1.992587745e-02    3.065619767e-01
     5049000000   -1.249872819e-01    2.718234956e-01
     5052000000   -2.086278051e-01    2.106612772e-01
     5055000000   -2.646040916e-01    1.257902384e-01
     5058000000   -2.869565785e-01    2.406764030e-02
     5061000000   -2.716537714e-01   -7.414893061e-02
     5064000000   -2.270868868e-01   -1.614633352e-01
     5067000000   -1.553218216e-01   -2.249685079e-01
     5070000000   -6.536085904e-02   -2.617308497e-01
     5073000000    2.901967056e-02   -2.612157166e-01
     5076000000    1.167441085e-01   -2.307216227e-01
     5079000000    1.877438277e-01   -1.735582650e-01
     5082000000    2.302900851e-01   -9.573911130e-02
     5085000000    2.457192093e-01   -1.001462061e-02
     5088000000    2.249482274e-01    7.560441643e-02
     5091000000    1.843008101e-01    1.468739510e-01
     5094000000    1.192265525e-01    1.981482953e-01
     5097000000    4.054196551e-02    2.227658480e-01
     5100000000   -3.837833554e-02    2.166648507e-01
     5103000000   -1.101966947e-01    1.831027269e-01
     5106000000   -1.640554965e-01    1.318641603e-01
     5109000000   -1.931777000e-01    6.220189482e-02
     5112000000   -1.976730824e-01   -1.024823729e-02
     5115000000   -1.778747439e-01   -7.804102451e-02
     5118000000   -1.368147284e-01   -1.318924576e-01
     5121000000   -7.893516868e-02   -1.660335213e-01
     5124000000   -1.493174303e-02   -1.850817353e-01
     5127000000    4.669832811e-02   -1.670643687e-01
     5130000000    1.069848910e-01   -1.422137767e-01
     5133000000    1.371946335e-01   -9.004154801e-02
     5136000000    1.570171863e-01   -3.500025719e-02
     5139000000    1.531592757e-01    2.345786989e-02
     5142000000    1.302517951e-01    7.180201262e-02
     5145000000    9.271948785e-02    1.128658503e-01
     5148000000    4.300122336e-02    1.340709180e-01
     5151000000   -6.077794824e-03    1.344160736e-01
     5154000000   -5.029322952e-02    1.172119677e-01
     5157000000   -8.785850555e-02    8.652336895e-02
     5160000000   -1.069745496e-01    4.675108194e-02
     5163000000   -1.120764390e-01    3.958723042e-03
     5166000000   -1.005726457e-01   -3.549517691e-02
     5169000000   -7.540440559e-02   -6.229621172e-02
     5172000000   -4.226590693e-02   -9.011500329e-02
     5175000000   -6.775053684e-03   -9.124261141e-02
     5178000000    3.061658517e-02   -8.443359286e-02
     5181000000    5.585696548e-02   -6.350944191e-02
     5184000000    6.647892296e-02   -3.687009960e-02
     5187000000    7.592234015e-02   -2.726237290e-03
     5190000000    6.770741940e-02    2.950259857e-02
     5193000000    4.819224775e-02    4.899911955e-02
     5196000000    2.477488108e-02    5.385426059e-02
     5199000000   -6.469420157e-03    6.295671314e-02
     5202000000   -2.559857443e-02    4.913340881e-02
     5205000000   -4.157090560e-02    3.047080711e-02
     5208000000   -5.692822114e-02    7.445639465e-03
     5211000000   -4.863740876e-02   -1.667590439e-02
     5214000000   -3.625658154e-02   -3.829202801e-02
     5217000000   -1.455681492e-02   -4.637846723e-02
     5220000000    7.978953421e-03   -5.253251269e-02
     5223000000    3.201781213e-02   -4.546160996e-02
     5226000000    4.689930752e-02   -2.413051203e-02
     5229000000    6.059203297e-02   -2.860730048e-03
     5232000000    6.104009226e-02    2.369917370e-02
     5235000000    4.763220996e-02    4.877655581e-02
     5238000000    2.453202195e-02    6.359416246e-02
     5241000000   -2.276592189e-03    7.833910733e-02
     5244000000   -3.317346796e-02    6.370909512e-02
     5247000000   -6.091125309e-02    5.630630255e-02
     5250000000   -8.014300466e-02    2.739835717e-02
     5253000000   -9.563732147e-02   -2.250521909e-03
     5256000000   -8.459977061e-02   -3.827486187e-02
     5259000000   -6.703367829e-02   -7.229042053e-02
     5262000000   -4.088650271e-02   -1.001637876e-01
     5265000000    1.891701831e-03   -1.049349084e-01
     5268000000    4.131460562e-02   -9.472195059e-02
     5271000000    7.823999971e-02   -8.223138005e-02
     5274000000    1.080625877e-01   -5.254247040e-02
     5277000000    1.225430295e-01   -9.062850848e-03
     5280000000    1.168842316e-01    3.526837751e-02
     5283000000    1.028919518e-01    7.939989120e-02
     5286000000    6.942887604e-02    1.145179793e-01
     5289000000    2.186831273e-02    1.310016215e-01
     5292000000   -2.769621275e-02    1.314793080e-01
     5295000000   -7.809942961e-02    1.193245277e-01
     5298000000   -1.153090820e-01    8.445733041e-02
     5301000000   -1.397481859e-01    3.688789904e-02
     5304000000   -1.496167183e-01   -1.352142729e-02
     5307000000   -1.336830556e-01   -6.885116547e-02
     5310000000   -1.024200991e-01   -1.143369079e-01
     5313000000   -5.676072463e-02   -1.473665237e-01
     5316000000    1.017951407e-03   -1.601695716e-01
     5319000000    5.904640257e-02   -1.569378376e-01
     5322000000    1.088798270e-01   -1.230294853e-01
     5325000000    1.467219889e-01   -7.509236783e-02
     5328000000    1.669797152e-01   -1.818952523e-02
     5331000000    1.701168418e-01    4.405646399e-02
     5334000000    1.455006152e-01    1.017808542e-01
     5337000000    1.011629403e-01    1.467642337e-01
     5340000000    4.233730957e-02    1.743789315e-01
     5343000000   -2.417058498e-02    1.766828001e-01
     5346000000   -8.839687705e-02    1.598202288e-01
     5349000000   -1.391176581e-01    1.175195947e-01
     5352000000   -1.725013554e-01    6.104215607e-02
     5355000000   -1.844606847e-01   -4.750879947e-03
     5358000000   -1.705548763e-01   -6.849640608e-02
     5361000000   -1.349355727e-01   -1.279402375e-01
     5364000000   -7.966395468e-02   -1.668466181e-01
     5367000000   -1.651729830e-02   -1.977178156e-01
     5370000000    5.062554777e-02   -1.791240722e-01
     5373000000    1.116693616e-01   -1.490666121e-01
     5376000000    1.599873751e-01   -1.020466462e-01
     5379000000    1.854881644e-01   -3.565673903e-02
     5382000000    1.865107566e-01    3.330703080e-02
     5385000000    1.683052331e-01    1.021954343e-01
     5388000000    1.156647578e-01    1.525961012e-01
     5391000000    5.470217764e-02    1.860889196e-01
     5394000000   -1.413794141e-02    1.946390271e-01
     5397000000   -8.616833389e-02    1.774633229e-01
     5400000000   -1.461597979e-01    1.350992471e-01
     5403000000   -1.786291450e-01    7.728847861e-02
     5406000000   -1.949642003e-01    6.622483023e-03
     5409000000   -1.813624650e-01   -6.172329560e-02
     5412000000   -1.479997337e-01   -1.283392906e-01
     5415000000   -9.172949195e-02   -1.693300903e-01
     5418000000   -2.410241775e-02   -1.920623183e-01
     5421000000    4.555577040e-02   -1.864077300e-01
     5424000000    1.062832549e-01   -1.570243686e-01
     5427000000    1.548406929e-01   -1.084253713e-01
     5430000000    1.870107055e-01   -4.137220606e-02
     5433000000    1.837307960e-01    2.527021989e-02
     5436000000    1.614767164e-01    9.411586821e-02
     5439000000    1.143673509e-01    1.416890174e-01
     5442000000    5.324232206e-02    1.741600037e-01
     5445000000   -1.228075102e-02    1.778711081e-01
     5448000000   -8.109210432e-02    1.616718769e-01
     5451000000   -1.273290217e-01    1.209372431e-01
     5454000000   -1.685911268e-01    5.894945562e-02
     5457000000   -1.756659746e-01   -3.502265783e-03
     5460000000   -1.615501493e-01   -6.490668654e-02
     5463000000   -1.239524931e-01   -1.251730770e-01
     5466000000   -6.998439878e-02   -1.591367126e-01
     5469000000   -2.344282111e-03   -1.771723777e-01
     5472000000    6.053645909e-02   -1.631219983e-01
     5475000000    1.192064807e-01   -1.294546574e-01
     5478000000    1.586529762e-01   -7.409795374e-02
     5481000000    1.745750606e-01   -1.157614216e-02
     5484000000    1.657669544e-01    5.216279998e-02
     5487000000    1.356203705e-01    1.127816662e-01
     5490000000    8.292372525e-02    1.561191529e-01
     5493000000    2.292972431e-02    1.746868938e-01
     5496000000   -4.478050396e-02    1.714269519e-01
     5499000000   -1.116634011e-01    1.431654543e-01
     5502000000   -1.532561630e-01    9.435744584e-02
     5505000000   -1.776459664e-01    3.178016096e-02
     5508000000   -1.760437042e-01   -3.124787286e-02
     5511000000   -1.513292640e-01   -1.028209850e-01
     5514000000   -1.060173512e-01   -1.457248777e-01
     5517000000   -4.031827301e-02   -1.783664227e-01
     5520000000    3.300381079e-02   -1.833358258e-01
     5523000000    8.921713382e-02   -1.601863801e-01
     5526000000    1.476578414e-01   -1.136049256e-01
     5529000000    1.794871539e-01   -5.002646148e-02
     5532000000    1.864334494e-01    2.299273945e-02
     5535000000    1.668534726e-01    8.733578026e-02
     5538000000    1.246569008e-01    1.406654119e-01
     5541000000    6.276168674e-02    1.770471483e-01
     5544000000   -3.872729838e-03    1.881238520e-01
     5547000000   -7.801376283e-02    1.738615334e-01
     5550000000   -1.430428922e-01    1.314045489e-01
     5553000000   -1.780808717e-01    7.839016616e-02
     5556000000   -1.982418001e-01    2.330575837e-03
     5559000000   -1.864033788e-01   -6.730117649e-02
     5562000000   -1.479228735e-01   -1.365330815e-01
     5565000000   -9.341455996e-02   -1.807766259e-01
     5568000000   -2.065406926e-02   -2.027084976e-01
     5571000000    5.678595603e-02   -1.960052103e-01
     5574000000    1.246950477e-01   -1.646264195e-01
     5577000000    1.776451170e-01   -1.084257439e-01
     5580000000    2.055766433e-01   -3.232895583e-02
     5583000000    2.044610828e-01    4.528350011e-02
     5586000000    1.790332794e-01    1.126333997e-01
     5589000000    1.235374808e-01    1.747018993e-01
     5592000000    5.090889707e-02    2.102512866e-01
     5595000000   -2.550819889e-02    2.159506828e-01
     5598000000   -1.025101691e-01    1.946050525e-01
     5601000000   -1.695948690e-01    1.410312206e-01
     5604000000   -2.120243758e-01    7.405409217e-02
     5607000000   -2.266133875e-01   -6.133604795e-03
     5610000000   -2.071972191e-01   -9.074456990e-02
     5613000000   -1.595405489e-01   -1.634836793e-01
     5616000000   -9.250745922e-02   -2.097664922e-01
     5619000000   -6.099042948e-03   -2.322885990e-01
     5622000000    7.428454608e-02   -2.238533795e-01
     5625000000    1.544744223e-01   -1.770993620e-01
     5628000000    2.101839781e-01   -1.078707650e-01
     5631000000    2.404935062e-01   -3.461435810e-02
     5634000000    2.339401245e-01    6.098631024e-02
     5637000000    1.966875941e-01    1.455595940e-01
     5640000000    1.359509379e-01    2.080255598e-01
     5643000000    5.096866563e-02    2.430151254e-01
     5646000000   -4.137388617e-02    2.463387102e-01
     5649000000   -1.277834028e-01    2.146467417e-01
     5652000000   -1.966539919e-01    1.633495092e-01
     5655000000   -2.435648143e-01    7.819727808e-02
     5658000000   -2.567014098e-01   -1.638525352e-02
     5661000000   -2.367891967e-01   -1.079563797e-01
     5664000000   -1.784928441e-01   -1.857736558e-01
     5667000000   -1.056175530e-01   -2.395669073e-01
     5670000000   -1.079230756e-02   -2.642889321e-01
     5673000000    8.523516357e-02   -2.503650486e-01
     5676000000    1.717618555e-01   -1.978085935e-01
     5679000000    2.351646870e-01   -1.319237798e-01
     5682000000    2.666978836e-01   -3.380268812e-02
     5685000000    2.669351995e-01    6.150228530e-02
     5688000000    2.280183136e-01    1.525000632e-01
     5691000000    1.561657935e-01    2.251405120e-01
     5694000000    6.273405254e-02    2.643233836e-01
     5697000000   -3.165409341e-02    2.765294611e-01
     5700000000   -1.300513893e-01    2.523676157e-01
     5703000000   -2.090319991e-01    1.825117022e-01
     5706000000   -2.691754997e-01    1.005941257e-01
     5709000000   -2.780395448e-01   -2.067814581e-03
     5712000000   -2.657431662e-01   -1.031155586e-01
     5715000000   -2.083297372e-01   -1.898476928e-01
     5718000000   -1.312147826e-01   -2.587715089e-01
     5721000000   -3.151717409e-02   -2.889363766e-01
     5724000000    7.125435770e-02   -2.776806355e-01
     5727000000    1.664024889e-01   -2.347751111e-01
     5730000000    2.377906889e-01   -1.584955156e-01
     5733000000    2.830072343e-01   -6.415966898e-02
     5736000000    2.825610340e-01    4.210332781e-02
     5739000000    2.534267306e-01    1.386725903e-01
     5742000000    1.860145777e-01    2.192078531e-01
     5745000000    9.416373819e-02    2.690963149e-01
     5748000000   -7.172511891e-03    2.891290486e-01
     5751000000   -1.089913845e-01    2.613492310e-01
     5754000000   -1.993157417e-01    2.130420506e-01
     5757000000   -2.481153160e-01    1.217071563e-01
     5760000000   -2.931810915e-01    2.300459892e-02
     5763000000   -2.727798223e-01   -7.589059323e-02
     5766000000   -2.280798107e-01   -1.671083570e-01
     5769000000   -1.532714516e-01   -2.498144507e-01
     5772000000   -5.525388196e-02   -2.760668993e-01
     5775000000    4.626252875e-02   -2.809921205e-01
     5778000000    1.391578615e-01   -2.445716411e-01
     5781000000    2.274141759e-01   -1.833774447e-01
     5784000000    2.705551684e-01   -8.753734827e-02
     5787000000    2.835459411e-01    1.375105698e-02
     5790000000    2.637768686e-01    1.185235381e-01
     5793000000    1.990598589e-01    1.939880550e-01
     5796000000    1.169374734e-01    2.552298009e-01
     5799000000    1.685779728e-02    2.825629413e-01
     5802000000   -8.184345812e-02    2.660532892e-01
     5805000000   -1.613028795e-01    2.141815573e-01
     5808000000   -2.481588721e-01    1.452405602e-01
     5811000000   -2.717257142e-01    4.949472100e-02
     5814000000   -2.728534937e-01   -5.153592303e-02
     5817000000   -2.357854843e-01   -1.453572363e-01
     5820000000   -1.661902815e-01   -2.199131399e-01
     5823000000   -7.919559628e-02   -2.576604784e-01
     5826000000    1.345955487e-02   -2.630594671e-01
     5829000000    1.188520417e-01   -2.480575740e-01
     5832000000    1.914006919e-01   -1.860413402e-01
     5835000000    2.435285896e-01   -1.061096638e-01
     5838000000    2.608836293e-01   -1.532650460e-02
     5841000000    2.490571886e-01    8.098544180e-02
     5844000000    2.051027566e-01    1.630478799e-01
     5847000000    1.296790987e-01    2.270545810e-01
     5850000000    4.374903813e-02    2.506384552e-01
     5853000000   -5.062317848e-02    2.501002848e-01
     5856000000   -1.314153820e-01    2.136958092e-01
     5859000000   -1.967594326e-01    1.520228386e-01
     5862000000   -2.427872121e-01    6.584132463e-02
     5865000000   -2.368439585e-01   -1.383004058e-02
     5868000000   -2.161920667e-01   -1.006331518e-01
     5871000000   -1.620019525e-01   -1.593452543e-01
     5874000000   -8.922737092e-02   -2.135267556e-01
     5877000000   -6.614848971e-03   -2.296183705e-01
     5880000000    6.315087527e-02   -2.092830688e-01
     5883000000    1.302987635e-01   -1.704692394e-01
     5886000000    1.790761799e-01   -1.081500351e-01
     5889000000    2.021651119e-01   -3.412092105e-02
     5892000000    2.005561590e-01    5.060788244e-02
     5895000000    1.651753187e-01    1.001794636e-01
     5898000000    1.103729308e-01    1.607070863e-01
     5901000000    5.193900689e-02    1.778250188e-01
     5904000000   -1.469637360e-02    1.769672483e-01
     5907000000   -6.337021291e-02    1.532856822e-01
     5910000000   -1.371928155e-01    1.081201658e-01
     5913000000   -1.444184482e-01    5.895438045e-02
     5916000000   -1.539741606e-01    2.922147280e-03
     5919000000   -1.364441067e-01   -5.334481597e-02
     5922000000   -1.015666723e-01   -1.044849679e-01
     5925000000   -5.310768262e-02   -1.299119741e-01
     5928000000   -3.829177702e-03   -1.309134662e-01
     5931000000    4.553551972e-02   -1.165001541e-01
     5934000000    8.362437785e-02   -8.533514291e-02
     5937000000    1.087888330e-01   -3.942632675e-02
     5940000000    1.109953150e-01    8.781412616e-03
     5943000000    9.139454365e-02    3.957336769e-02
     5946000000    6.114412844e-02    8.380403370e-02
     5949000000    1.901070029e-02    9.967519343e-02
     5952000000   -1.607664302e-02    9.092579782e-02
     5955000000   -6.163043901e-02    7.784948498e-02
     5958000000   -6.452158839e-02    4.697922245e-02
     5961000000   -9.457472712e-02    5.012402311e-03
     5964000000   -9.261760861e-02   -4.601067305e-02
     5967000000   -6.581433862e-02   -7.261507958e-02
     5970000000   -2.937595546e-02   -1.004506275e-01
     5973000000    1.036831364e-02   -1.018698364e-01
     5976000000    5.505487695e-02   -9.101989865e-02
     5979000000    9.104869515e-02   -6.348389387e-02
     5982000000    1.093352288e-01   -2.474639937e-02
     5985000000    1.236837283e-01    2.526139654e-02
     5988000000    1.057313681e-01    6.949518621e-02
     5991000000    7.661516964e-02    1.159306094e-01
     5994000000    2.808091603e-02    1.431193799e-01
     5997000000   -3.003098629e-02    1.519771069e-01
     6000000000   -8.308187872e-02    1.326451898e-01
