! NanoVNA-App
! Date: 2026-05-22 16:37:10
! Start: 2.3GHz Stop: 2.6GHz Points: 401
! S-Parameter data: F S11
# Hz S RI R 50
!     Frequency           S11_Real           S11_Imag
     2300000000    2.809340954e-01   -2.487542480e-01
     2300750000    2.994078696e-01   -2.209725082e-01
     2301500000    3.145293891e-01   -1.968652308e-01
     2302250000    3.283851445e-01   -1.640114486e-01
     2303000000    3.397091925e-01   -1.331085712e-01
     2303750000    3.472209871e-01   -1.076218784e-01
     2304500000    3.529694974e-01   -7.270476222e-02
     2305250000    3.562266827e-01   -4.371235147e-02
     2306000000    3.559390008e-01   -9.520246647e-03
     2306750000    3.541179001e-01    1.975102909e-02
     2307500000    3.499684632e-01    4.977754131e-02
     2308250000    3.416711390e-01    8.071801066e-02
     2309000000    3.317244649e-01    1.105983555e-01
              0    1.577159017e-01    1.030668616e-01
     2310500000    3.060252368e-01    1.634638011e-01
     2311250000    2.895508111e-01    1.892561764e-01
     2312000000    2.715650201e-01    2.115810066e-01
     2312750000    2.508667111e-01    2.334221452e-01
     2313500000    2.285016030e-01    2.529287934e-01
     2314250000    2.062894404e-01    2.695577443e-01
     2315000000    1.816878617e-01    2.850359976e-01
     2315750000    1.550752223e-01    2.979968190e-01
     2316500000    1.291236281e-01    3.083635569e-01
     2317250000    9.984171391e-02    3.164265752e-01
     2318000000    7.559347153e-02    3.224247396e-01
     2318750000    4.519868270e-02    3.252499402e-01
     2319500000    2.058005333e-02    3.270790279e-01
     2320250000   -1.014410146e-02    3.247455359e-01
     2321000000   -3.854676709e-02    3.212860525e-01
     2321750000   -6.424238533e-02    3.153488040e-01
     2322500000   -8.829201013e-02    3.087303638e-01
     2323250000   -1.143956408e-01    2.965754867e-01
     2324000000   -1.376991719e-01    2.852941751e-01
     2324750000   -1.582966894e-01    2.732918262e-01
     2325500000   -1.808385849e-01    2.555194199e-01
     2326250000   -2.009964287e-01    2.365346849e-01
     2327000000   -2.179428935e-01    2.184593678e-01
     2327750000   -2.330102175e-01    1.989897341e-01
     2328500000   -2.467415035e-01    1.759124547e-01
     2329250000   -2.593358755e-01    1.533613950e-01
     2330000000   -2.690319717e-01    1.317773312e-01
     2330750000   -2.764381766e-01    1.076220796e-01
     2331500000   -2.817676961e-01    8.277114481e-02
     2332250000   -2.852854431e-01    5.846507475e-02
     2333000000   -2.860980034e-01    3.373252973e-02
     2333750000   -2.854430079e-01    1.006932277e-02
     2334500000   -2.830967009e-01   -1.351606566e-02
     2335250000   -2.772728205e-01   -3.857558966e-02
     2336000000   -2.706729174e-01   -6.129306927e-02
     2336750000   -2.627556622e-01   -8.225876093e-02
     2337500000   -2.516603172e-01   -1.040919274e-01
     2338250000   -2.398737818e-01   -1.240807697e-01
     2339000000   -2.265934944e-01   -1.427359432e-01
     2339750000   -2.112437636e-01   -1.599103510e-01
     2340500000   -1.955015957e-01   -1.763086766e-01
     2341250000   -1.787300706e-01   -1.903861463e-01
     2342000000   -1.594965458e-01   -2.031289488e-01
     2342750000   -1.392575949e-01   -2.143983394e-01
     2343500000   -1.199606508e-01   -2.239392102e-01
     2344250000   -9.930312634e-02   -2.315358967e-01
     2345000000   -7.847538590e-02   -2.373470962e-01
     2345750000   -5.753506348e-02   -2.413459420e-01
     2346500000   -3.501323611e-02   -2.433121949e-01
     2347250000   -1.629185118e-02   -2.453037500e-01
     2348000000    6.713905372e-03   -2.422551364e-01
     2348750000    2.791930921e-02   -2.390312254e-01
     2349500000    4.630536586e-02   -2.356665730e-01
     2350250000    6.706195325e-02   -2.274243385e-01
     2351000000    8.456896245e-02   -2.210084051e-01
     2351750000    1.021752134e-01   -2.110170275e-01
     2352500000    1.185924560e-01   -1.987826377e-01
     2353250000    1.346552521e-01   -1.880403161e-01
     2354000000    1.490808129e-01   -1.726192385e-01
     2354750000    1.618877202e-01   -1.596484333e-01
     2355500000    1.739423871e-01   -1.445103437e-01
     2356250000    1.838607788e-01   -1.268906146e-01
     2357000000    1.922495067e-01   -1.112581417e-01
     2357750000    1.996695548e-01   -9.308360517e-02
     2358500000    2.059876323e-01   -7.539127767e-02
     2359250000    2.105474472e-01   -5.909182876e-02
     2360000000    2.124363482e-01   -3.958246857e-02
     2360750000    2.138446122e-01   -2.118378505e-02
     2361500000    2.133277655e-01   -4.001621157e-03
     2362250000    2.109381109e-01    1.405020989e-02
     2363000000    2.081796825e-01    3.099462017e-02
     2363750000    2.036453336e-01    4.674422741e-02
     2364500000    1.972769052e-01    6.296704710e-02
     2365250000    1.897171140e-01    7.741982490e-02
     2366000000    1.813850552e-01    9.145883471e-02
     2366750000    1.712061316e-01    1.043240651e-01
     2367500000    1.608519107e-01    1.166273728e-01
     2368250000    1.484550834e-01    1.273441911e-01
     2369000000    1.350894421e-01    1.366770118e-01
     2369750000    1.220187843e-01    1.461311877e-01
     2370500000    1.075859591e-01    1.534631103e-01
     2371250000    9.352632612e-02    1.600796878e-01
     2372000000    7.803796232e-02    1.647133827e-01
     2372750000    6.293334067e-02    1.692094058e-01
     2373500000    4.719009623e-02    1.714981347e-01
     2374250000    3.105485998e-02    1.719133705e-01
     2375000000    1.604768075e-02    1.724231839e-01
     2375750000    8.445684216e-04    1.708703190e-01
     2376500000   -1.372968499e-02    1.685342342e-01
     2377250000   -2.837316319e-02    1.653171033e-01
     2378000000   -4.226075858e-02    1.601005048e-01
     2378750000   -5.560741574e-02    1.545867771e-01
     2379500000   -6.806249917e-02    1.477696002e-01
     2380250000   -7.995886356e-02    1.400578022e-01
     2381000000   -9.114388376e-02    1.309857666e-01
     2381750000   -1.012347117e-01    1.220110357e-01
     2382500000   -1.098615453e-01    1.113483235e-01
     2383250000   -1.189618558e-01    1.007710919e-01
     2384000000   -1.255365759e-01    8.938831836e-02
     2384750000   -1.317619085e-01    7.831142843e-02
     2385500000   -1.363042444e-01    6.528700888e-02
     2386250000   -1.409304738e-01    5.360832065e-02
     2387000000   -1.430730075e-01    4.066181183e-02
     2387750000   -1.449406445e-01    2.799548581e-02
     2388500000   -1.454406083e-01    1.500503439e-02
     2389250000   -1.453810781e-01    3.024245379e-03
     2390000000   -1.444200426e-01   -9.420648217e-03
     2390750000   -1.413830072e-01   -2.146782540e-02
     2391500000   -1.370031834e-01   -3.300393745e-02
     2392250000   -1.331550628e-01   -4.383494332e-02
     2393000000   -1.281946152e-01   -5.496928841e-02
     2393750000   -1.218470410e-01   -6.486629695e-02
     2394500000   -1.150311977e-01   -7.426255196e-02
     2395250000   -1.072854698e-01   -8.309047669e-02
     2396000000   -9.921979904e-02   -9.094899893e-02
     2396750000   -9.018846601e-02   -9.808928519e-02
     2397500000   -8.070796728e-02   -1.040192470e-01
     2398250000   -7.120315731e-02   -1.093703285e-01
     2399000000   -6.126103923e-02   -1.138431802e-01
     2399750000   -5.063132942e-02   -1.177675426e-01
     2400500000   -4.005873203e-02   -1.198815927e-01
     2401250000   -2.965251356e-02   -1.219341010e-01
     2402000000   -1.768217981e-02   -1.224614084e-01
     2402750000   -8.246989921e-03   -1.221838295e-01
     2403500000    1.181008760e-03   -1.205901429e-01
     2404250000    1.169002894e-02   -1.190603524e-01
     2405000000    2.146213315e-02   -1.160545200e-01
     2405750000    3.110495768e-02   -1.121045724e-01
     2406500000    4.067008570e-02   -1.081415787e-01
     2407250000    4.884585738e-02   -1.026962698e-01
     2408000000    5.655276403e-02   -9.718003869e-02
     2408750000    6.421514601e-02   -9.063007683e-02
     2409500000    7.150045037e-02   -8.413426578e-02
     2410250000    7.803463191e-02   -7.645751536e-02
     2411000000    8.378123492e-02   -6.908883154e-02
     2411750000    8.787618577e-02   -6.127019599e-02
     2412500000    9.227226675e-02   -5.226797983e-02
     2413250000    9.472447634e-02   -4.414127395e-02
     2414000000    9.780085087e-02   -3.540464863e-02
     2414750000    9.908496588e-02   -2.656918764e-02
     2415500000    9.996108711e-02   -1.734709926e-02
     2416250000    9.975966066e-02   -8.927451447e-03
     2417000000    9.916892648e-02   -4.500822397e-04
     2417750000    9.773153067e-02    8.176602423e-03
     2418500000    9.567900002e-02    1.663227007e-02
     2419250000    9.297807515e-02    2.482952364e-02
     2420000000    8.924748003e-02    3.198435530e-02
     2420750000    8.546709269e-02    3.952199221e-02
     2421500000    8.046583831e-02    4.711527750e-02
     2422250000    7.536049187e-02    5.342330411e-02
     2423000000    6.968813390e-02    5.986537412e-02
     2423750000    6.388823688e-02    6.540193409e-02
     2424500000    5.733219907e-02    6.996152550e-02
     2425250000    4.998499155e-02    7.533314824e-02
     2426000000    4.322104529e-02    7.839173824e-02
     2426750000    3.512302041e-02    8.211683482e-02
     2427500000    2.785170823e-02    8.470880985e-02
     2428250000    1.995073445e-02    8.653859049e-02
     2429000000    1.177233923e-02    8.838991076e-02
     2429750000    4.159902688e-03    8.885196596e-02
     2430500000   -4.295038059e-03    8.927031606e-02
     2431250000   -1.091547124e-02    8.842954785e-02
     2432000000   -2.015601285e-02    8.724497259e-02
     2432750000   -2.734327875e-02    8.549390733e-02
     2433500000   -3.424277902e-02    8.332908154e-02
     2434250000   -4.166657105e-02    8.030714095e-02
     2435000000   -4.838150740e-02    7.681620866e-02
     2435750000   -5.472202972e-02    7.270517945e-02
     2436500000   -6.091373041e-02    6.846971065e-02
     2437250000   -6.728828698e-02    6.223370507e-02
     2438000000   -7.161266357e-02    5.782283098e-02
     2438750000   -7.580923289e-02    5.205504969e-02
     2439500000   -8.047232032e-02    4.480721802e-02
     2440250000   -8.358369768e-02    3.860914707e-02
     2441000000   -8.653897792e-02    3.125736862e-02
     2441750000   -8.881885558e-02    2.435998246e-02
     2442500000   -9.598112851e-02    1.860784553e-02
     2443250000   -9.694550931e-02    1.040213276e-02
     2444000000   -9.804485738e-02    3.804095555e-03
     2444750000   -9.811255336e-02   -5.751189776e-03
     2445500000   -9.747740626e-02   -1.378993690e-02
     2446250000   -9.638552368e-02   -2.166893147e-02
     2447000000   -9.521475434e-02   -2.898396924e-02
     2447750000   -9.282319248e-02   -3.739049658e-02
     2448500000   -8.995497227e-02   -4.518503696e-02
     2449250000   -8.661992848e-02   -5.220753327e-02
     2450000000   -8.248598129e-02   -5.939489231e-02
     2450750000   -7.804581523e-02   -6.584928185e-02
     2451500000   -7.265751809e-02   -7.190993428e-02
     2452250000   -6.771084666e-02   -7.801799476e-02
     2453000000   -6.133647263e-02   -8.317732066e-02
     2453750000   -5.530785769e-02   -8.810511231e-02
     2454500000   -4.799601063e-02   -9.290654212e-02
     2455250000   -4.135571793e-02   -9.675861895e-02
     2456000000   -3.317810595e-02   -9.981513023e-02
     2456750000   -2.551492676e-02   -1.026778370e-01
     2457500000   -1.811531186e-02   -1.051421836e-01
     2458250000   -9.314881638e-03   -1.059914902e-01
     2459000000   -1.036655158e-03   -1.071778834e-01
     2459750000    6.962622516e-03   -1.079747751e-01
     2460500000    1.584107615e-02   -1.066416278e-01
     2461250000    2.443328314e-02   -1.054525822e-01
     2462000000    3.314105421e-02   -1.042170823e-01
     2462750000    4.126609489e-02   -1.011242718e-01
     2463500000    4.971902817e-02   -9.910678864e-02
     2464250000    5.733872950e-02   -9.418621659e-02
     2465000000    6.548433006e-02   -9.057575464e-02
     2465750000    7.310850173e-02   -8.559139818e-02
     2466500000    8.093930781e-02   -8.089804649e-02
     2467250000    8.706944436e-02   -7.382450998e-02
     2468000000    9.435711801e-02   -6.872059405e-02
     2468750000    9.947755188e-02   -6.103837490e-02
     2469500000    1.055295318e-01   -5.447019637e-02
     2470250000    1.105984971e-01   -4.604367912e-02
     2471000000    1.149590760e-01   -3.821167722e-02
     2471750000    1.180226356e-01   -2.988433838e-02
     2472500000    1.213654354e-01   -2.184295096e-02
     2473250000    1.233109608e-01   -1.230868883e-02
     2474000000    1.262884140e-01   -3.480313579e-03
     2474750000    1.260517836e-01    5.453811958e-03
     2475500000    1.269380748e-01    1.458992995e-02
     2476250000    1.254831702e-01    2.392257936e-02
     2477000000    1.249773428e-01    3.270267695e-02
     2477750000    1.221880391e-01    4.175401106e-02
     2478500000    1.196996793e-01    5.146779492e-02
     2479250000    1.156800017e-01    5.963028222e-02
     2480000000    1.116775051e-01    6.858364493e-02
     2480750000    1.058645323e-01    7.656612992e-02
     2481500000    9.944324940e-02    8.439808339e-02
     2482250000    9.352746606e-02    9.213821590e-02
     2483000000    8.599161357e-02    9.975558519e-02
     2483750000    7.874955237e-02    1.061503291e-01
     2484500000    7.035044581e-02    1.120417789e-01
     2485250000    6.114036962e-02    1.177261993e-01
     2486000000    5.171287060e-02    1.223496646e-01
     2486750000    4.209705815e-02    1.268605888e-01
     2487500000    3.226082399e-02    1.296566129e-01
     2488250000    2.194773220e-02    1.331426203e-01
     2489000000    1.068931073e-02    1.348786056e-01
     2489750000    6.924948539e-04    1.351095587e-01
     2490500000   -1.070277486e-02    1.356848180e-01
     2491250000   -2.197568677e-02    1.362342238e-01
     2492000000   -3.184250742e-02    1.329417825e-01
     2492750000   -4.304316267e-02    1.307995617e-01
     2493500000   -5.441761762e-02    1.280211806e-01
     2494250000   -6.441532075e-02    1.238405257e-01
     2495000000   -7.412109524e-02    1.172261015e-01
     2495750000   -8.474122733e-02    1.120394170e-01
     2496500000   -9.369196743e-02    1.048664600e-01
     2497250000   -1.034122407e-01    9.766560048e-02
     2498000000   -1.115057170e-01    9.041243792e-02
     2498750000   -1.200203598e-01    8.064323664e-02
     2499500000   -1.269470304e-01    7.063275576e-02
     2500250000   -1.327744275e-01    6.080831215e-02
     2501000000   -1.407625526e-01    4.937083647e-02
     2501750000   -1.450695843e-01    3.790213168e-02
     2502500000   -1.474259496e-01    2.694769576e-02
     2503250000   -1.516085714e-01    1.415820979e-02
     2504000000   -1.547638029e-01    1.274448005e-03
     2504750000   -1.540591419e-01   -1.003398467e-02
     2505500000   -1.555545181e-01   -2.471338212e-02
     2506250000   -1.543507427e-01   -3.553959355e-02
     2507000000   -1.528969854e-01   -5.102931708e-02
     2507750000   -1.494881064e-01   -6.158990040e-02
     2508500000   -1.463806331e-01   -7.431173325e-02
     2509250000   -1.410837024e-01   -8.653461188e-02
     2510000000   -1.355900168e-01   -9.948953241e-02
     2510750000   -1.275942475e-01   -1.083451435e-01
     2511500000   -1.204218119e-01   -1.212722808e-01
     2512250000   -1.106442362e-01   -1.314847916e-01
     2513000000   -1.011704057e-01   -1.407551914e-01
     2513750000   -9.059863538e-02   -1.487858444e-01
     2514500000   -7.964456826e-02   -1.542000622e-01
     2515250000   -6.638658792e-02   -1.637785882e-01
     2516000000   -5.406859890e-02   -1.691832393e-01
     2516750000   -4.051534459e-02   -1.749844551e-01
     2517500000   -2.600284480e-02   -1.787099093e-01
     2518250000   -1.268532220e-02   -1.810418665e-01
     2519000000    1.372395083e-03   -1.825945377e-01
     2519750000    1.856624708e-02   -1.842252314e-01
     2520500000    3.377548978e-02   -1.839136183e-01
     2521250000    4.607198387e-02   -1.813255847e-01
     2522000000    6.313641369e-02   -1.788740605e-01
     2522750000    7.781554013e-02   -1.742229164e-01
     2523500000    9.146317840e-02   -1.695758253e-01
     2524250000    1.074918658e-01   -1.629406661e-01
     2525000000    1.182342693e-01   -1.558674574e-01
     2525750000    1.339150369e-01   -1.464881003e-01
     2526500000    1.440327018e-01   -1.367800981e-01
     2527250000    1.560989767e-01   -1.255220622e-01
     2528000000    1.660520136e-01   -1.146436036e-01
     2528750000    1.758514643e-01   -1.012490690e-01
     2529500000    1.846272498e-01   -8.818268776e-02
     2530250000    1.925010383e-01   -7.313750684e-02
     2531000000    1.982518286e-01   -5.856121331e-02
     2531750000    2.041743398e-01   -4.320109263e-02
     2532500000    2.082321048e-01   -2.634589002e-02
     2533250000    2.105354518e-01   -1.022044756e-02
     2534000000    2.122512907e-01    5.828197114e-03
     2534750000    2.123380750e-01    2.412084676e-02
     2535500000    2.109633386e-01    3.874971345e-02
     2536250000    2.083090991e-01    5.669310316e-02
     2537000000    2.046948969e-01    7.377136499e-02
     2537750000    1.996160001e-01    9.055688977e-02
     2538500000    1.920686960e-01    1.052756980e-01
     2539250000    1.839326471e-01    1.195538864e-01
     2540000000    1.741649210e-01    1.353441030e-01
     2540750000    1.633513123e-01    1.497487724e-01
     2541500000    1.520858705e-01    1.632466018e-01
     2542250000    1.402496845e-01    1.748393625e-01
     2543000000    1.250526756e-01    1.869597733e-01
     2543750000    1.104864553e-01    1.960459799e-01
     2544500000    9.433545172e-02    2.050766945e-01
     2545250000    7.782313973e-02    2.120417804e-01
     2546000000    6.092530861e-02    2.182449102e-01
     2546750000    4.469468445e-02    2.228966802e-01
     2547500000    2.591679431e-02    2.262888998e-01
     2548250000    5.801045336e-03    2.295691818e-01
     2549000000   -1.270656753e-02    2.294252664e-01
     2549750000   -2.742430009e-02    2.286058962e-01
     2550500000   -4.944079742e-02    2.255766839e-01
     2551250000   -6.783960015e-02    2.221043110e-01
     2552000000   -8.544766158e-02    2.159544975e-01
     2552750000   -1.017640755e-01    2.098507285e-01
     2553500000   -1.191392615e-01    2.006115466e-01
     2554250000   -1.370185763e-01    1.901888698e-01
     2555000000   -1.504233629e-01    1.795931309e-01
     2555750000   -1.628465056e-01    1.689209938e-01
     2556500000   -1.793212742e-01    1.542844325e-01
     2557250000   -1.914540976e-01    1.387155950e-01
     2558000000   -2.044499069e-01    1.219378486e-01
     2558750000   -2.113522887e-01    1.072809026e-01
     2559500000   -2.215326279e-01    8.778622746e-02
     2560250000   -2.290734798e-01    6.610889733e-02
     2561000000   -2.335629761e-01    5.178672075e-02
     2561750000   -2.379103005e-01    3.035832196e-02
     2562500000   -2.400582433e-01    1.253898162e-02
     2563250000   -2.407630086e-01   -9.335625917e-03
     2564000000   -2.389823943e-01   -2.968578413e-02
     2564750000   -2.378912717e-01   -4.723185673e-02
     2565500000   -2.330016047e-01   -6.849629432e-02
     2566250000   -2.284008563e-01   -8.544124663e-02
     2567000000   -2.208213508e-01   -1.060387418e-01
     2567750000   -2.124815434e-01   -1.236848682e-01
     2568500000   -2.001332045e-01   -1.422419250e-01
     2569250000   -1.894225329e-01   -1.587585062e-01
     2570000000   -1.763779223e-01   -1.751728952e-01
     2570750000   -1.622053385e-01   -1.889619231e-01
     2571500000   -1.459960788e-01   -2.028152496e-01
     2572250000   -1.291959584e-01   -2.145774961e-01
     2573000000   -1.121604070e-01   -2.260431945e-01
     2573750000   -9.252335876e-02   -2.342346311e-01
     2574500000   -7.281243801e-02   -2.416630238e-01
     2575250000   -5.399493873e-02   -2.485428900e-01
     2576000000   -3.189071640e-02   -2.533515394e-01
     2576750000   -1.437689271e-02   -2.554993927e-01
     2577500000    8.645779453e-03   -2.556405067e-01
     2578250000    2.938601933e-02   -2.556700408e-01
     2579000000    5.079574510e-02   -2.531833351e-01
     2579750000    6.966710091e-02   -2.484644204e-01
     2580500000    8.887205273e-02   -2.435636073e-01
     2581250000    1.100023240e-01   -2.345968038e-01
     2582000000    1.279283315e-01   -2.255840898e-01
     2582750000    1.487822533e-01   -2.133102715e-01
     2583500000    1.629431397e-01   -2.024445087e-01
     2584250000    1.815427244e-01   -1.862486452e-01
     2585000000    1.936818808e-01   -1.735378504e-01
     2585750000    2.093905658e-01   -1.555815935e-01
     2586500000    2.211000919e-01   -1.382820457e-01
     2587250000    2.332338095e-01   -1.180899069e-01
     2588000000    2.398992777e-01   -1.012047976e-01
     2588750000    2.487216890e-01   -7.949345559e-02
     2589500000    2.543537319e-01   -5.678218976e-02
     2590250000    2.573799193e-01   -3.976242244e-02
     2591000000    2.605564892e-01   -1.667042449e-02
     2591750000    2.597641647e-01    7.071709260e-03
     2592500000    2.582256794e-01    2.811442129e-02
     2593250000    2.545297146e-01    4.927773401e-02
     2594000000    2.496276051e-01    7.255591452e-02
     2594750000    2.434861362e-01    9.083554149e-02
     2595500000    2.329325825e-01    1.133786291e-01
     2596250000    2.239404917e-01    1.313014477e-01
     2597000000    2.109629959e-01    1.504648775e-01
     2597750000    1.986637563e-01    1.677208245e-01
     2598500000    1.808507740e-01    1.860181540e-01
     2599250000    1.668153703e-01    1.982495189e-01
     2600000000    1.471350938e-01    2.131971419e-01
