! NanoVNA-App
! Date: 2026-05-22 16:39:36
! Start: 4.8GHz Stop: 6GHz Points: 401
! S-Parameter data: F S11
# Hz S RI R 50
!     Frequency           S11_Real           S11_Imag
     4800000000   -2.432716787e-01   -4.701744318e-01
     4803000000   -7.155307382e-02   -5.222685337e-01
     4806000000    1.139923185e-01   -5.136945844e-01
     4809000000    2.761158943e-01   -4.453885853e-01
     4812000000    4.116516411e-01   -3.229159415e-01
     4815000000    4.907062948e-01   -1.673003286e-01
     4818000000    5.202809572e-01    1.219601650e-02
     4821000000    4.818350375e-01    1.797614098e-01
     4824000000    3.916108608e-01    3.358897865e-01
     4827000000    2.484332770e-01    4.549280703e-01
     4830000000    8.916287124e-02    5.031256676e-01
     4833000000   -8.813477308e-02    5.015492439e-01
     4836000000   -2.497394681e-01    4.394336343e-01
     4839000000   -3.824587166e-01    3.283320367e-01
     4842000000   -4.713155031e-01    1.755549163e-01
     4845000000   -4.970947206e-01    1.281064842e-02
     4848000000   -4.692498446e-01   -1.618809104e-01
     4851000000   -3.860726655e-01   -3.111998439e-01
     4854000000   -2.533181608e-01   -4.254225492e-01
     4857000000   -1.063691229e-01   -4.782764018e-01
     4860000000    7.247038931e-02   -4.858532846e-01
     4863000000    2.237576842e-01   -4.325815439e-01
     4866000000    3.568795919e-01   -3.296239674e-01
     4869000000    4.525199533e-01   -1.773331910e-01
     4872000000    4.790973961e-01   -2.841787972e-02
     4875000000    4.576316774e-01    1.424702406e-01
     4878000000    3.847873211e-01    2.791090906e-01
     4881000000    2.530834377e-01    4.031900167e-01
     4884000000    1.126999483e-01    4.584696293e-01
     4887000000   -5.286086723e-02    4.677872658e-01
     4890000000   -2.057856470e-01    4.212650657e-01
     4893000000   -3.356122971e-01    3.242397606e-01
     4896000000   -4.233818948e-01    1.889367402e-01
     4899000000   -4.599604607e-01    3.209009394e-02
     4902000000   -4.410927892e-01   -1.233163476e-01
     4905000000   -3.704496622e-01   -2.635446191e-01
     4908000000   -2.550148666e-01   -3.708571196e-01
     4911000000   -1.131167784e-01   -4.336660206e-01
     4914000000    3.845576197e-02   -4.443000853e-01
     4917000000    1.911358386e-01   -3.998949528e-01
     4920000000    3.083522916e-01   -3.148052096e-01
     4923000000    3.961387575e-01   -1.832242012e-01
     4926000000    4.335113466e-01   -3.391871601e-02
     4929000000    4.180229902e-01    1.047491878e-01
     4932000000    3.446649313e-01    2.549871504e-01
     4935000000    2.490525544e-01    3.453193009e-01
     4938000000    1.115659028e-01    4.087266922e-01
     4941000000   -4.559755698e-02    4.164557159e-01
     4944000000   -1.780281514e-01    3.769423962e-01
     4947000000   -2.912816703e-01    2.927095592e-01
     4950000000   -3.740153611e-01    1.694479585e-01
     4953000000   -4.088711441e-01    3.035133705e-02
     4956000000   -3.880210817e-01   -1.146642044e-01
     4959000000   -3.245399296e-01   -2.374060750e-01
     4962000000   -2.233851999e-01   -3.327381611e-01
     4965000000   -9.477119893e-02   -3.862542510e-01
     4968000000    4.337032512e-02   -3.923879564e-01
     4971000000    1.733246744e-01   -3.515131474e-01
     4974000000    2.825219035e-01   -2.646655738e-01
     4977000000    3.513069451e-01   -1.594172120e-01
     4980000000    3.799822330e-01   -1.980820484e-02
     4983000000    3.586346507e-01    1.140136942e-01
     4986000000    3.019222617e-01    2.238434851e-01
     4989000000    1.990325451e-01    3.138428032e-01
     4992000000    6.998034567e-02    3.569416404e-01
     4995000000   -4.328351468e-02    3.631043732e-01
     4998000000   -1.701688319e-01    3.182782531e-01
     5001000000   -2.704686821e-01    2.325618267e-01
     5004000000   -3.321804404e-01    1.340057254e-01
     5007000000   -3.455702662e-01    5.020999815e-03
     5010000000   -3.241739571e-01   -1.137295812e-01
     5013000000   -2.640058696e-01   -2.190229893e-01
     5016000000   -1.650264859e-01   -2.909278870e-01
     5019000000   -5.825993791e-02   -3.311577141e-01
     5022000000    5.691427737e-02   -3.274169564e-01
     5025000000    1.675195545e-01   -2.786985934e-01
     5028000000    2.513459623e-01   -1.991867870e-01
     5031000000    3.006419539e-01   -1.004668921e-01
     5034000000    3.121555150e-01    1.142901368e-02
     5037000000    2.855925262e-01    1.158809811e-01
     5040000000    2.263979167e-01    2.050226778e-01
     5043000000    1.349478960e-01    2.645618021e-01
     5046000000    3.273488209e-02    2.900014520e-01
     5049000000   -6.630917639e-02    2.825410962e-01
     5052000000   -1.604540199e-01    2.377168089e-01
     5055000000   -2.276422828e-01    1.641121507e-01
     5058000000   -2.649759948e-01    7.136116177e-02
     5061000000   -2.673127353e-01   -2.509163693e-02
     5064000000   -2.382010520e-01   -1.142091528e-01
     5067000000   -1.780198812e-01   -1.868104935e-01
     5070000000   -9.972181171e-02   -2.315742970e-01
     5073000000   -1.170776132e-02   -2.475476414e-01
     5076000000    7.555720210e-02   -2.307270467e-01
     5079000000    1.466967165e-01   -1.845753491e-01
     5082000000    1.983854026e-01   -1.187790185e-01
     5085000000    2.197823524e-01   -4.007805511e-02
     5088000000    2.127714306e-01    3.921938688e-02
     5091000000    1.805726737e-01    1.098309830e-01
     5094000000    1.274217516e-01    1.634249687e-01
     5097000000    5.776268989e-02    1.916214973e-01
     5100000000   -1.405681763e-02    1.951166540e-01
     5103000000   -8.241364360e-02    1.705900878e-01
     5106000000   -1.300362945e-01    1.250891089e-01
     5109000000   -1.681899428e-01    6.794868410e-02
     5112000000   -1.739193946e-01    3.538205987e-03
     5115000000   -1.544784606e-01   -5.708578229e-02
     5118000000   -1.177459806e-01   -1.044628471e-01
     5121000000   -7.060161233e-02   -1.386649758e-01
     5124000000   -1.276653446e-02   -1.519867480e-01
     5127000000    4.157949239e-02   -1.365648061e-01
     5130000000    8.696974069e-02   -1.108193174e-01
     5133000000    1.151353344e-01   -6.624145806e-02
     5136000000    1.210670099e-01   -1.756050251e-02
     5139000000    1.195767745e-01    3.333528712e-02
     5142000000    9.113693237e-02    7.146280259e-02
     5145000000    5.388008058e-02    1.000341624e-01
     5148000000    1.036417857e-02    1.087988168e-01
     5151000000   -3.444079682e-02    1.015356705e-01
     5154000000   -6.784296036e-02    7.693547755e-02
     5157000000   -9.049977362e-02    4.187588766e-02
     5160000000   -9.673972428e-02    1.484597218e-03
     5163000000   -8.894963562e-02   -3.949129581e-02
     5166000000   -6.291842461e-02   -6.855114549e-02
     5169000000   -2.650696225e-02   -8.685015887e-02
     5172000000    1.186766848e-02   -9.159378707e-02
     5175000000    4.772270098e-02   -7.699026912e-02
     5178000000    7.614704221e-02   -5.166711658e-02
     5181000000    9.356276691e-02   -1.669396274e-02
     5184000000    8.972990513e-02    2.399795130e-02
     5187000000    7.106756419e-02    5.831526965e-02
     5190000000    4.583179206e-02    9.067996591e-02
     5193000000    5.959113594e-03    1.025930867e-01
     5196000000   -3.535114229e-02    9.422372282e-02
     5199000000   -7.518156618e-02    7.735356688e-02
     5202000000   -1.037743613e-01    4.631923139e-02
     5205000000   -1.138286367e-01    1.305675018e-03
     5208000000   -1.089359149e-01   -4.211008921e-02
     5211000000   -8.808126301e-02   -8.434312046e-02
     5214000000   -5.000102893e-02   -1.126042008e-01
     5217000000   -3.398517380e-03   -1.278130412e-01
     5220000000    4.591770470e-02   -1.245952994e-01
     5223000000    9.307792038e-02   -1.002511978e-01
     5226000000    1.285600215e-01   -6.166289374e-02
     5229000000    1.462364346e-01   -1.078983769e-02
     5232000000    1.450984925e-01    4.416379333e-02
     5235000000    1.195071861e-01    9.558147192e-02
     5238000000    7.830608636e-02    1.358422637e-01
     5241000000    2.601351216e-02    1.622347534e-01
     5244000000   -3.623016924e-02    1.569997072e-01
     5247000000   -9.472720325e-02    1.383261234e-01
     5250000000   -1.412935555e-01    9.768342972e-02
     5253000000   -1.675017625e-01    3.814068437e-02
     5256000000   -1.744979769e-01   -2.484830469e-02
     5259000000   -1.540919691e-01   -8.849163353e-02
     5262000000   -1.157895997e-01   -1.428618878e-01
     5265000000   -5.856875703e-02   -1.798812747e-01
     5268000000    9.163277224e-03   -1.829668134e-01
     5271000000    7.803195715e-02   -1.805106699e-01
     5274000000    1.365775764e-01   -1.387806982e-01
     5277000000    1.804693341e-01   -8.198605478e-02
     5280000000    1.962584406e-01   -1.145623345e-02
     5283000000    1.896323860e-01    6.268955022e-02
     5286000000    1.592606455e-01    1.294340640e-01
     5289000000    1.031933501e-01    1.793617904e-01
     5292000000    3.352946416e-02    2.056033164e-01
     5295000000   -4.302679747e-02    2.087781876e-01
     5298000000   -1.135421172e-01    1.776975244e-01
     5301000000   -1.746705621e-01    1.289519817e-01
     5304000000   -2.096069306e-01    5.922444537e-02
     5307000000   -2.169628143e-01   -1.880465262e-02
     5310000000   -1.977828741e-01   -9.776169807e-02
     5313000000   -1.508264691e-01   -1.636807621e-01
     5316000000   -8.225483447e-02   -2.104329765e-01
     5319000000   -3.360037925e-03   -2.246268541e-01
     5322000000    7.827867568e-02   -2.110420167e-01
     5325000000    1.484739780e-01   -1.705740094e-01
     5328000000    2.025076002e-01   -1.088864133e-01
     5331000000    2.271935493e-01   -2.894008905e-02
     5334000000    2.225414664e-01    5.326885357e-02
     5337000000    1.890812963e-01    1.274156123e-01
     5340000000    1.302442104e-01    1.883145273e-01
     5343000000    5.292880908e-02    2.218446285e-01
     5346000000   -2.964691259e-02    2.268206030e-01
     5349000000   -1.081828997e-01    2.012873590e-01
     5352000000   -1.746034324e-01    1.478222311e-01
     5355000000   -2.116480619e-01    7.720021158e-02
     5358000000   -2.280193120e-01   -5.255528726e-03
     5361000000   -2.106197327e-01   -8.849196136e-02
     5364000000   -1.679158509e-01   -1.618706584e-01
     5367000000   -9.794395417e-02   -2.122334242e-01
     5370000000   -2.168526128e-02   -2.187797129e-01
     5373000000    6.708365679e-02   -2.176267505e-01
     5376000000    1.341554821e-01   -1.759727001e-01
     5379000000    1.945599467e-01   -1.168280989e-01
     5382000000    2.245920151e-01   -3.804760799e-02
     5385000000    2.191688567e-01    4.473735020e-02
     5388000000    1.822639555e-01    1.101436317e-01
     5391000000    1.282748133e-01    1.849838495e-01
     5394000000    5.622866750e-02    2.111604512e-01
     5397000000   -3.038261272e-02    2.221243680e-01
     5400000000   -1.084098518e-01    1.936933696e-01
     5403000000   -1.645960063e-01    1.440937370e-01
     5406000000   -2.073468566e-01    7.217676938e-02
     5409000000   -2.172833383e-01   -5.912282038e-03
     5412000000   -1.997347027e-01   -8.575721830e-02
     5415000000   -1.534090042e-01   -1.517165303e-01
     5418000000   -8.734238148e-02   -1.924809217e-01
     5421000000   -8.782532066e-03   -2.114089578e-01
     5424000000    6.529089063e-02   -1.982485056e-01
     5427000000    1.318916976e-01   -1.603969187e-01
     5430000000    1.860073656e-01   -9.637396038e-02
     5433000000    2.064970136e-01   -2.446602844e-02
     5436000000    2.004604191e-01    4.991136864e-02
     5439000000    1.646957994e-01    1.285009682e-01
     5442000000    1.105523184e-01    1.691326201e-01
     5445000000    2.999273688e-02    2.032757103e-01
     5448000000   -3.650063649e-02    1.975751668e-01
     5451000000   -1.068922728e-01    1.680269986e-01
     5454000000   -1.633876562e-01    1.131564304e-01
     5457000000   -1.897921413e-01    4.887882248e-02
     5460000000   -1.952240914e-01   -3.198749572e-02
     5463000000   -1.699996442e-01   -1.009967625e-01
     5466000000   -1.205139831e-01   -1.556687057e-01
     5469000000   -5.674632266e-02   -1.895319819e-01
     5472000000    2.258991264e-02   -1.972954571e-01
     5475000000    9.039086103e-02   -1.760067344e-01
     5478000000    1.485860050e-01   -1.310247779e-01
     5481000000    1.854871362e-01   -6.687759608e-02
     5484000000    1.987104863e-01    1.352966204e-02
     5487000000    1.806403399e-01    8.060552180e-02
     5490000000    1.368165314e-01    1.435070187e-01
     5493000000    7.650193572e-02    1.844974011e-01
     5496000000    2.657217439e-03    1.984247714e-01
     5499000000   -7.127401233e-02    1.867286414e-01
     5502000000   -1.373715550e-01    1.443137079e-01
     5505000000   -1.799892783e-01    8.568624407e-02
     5508000000   -1.997304112e-01    1.297511067e-02
     5511000000   -1.903148890e-01   -6.207338721e-02
     5514000000   -1.542291343e-01   -1.264883578e-01
     5517000000   -9.125487506e-02   -1.787561327e-01
     5520000000   -2.036461607e-02   -2.004314363e-01
     5523000000    5.424876511e-02   -1.941241473e-01
     5526000000    1.265319437e-01   -1.579572260e-01
     5529000000    1.734513193e-01   -1.040851250e-01
     5532000000    2.018118650e-01   -2.536804229e-02
     5535000000    2.027230114e-01    4.108364880e-02
     5538000000    1.667505354e-01    1.232332140e-01
     5541000000    1.163393706e-01    1.735849082e-01
     5544000000    4.308382422e-02    2.039933354e-01
     5547000000   -3.792600706e-02    2.085414976e-01
     5550000000   -1.162463501e-01    1.780266315e-01
     5553000000   -1.736323088e-01    1.303973943e-01
     5556000000   -2.100865841e-01    5.532892421e-02
     5559000000   -2.172125876e-01   -3.148685023e-02
     5562000000   -1.954166889e-01   -1.070521250e-01
     5565000000   -1.442038417e-01   -1.727314889e-01
     5568000000   -7.200288773e-02   -2.158538550e-01
     5571000000    1.562310196e-02   -2.278461754e-01
     5574000000    9.574283659e-02   -2.106076926e-01
     5577000000    1.712791175e-01   -1.578176767e-01
     5580000000    2.188606113e-01   -8.993001282e-02
     5583000000    2.375372499e-01    3.023171303e-05
     5586000000    2.272515893e-01    8.398835361e-02
     5589000000    1.823371798e-01    1.633539349e-01
     5592000000    1.134520844e-01    2.207291126e-01
     5595000000    2.879823744e-02    2.483882308e-01
     5598000000   -6.157293916e-02    2.440912724e-01
     5601000000   -1.501386315e-01    2.020824552e-01
     5604000000   -2.158994675e-01    1.352733821e-01
     5607000000   -2.524886727e-01    5.172974244e-02
     5610000000   -2.550079525e-01   -4.399465024e-02
     5613000000   -2.197627574e-01   -1.371547580e-01
     5616000000   -1.593717188e-01   -2.077646852e-01
     5619000000   -7.326781005e-02   -2.540141642e-01
     5622000000    2.245863527e-02   -2.673512399e-01
     5625000000    1.193219200e-01   -2.409948856e-01
     5628000000    2.009307295e-01   -1.837272495e-01
     5631000000    2.557015419e-01   -1.058652475e-01
     5634000000    2.757875025e-01   -1.675146283e-03
     5637000000    2.634771764e-01    1.000823602e-01
     5640000000    2.040229738e-01    1.872738302e-01
     5643000000    1.310038865e-01    2.518853843e-01
     5646000000    3.136743605e-02    2.845267355e-01
     5649000000   -7.300586998e-02    2.779839039e-01
     5652000000   -1.672343910e-01    2.356031835e-01
     5655000000   -2.434770018e-01    1.568962634e-01
     5658000000   -2.858624160e-01    6.074969098e-02
     5661000000   -2.819380760e-01   -4.376008362e-02
     5664000000   -2.574044168e-01   -1.470519453e-01
     5667000000   -1.898035407e-01   -2.278224379e-01
     5670000000   -9.763326496e-02   -2.862807810e-01
     5673000000    1.306611020e-02   -3.035662770e-01
     5676000000    1.195803136e-01   -2.737071216e-01
     5679000000    2.148983777e-01   -2.185636312e-01
     5682000000    2.770476043e-01   -1.244793981e-01
     5685000000    3.022269309e-01   -1.765273698e-02
     5688000000    2.955326140e-01    9.079514444e-02
     5691000000    2.419092208e-01    1.917911917e-01
     5694000000    1.579999030e-01    2.720445096e-01
     5697000000    5.225979537e-02    3.101333976e-01
     5700000000   -6.172461435e-02    3.050663471e-01
     5703000000   -1.668407619e-01    2.610381246e-01
     5706000000   -2.598823905e-01    1.900586039e-01
     5709000000   -2.978215814e-01    8.370588720e-02
     5712000000   -3.141236305e-01   -2.847726829e-02
     5715000000   -2.909059227e-01   -1.438188106e-01
     5718000000   -2.142352611e-01   -2.317348123e-01
     5721000000   -1.179806292e-01   -2.960202098e-01
     5724000000   -5.971028470e-03   -3.152804673e-01
     5727000000    1.130044013e-01   -3.082230091e-01
     5730000000    2.150543779e-01   -2.450353801e-01
     5733000000    2.870571315e-01   -1.499846131e-01
     5736000000    3.159475625e-01   -3.689981624e-02
     5739000000    3.194322884e-01    8.057387918e-02
     5742000000    2.682065070e-01    1.881918758e-01
     5745000000    1.840171367e-01    2.687457204e-01
     5748000000    7.792590559e-02    3.210067153e-01
     5751000000   -4.414449632e-02    3.271677494e-01
     5754000000   -1.609358788e-01    2.968806326e-01
     5757000000   -2.547197044e-01    2.159106880e-01
     5760000000   -3.232061863e-01    1.106159613e-01
     5763000000   -3.261380792e-01   -3.922497854e-04
     5766000000   -3.189176619e-01   -1.330032200e-01
     5769000000   -2.466870844e-01   -2.261930704e-01
     5772000000   -1.509848386e-01   -2.959503829e-01
     5775000000   -3.161857650e-02   -3.383345306e-01
     5778000000    9.254018217e-02   -3.337859213e-01
     5781000000    2.059338689e-01   -2.797866166e-01
     5784000000    2.772819102e-01   -1.881742030e-01
     5787000000    3.406762779e-01   -7.208042592e-02
     5790000000    3.384723067e-01    4.727223143e-02
     5793000000    3.019811213e-01    1.646202356e-01
     5796000000    2.239366472e-01    2.602035701e-01
     5799000000    1.188126802e-01    3.233291805e-01
     5802000000   -4.133845214e-03    3.442089856e-01
     5805000000   -1.179989278e-01    3.175524771e-01
     5808000000   -2.368304431e-01    2.565496266e-01
     5811000000   -3.032154739e-01    1.591781676e-01
     5814000000   -3.449043036e-01    3.813311458e-02
     5817000000   -3.326790631e-01   -8.446362615e-02
     5820000000   -2.806902826e-01   -2.000035197e-01
     5823000000   -1.924497038e-01   -2.743312418e-01
     5826000000   -7.734266669e-02   -3.334488273e-01
     5829000000    5.069952831e-02   -3.427208960e-01
     5832000000    1.510034651e-01   -2.987628281e-01
     5835000000    2.515998781e-01   -2.223496437e-01
     5838000000    3.200958669e-01   -1.145782843e-01
     5841000000    3.314400315e-01   -5.701477174e-03
     5844000000    3.175411820e-01    1.273006797e-01
     5847000000    2.522456646e-01    2.139046490e-01
     5850000000    1.579918414e-01    2.918357849e-01
     5853000000    4.617452621e-02    3.260087669e-01
     5856000000   -7.013889402e-02    3.188776076e-01
     5859000000   -1.769818217e-01    2.717677355e-01
     5862000000   -2.655484676e-01    1.875352114e-01
     5865000000   -3.100343049e-01    8.601338416e-02
     5868000000   -3.164484799e-01   -2.935601398e-02
     5871000000   -2.840688229e-01   -1.436154544e-01
     5874000000   -2.208155096e-01   -2.239390463e-01
     5877000000   -1.131634563e-01   -2.962668240e-01
     5880000000   -2.184032090e-02   -3.082509637e-01
     5883000000    9.819508344e-02   -2.924558222e-01
     5886000000    1.986243576e-01   -2.331636697e-01
     5889000000    2.532607019e-01   -1.601673216e-01
     5892000000    2.886506021e-01   -6.069587171e-02
     5895000000    2.873836458e-01    5.408001319e-02
     5898000000    2.448327988e-01    1.568781883e-01
     5901000000    1.808618158e-01    2.174995840e-01
     5904000000    8.614166826e-02    2.647794783e-01
     5907000000   -5.539746024e-03    2.750068605e-01
     5910000000   -1.175827831e-01    2.465795279e-01
     5913000000   -1.838870496e-01    1.935585588e-01
     5916000000   -2.323801070e-01    1.226455718e-01
     5919000000   -2.593902647e-01    2.180499025e-02
     5922000000   -2.449687719e-01   -7.611223310e-02
     5925000000   -2.046739459e-01   -1.478531212e-01
     5928000000   -1.356525868e-01   -2.043132484e-01
     5931000000   -5.539473891e-02   -2.314508408e-01
     5934000000    2.428829297e-02   -2.324855924e-01
     5937000000    9.407170117e-02   -2.082410008e-01
     5940000000    1.663643867e-01   -1.450813860e-01
     5943000000    1.998039633e-01   -7.990772277e-02
     5946000000    2.097097337e-01   -9.529467672e-03
     5949000000    1.865374595e-01    7.538493723e-02
     5952000000    1.531489342e-01    1.235972792e-01
     5955000000    8.110459894e-02    1.705627292e-01
     5958000000    3.995263949e-02    1.825353801e-01
     5961000000   -4.180013016e-02    1.727761477e-01
     5964000000   -9.708585590e-02    1.376789659e-01
     5967000000   -1.317071468e-01    9.823799133e-02
     5970000000   -1.512168199e-01    3.758522123e-02
     5973000000   -1.470340788e-01   -2.221573144e-02
     5976000000   -1.272121966e-01   -6.756533682e-02
     5979000000   -9.144020826e-02   -1.035177931e-01
     5982000000   -5.038305745e-02   -1.228980720e-01
     5985000000    4.880166962e-04   -1.258719862e-01
     5988000000    5.309965461e-02   -1.005537063e-01
     5991000000    7.589951158e-02   -8.151146024e-02
     5994000000    9.590820968e-02   -2.916423604e-02
     5997000000    9.893756360e-02   -8.105415851e-03
     6000000000    8.046989143e-02    3.500761092e-02
