! NanoVNA-App
! Date: 2026-05-22 18:16:38
! Start: 4.8GHz Stop: 6GHz Points: 401
! S-Parameter data: F S11
# Hz S RI R 50
!     Frequency           S11_Real           S11_Imag
     4800000000    5.108079407e-03   -5.444054008e-01
     4803000000    1.905427575e-01   -5.099723935e-01
     4806000000    3.470789492e-01   -4.153766930e-01
     4809000000    4.672783613e-01   -2.743102908e-01
     4812000000    5.310524106e-01   -9.735977650e-02
     4815000000    5.299561024e-01    8.745484054e-02
     4818000000    4.694696963e-01    2.581991553e-01
     4821000000    3.537490368e-01    4.002557695e-01
     4824000000    1.980260760e-01    4.954767525e-01
     4827000000    2.209116891e-02    5.282403827e-01
     4830000000   -1.541735977e-01    5.018592477e-01
     4833000000   -3.167774379e-01    4.192132950e-01
     4836000000   -4.395589232e-01    2.867572606e-01
     4839000000   -5.047226548e-01    1.248359159e-01
     4842000000   -5.177411437e-01   -5.255942047e-02
     4845000000   -4.683480263e-01   -2.279839218e-01
     4848000000   -3.631877005e-01   -3.676290214e-01
     4851000000   -2.228048742e-01   -4.585964978e-01
     4854000000   -5.492137000e-02   -5.062278509e-01
     4857000000    1.264804602e-01   -4.949474037e-01
     4860000000    2.737663984e-01   -4.243218899e-01
     4863000000    3.996983171e-01   -3.053489327e-01
     4866000000    4.765400589e-01   -1.536056697e-01
     4869000000    4.976204038e-01    1.887617819e-02
     4872000000    4.599310160e-01    1.840989441e-01
     4875000000    3.719722629e-01    3.199472725e-01
     4878000000    2.354031950e-01    4.298318624e-01
     4881000000    8.154751360e-02    4.780296981e-01
     4884000000   -8.181388676e-02    4.780749977e-01
     4887000000   -2.299747020e-01    4.193017781e-01
     4890000000   -3.711618781e-01    3.071967661e-01
     4893000000   -4.409029484e-01    1.760394573e-01
     4896000000   -4.712368250e-01    1.078580879e-02
     4899000000   -4.451464713e-01   -1.496353596e-01
     4902000000   -3.675816059e-01   -2.881923318e-01
     4905000000   -2.483050525e-01   -3.933143914e-01
     4908000000   -9.699484706e-02   -4.524539709e-01
     4911000000    5.937512219e-02   -4.570344090e-01
     4914000000    2.046258748e-01   -4.067300856e-01
     4917000000    3.295232356e-01   -3.124811649e-01
     4920000000    4.148989320e-01   -1.803545654e-01
     4923000000    4.487256408e-01   -2.741194330e-02
     4926000000    4.291146398e-01    1.193249673e-01
     4929000000    3.587408960e-01    2.648498714e-01
     4932000000    2.488473952e-01    3.680588603e-01
     4935000000    1.194749027e-01    4.213758409e-01
     4938000000   -3.975400329e-02    4.350247681e-01
     4941000000   -1.865852773e-01    3.904630244e-01
     4944000000   -2.996648252e-01    3.093655109e-01
     4947000000   -3.857243061e-01    1.886453927e-01
     4950000000   -4.255467355e-01    2.803483419e-02
     4953000000   -4.089010954e-01   -1.114333495e-01
     4956000000   -3.471304178e-01   -2.372571975e-01
     4959000000   -2.440041751e-01   -3.383662105e-01
     4962000000   -1.090246215e-01   -4.001716375e-01
     4965000000    2.954677306e-02   -4.129342139e-01
     4968000000    1.679311544e-01   -3.735094368e-01
     4971000000    2.860042155e-01   -2.881267071e-01
     4974000000    3.658367097e-01   -1.701160073e-01
     4977000000    3.992984295e-01   -3.554735705e-02
     4980000000    3.899067342e-01    9.578549117e-02
     4983000000    3.251455128e-01    2.288681716e-01
     4986000000    2.277440727e-01    3.212613761e-01
     4989000000    1.035315096e-01    3.795014024e-01
     4992000000   -3.171871230e-02    3.901751935e-01
     4995000000   -1.675010771e-01    3.471378684e-01
     4998000000   -2.712510824e-01    2.737351954e-01
     5001000000   -3.508635163e-01    1.504102945e-01
     5004000000   -3.795547485e-01    2.500280179e-02
     5007000000   -3.620101511e-01   -1.039390713e-01
     5010000000   -2.984504700e-01   -2.225684822e-01
     5013000000   -2.103129327e-01   -3.077664077e-01
     5016000000   -8.994551003e-02   -3.581389785e-01
     5019000000    5.283300206e-02   -3.569756746e-01
     5022000000    1.631131172e-01   -3.231995702e-01
     5025000000    2.661169767e-01   -2.396858186e-01
     5028000000    3.294109404e-01   -1.276382953e-01
     5031000000    3.525291383e-01   -1.108486112e-02
     5034000000    3.316009641e-01    1.135801226e-01
     5037000000    2.707219124e-01    2.189401239e-01
     5040000000    1.737646163e-01    2.969771028e-01
     5043000000    5.904001743e-02    3.347125351e-01
     5046000000   -6.102797017e-02    3.309580982e-01
     5049000000   -1.702447385e-01    2.864332795e-01
     5052000000   -2.581950128e-01    2.010893822e-01
     5055000000   -3.098634481e-01    1.055910215e-01
     5058000000   -3.235679865e-01   -1.003089175e-02
     5061000000   -2.975901365e-01   -1.196929738e-01
     5064000000   -2.309112549e-01   -2.133566439e-01
     5067000000   -1.416476965e-01   -2.780477703e-01
     5070000000   -3.435830772e-02   -3.061515987e-01
     5073000000    7.677463442e-02   -2.930155396e-01
     5076000000    1.730920821e-01   -2.440413833e-01
     5079000000    2.453726381e-01   -1.659256071e-01
     5082000000    2.876403034e-01   -7.024902850e-02
     5085000000    2.877310216e-01    3.552844375e-02
     5088000000    2.564738393e-01    1.313402206e-01
     5091000000    1.905624419e-01    2.098809481e-01
     5094000000    1.007031947e-01    2.591131330e-01
     5097000000    1.184621244e-03    2.740606368e-01
     5100000000   -9.431679547e-02    2.562280893e-01
     5103000000   -1.762352437e-01    2.002370209e-01
     5106000000   -2.314734906e-01    1.232617125e-01
     5109000000   -2.579529583e-01    3.110653721e-02
     5112000000   -2.497219890e-01   -5.954090133e-02
     5115000000   -2.131319940e-01   -1.424954385e-01
     5118000000   -1.437151283e-01   -2.025368661e-01
     5121000000   -6.013073772e-02   -2.388769984e-01
     5124000000    2.682096884e-02   -2.446720451e-01
     5127000000    1.094528139e-01   -2.091386914e-01
     5130000000    1.754948795e-01   -1.563648880e-01
     5133000000    2.119517028e-01   -8.214575797e-02
     5136000000    2.287188768e-01   -2.186103025e-03
     5139000000    2.102830261e-01    7.992085814e-02
     5142000000    1.648578048e-01    1.430253237e-01
     5145000000    1.021943763e-01    1.933930069e-01
     5148000000    2.565170079e-02    2.105641216e-01
     5151000000   -4.871247709e-02    2.001004368e-01
     5154000000   -1.142196357e-01    1.659387946e-01
     5157000000   -1.637765020e-01    1.112739444e-01
     5160000000   -1.882925481e-01    4.433417693e-02
     5163000000   -1.873206198e-01   -2.455444448e-02
     5166000000   -1.613500267e-01   -8.782304823e-02
     5169000000   -1.153431758e-01   -1.336394399e-01
     5172000000   -5.518030748e-02   -1.665503532e-01
     5175000000    7.472750265e-03   -1.680994183e-01
     5178000000    6.851718575e-02   -1.511636078e-01
     5181000000    1.105181053e-01   -1.105032489e-01
     5184000000    1.396257579e-01   -5.945691094e-02
     5187000000    1.472946703e-01   -4.607469309e-03
     5190000000    1.354190707e-01    5.262124166e-02
     5193000000    1.016947180e-01    9.198095649e-02
     5196000000    5.764098093e-02    1.212978885e-01
     5199000000    6.475615781e-03    1.290494949e-01
     5202000000   -4.633203149e-02    1.221558824e-01
     5205000000   -7.919796556e-02    9.108203650e-02
     5208000000   -1.040033400e-01    5.077627301e-02
     5211000000   -1.107015237e-01    7.042420097e-03
     5214000000   -1.022436693e-01   -3.754391521e-02
     5217000000   -7.706572860e-02   -7.285620272e-02
     5220000000   -3.992893919e-02   -9.468618035e-02
     5223000000    3.089900594e-03   -1.008276865e-01
     5226000000    4.151576757e-02   -9.044335037e-02
     5229000000    7.491171360e-02   -6.369367987e-02
     5232000000    9.298700839e-02   -2.808061801e-02
     5235000000    9.507305175e-02    1.117262896e-02
     5238000000    8.033503592e-02    4.783382639e-02
     5241000000    5.376578495e-02    7.340491563e-02
     5244000000    1.792403869e-02    9.103962779e-02
     5247000000   -2.191501297e-02    9.340848774e-02
     5250000000   -5.579940230e-02    7.300092280e-02
     5253000000   -7.973261923e-02    4.366698861e-02
     5256000000   -9.696658701e-02    6.540559698e-03
     5259000000   -9.009936452e-02   -3.313362226e-02
     5262000000   -7.458756119e-02   -7.144170254e-02
     5265000000   -3.815184534e-02   -9.170778841e-02
     5268000000   -1.334982575e-03   -1.106428504e-01
     5271000000    4.167973995e-02   -1.026937068e-01
     5274000000    7.680226117e-02   -8.173938096e-02
     5277000000    1.153203547e-01   -5.007325485e-02
     5280000000    1.105984747e-01   -3.325955011e-03
     5283000000    1.126391590e-01    4.435065016e-02
     5286000000    8.701751381e-02    8.638872951e-02
     5289000000    4.842857644e-02    1.125070229e-01
     5292000000    3.277170472e-03    1.305107325e-01
     5295000000   -4.784556851e-02    1.250084341e-01
     5298000000   -9.179013222e-02    9.862323850e-02
     5301000000   -1.242059544e-01    5.825060233e-02
     5304000000   -1.409548223e-01    7.243575528e-03
     5307000000   -1.385971010e-01   -4.840624705e-02
     5310000000   -1.114350185e-01   -9.848532826e-02
     5313000000   -6.961316615e-02   -1.386923492e-01
     5316000000   -1.248329598e-02   -1.534924358e-01
     5319000000    4.697737843e-02   -1.534230262e-01
     5322000000    1.006410271e-01   -1.309678555e-01
     5325000000    1.463230401e-01   -8.838112652e-02
     5328000000    1.704947501e-01   -2.912481688e-02
     5331000000    1.765561104e-01    3.540869057e-02
     5334000000    1.573007554e-01    1.000637561e-01
     5337000000    1.118820384e-01    1.496966481e-01
     5340000000    5.191984400e-02    1.818198711e-01
     5343000000   -1.647760160e-02    1.915515065e-01
     5346000000   -8.499037474e-02    1.753191054e-01
     5349000000   -1.439653784e-01    1.360100806e-01
     5352000000   -1.831389815e-01    7.499073446e-02
     5355000000   -1.993672848e-01    6.262643263e-03
     5358000000   -1.972337216e-01   -6.990164518e-02
     5361000000   -1.546460539e-01   -1.320030093e-01
     5364000000   -9.806176275e-02   -1.762203276e-01
     5367000000   -2.748817950e-02   -1.984501481e-01
     5370000000    4.832673445e-02   -2.083277553e-01
     5373000000    1.166739687e-01   -1.720006168e-01
     5376000000    1.757931858e-01   -1.184584275e-01
     5379000000    2.030151337e-01   -4.750682414e-02
     5382000000    1.980330795e-01    2.539589629e-02
     5385000000    1.824569553e-01    1.013286188e-01
     5388000000    1.342128217e-01    1.646675318e-01
     5391000000    7.011402398e-02    2.002880424e-01
     5394000000   -6.075457204e-03    2.146207094e-01
     5397000000   -8.821421862e-02    1.994412839e-01
     5400000000   -1.550700217e-01    1.550213546e-01
     5403000000   -1.940264553e-01    9.027555585e-02
     5406000000   -2.153724283e-01    1.134458277e-02
     5409000000   -2.068498582e-01   -6.958916038e-02
     5412000000   -1.640700251e-01   -1.357749850e-01
     5415000000   -1.035313532e-01   -1.917072237e-01
     5418000000   -2.878501266e-02   -2.154471129e-01
     5421000000    5.458992347e-02   -2.149807215e-01
     5424000000    1.220342591e-01   -1.801431626e-01
     5427000000    1.734319776e-01   -1.239628717e-01
     5430000000    2.166502178e-01   -4.750531912e-02
     5433000000    2.155022472e-01    3.190245107e-02
     5436000000    1.877717823e-01    1.077255830e-01
     5439000000    1.355844289e-01    1.648582369e-01
     5442000000    6.363378465e-02    2.080747932e-01
     5445000000   -1.711418480e-02    2.149963677e-01
     5448000000   -8.649691194e-02    1.921198815e-01
     5451000000   -1.565415561e-01    1.464726031e-01
     5454000000   -2.025698572e-01    7.639405131e-02
     5457000000   -2.153523564e-01    8.276887820e-04
     5460000000   -2.025258541e-01   -7.750686258e-02
     5463000000   -1.592216939e-01   -1.424865127e-01
     5466000000   -9.575802833e-02   -1.904344261e-01
     5469000000   -1.514234953e-02   -2.145659775e-01
     5472000000    6.160290912e-02   -2.027622610e-01
     5475000000    1.312559098e-01   -1.641235948e-01
     5478000000    1.815873384e-01   -1.041467860e-01
     5481000000    2.059483677e-01   -3.181394935e-02
     5484000000    2.039881051e-01    5.476172641e-02
     5487000000    1.702060997e-01    1.173450500e-01
     5490000000    1.122382656e-01    1.780398935e-01
     5493000000    4.388122633e-02    2.045392990e-01
     5496000000   -4.033463448e-02    2.071363926e-01
     5499000000   -1.134699658e-01    1.776778400e-01
     5502000000   -1.664521396e-01    1.247462034e-01
     5505000000   -2.015608400e-01    5.379140005e-02
     5508000000   -2.068810910e-01   -2.505770326e-02
     5511000000   -1.821003407e-01   -1.005468592e-01
     5514000000   -1.301733553e-01   -1.620552391e-01
     5517000000   -5.870226771e-02   -2.001624256e-01
     5520000000    2.145690098e-02   -2.087091058e-01
     5523000000    9.040444344e-02   -1.866266727e-01
     5526000000    1.628758460e-01   -1.353474110e-01
     5529000000    1.996096522e-01   -6.850790977e-02
     5532000000    2.128029168e-01    1.587611996e-02
     5535000000    1.940043867e-01    9.441183507e-02
     5538000000    1.489848942e-01    1.558422297e-01
     5541000000    7.647605240e-02    2.052093893e-01
     5544000000   -3.199116560e-03    2.213782668e-01
     5547000000   -8.393732458e-02    2.055799663e-01
     5550000000   -1.610669792e-01    1.586446464e-01
     5553000000   -2.068553567e-01    9.510475397e-02
     5556000000   -2.281881273e-01    1.132897567e-02
     5559000000   -2.190523893e-01   -7.479521632e-02
     5562000000   -1.784681231e-01   -1.517300755e-01
     5565000000   -1.094454750e-01   -2.087912112e-01
     5568000000   -2.767233551e-02   -2.376058996e-01
     5571000000    6.613544375e-02   -2.316650897e-01
     5574000000    1.412082613e-01   -1.970849037e-01
     5577000000    2.082475573e-01   -1.316302866e-01
     5580000000    2.451549470e-01   -4.401805624e-02
     5583000000    2.476160079e-01    5.005537346e-02
     5586000000    2.172448188e-01    1.314946264e-01
     5589000000    1.482024789e-01    2.074687779e-01
     5592000000    6.877643615e-02    2.506002188e-01
     5595000000   -2.400824800e-02    2.587901652e-01
     5598000000   -1.198477596e-01    2.322285771e-01
     5601000000   -1.980685592e-01    1.742739230e-01
     5604000000   -2.499766350e-01    8.897032589e-02
     5607000000   -2.673993111e-01   -1.745972200e-03
     5610000000   -2.499756962e-01   -9.994214773e-02
     5613000000   -1.940033287e-01   -1.878376007e-01
     5616000000   -1.150745153e-01   -2.454889417e-01
     5619000000   -1.830502786e-02   -2.736779451e-01
     5622000000    8.157656342e-02   -2.647414207e-01
     5625000000    1.728758365e-01   -2.192434967e-01
     5628000000    2.422045022e-01   -1.376676261e-01
     5631000000    2.784260213e-01   -4.703055322e-02
     5634000000    2.759453058e-01    6.040757895e-02
     5637000000    2.364807725e-01    1.593604088e-01
     5640000000    1.686827093e-01    2.362017035e-01
     5643000000    6.391425431e-02    2.775745988e-01
     5646000000   -3.624270111e-02    2.903822660e-01
     5649000000   -1.409603506e-01    2.589539289e-01
     5652000000   -2.242767066e-01    1.983283162e-01
     5655000000   -2.790405452e-01    9.303501248e-02
     5658000000   -3.026725948e-01   -6.970473565e-03
     5661000000   -2.757864296e-01   -1.165110096e-01
     5664000000   -2.168288827e-01   -2.105982453e-01
     5667000000   -1.299872100e-01   -2.757477164e-01
     5670000000   -2.105147578e-02   -3.060347438e-01
     5673000000    9.184309095e-02   -2.957762480e-01
     5676000000    1.930651814e-01   -2.418127954e-01
     5679000000    2.688012123e-01   -1.587747931e-01
     5682000000    3.106704950e-01   -4.864042625e-02
     5685000000    3.101359904e-01    6.444190443e-02
     5688000000    2.707917988e-01    1.711718440e-01
     5691000000    1.852536350e-01    2.567711174e-01
     5694000000    8.241685480e-02    3.085485399e-01
     5697000000   -2.969439700e-02    3.273856342e-01
     5700000000   -1.453270465e-01    2.908782959e-01
     5703000000   -2.423327714e-01    2.228873968e-01
     5706000000   -3.013789356e-01    1.188990846e-01
     5709000000   -3.244850338e-01    5.246111657e-03
     5712000000   -3.143688142e-01   -1.150350571e-01
     5715000000   -2.547761500e-01   -2.199183106e-01
     5718000000   -1.566328704e-01   -2.962201834e-01
     5721000000   -4.099126905e-02   -3.283427954e-01
     5724000000    7.830150425e-02   -3.251080513e-01
     5727000000    1.908475310e-01   -2.770779431e-01
     5730000000    2.741146684e-01   -1.873058379e-01
     5733000000    3.277065754e-01   -7.894667983e-02
     5736000000    3.326386511e-01    4.350054637e-02
     5739000000    2.995549440e-01    1.578641981e-01
     5742000000    2.212702781e-01    2.528741956e-01
     5745000000    1.175760999e-01    3.137533665e-01
     5748000000   -1.208446920e-03    3.453740776e-01
     5751000000   -1.155548096e-01    3.058334887e-01
     5754000000   -2.320616543e-01    2.562640607e-01
     5757000000   -2.879257500e-01    1.486773193e-01
     5760000000   -3.355422318e-01    3.358712047e-02
     5763000000   -3.253543675e-01   -8.761522174e-02
     5766000000   -2.743129134e-01   -1.979768574e-01
     5769000000   -1.787100881e-01   -2.700106502e-01
     5772000000   -6.923174858e-02   -3.301581740e-01
     5775000000    4.804429412e-02   -3.250917196e-01
     5778000000    1.639920920e-01   -2.945633233e-01
     5781000000    2.503598630e-01   -2.154174596e-01
     5784000000    3.186855018e-01   -1.100048050e-01
     5787000000    3.391740620e-01    1.088143047e-02
     5790000000    3.054837286e-01    1.230292395e-01
     5793000000    2.414781898e-01    2.238320410e-01
     5796000000    1.430446953e-01    2.989984751e-01
     5799000000    2.794864401e-02    3.273045123e-01
     5802000000   -8.824963123e-02    3.125915825e-01
     5805000000   -1.864409894e-01    2.566350400e-01
     5808000000   -2.754138708e-01    1.743320376e-01
     5811000000   -3.169529140e-01    6.499498338e-02
     5814000000   -3.199974895e-01   -5.251202732e-02
     5817000000   -2.802800834e-01   -1.638022512e-01
     5820000000   -2.008907646e-01   -2.391896099e-01
     5823000000   -1.009195372e-01   -2.953284979e-01
     5826000000    1.088926848e-02   -3.093837202e-01
     5829000000    1.241968796e-01   -2.860903144e-01
     5832000000    2.176870257e-01   -2.207897902e-01
     5835000000    2.750925124e-01   -1.269720793e-01
     5838000000    3.039085567e-01   -1.926831156e-02
     5841000000    2.855055630e-01    8.695829660e-02
     5844000000    2.368767560e-01    1.799239069e-01
     5847000000    1.550168544e-01    2.538363039e-01
     5850000000    5.431507155e-02    2.890373766e-01
     5853000000   -5.344643071e-02    2.858791351e-01
     5856000000   -1.519571841e-01    2.484756112e-01
     5859000000   -2.237304896e-01    1.768886298e-01
     5862000000   -2.667704225e-01    8.710333705e-02
     5865000000   -2.786124647e-01   -1.519051474e-02
     5868000000   -2.499194443e-01   -1.101943180e-01
     5871000000   -1.938111186e-01   -1.987620145e-01
     5874000000   -1.148953214e-01   -2.398604304e-01
     5877000000   -1.455015037e-02   -2.668508887e-01
     5880000000    8.275325596e-02   -2.530392706e-01
     5883000000    1.585893482e-01   -2.039649636e-01
     5886000000    2.228820622e-01   -1.267305166e-01
     5889000000    2.393302768e-01   -4.731987789e-02
     5892000000    2.367736250e-01    3.862019256e-02
     5895000000    2.035210580e-01    1.042406633e-01
     5898000000    1.405356675e-01    1.834068000e-01
     5901000000    7.006779313e-02    2.138258517e-01
     5904000000   -6.356445956e-04    2.134950757e-01
     5907000000   -9.941694140e-02    1.953112036e-01
     5910000000   -1.508256942e-01    1.492838264e-01
     5913000000   -1.850893646e-01    8.150870353e-02
     5916000000   -2.001812309e-01    7.714018226e-03
     5919000000   -1.804938018e-01   -4.907495528e-02
     5922000000   -1.441628486e-01   -1.122595444e-01
     5925000000   -9.197792411e-02   -1.500806659e-01
     5928000000   -2.539107576e-02   -1.673850566e-01
     5931000000    3.482870758e-02   -1.571625620e-01
     5934000000    8.590582013e-02   -1.282876283e-01
     5937000000    1.277167648e-01   -7.747523487e-02
     5940000000    1.352869123e-01   -3.113965131e-02
     5943000000    1.287579536e-01    1.478565857e-02
     5946000000    1.060364917e-01    6.857471168e-02
     5949000000    6.579763442e-02    1.036103144e-01
     5952000000    3.072334640e-02    1.065540612e-01
     5955000000   -2.802783251e-02    1.082805172e-01
     5958000000   -4.146811366e-02    8.572089672e-02
     5961000000   -7.716671377e-02    5.090788007e-02
     5964000000   -9.576003253e-02    8.342088549e-04
     5967000000   -7.942288369e-02   -2.558005974e-02
     5970000000   -5.635698140e-02   -5.850678682e-02
     5973000000   -2.476984449e-02   -7.255566865e-02
     5976000000    4.929522518e-03   -7.030709088e-02
     5979000000    5.506313220e-02   -6.578026712e-02
     5982000000    6.387052685e-02   -3.768354282e-02
     5985000000    8.138611168e-02   -1.162923872e-03
     5988000000    7.856160402e-02    3.820283711e-02
     5991000000    5.609905347e-02    6.248066202e-02
     5994000000    2.417611890e-02    8.638186753e-02
     5997000000   -1.407832187e-02    9.178113192e-02
     6000000000   -5.843792483e-02    8.535345644e-02
