! NanoVNA-App
! Date: 2026-05-22 18:18:33
! Start: 2.3GHz Stop: 2.6GHz Points: 401
! S-Parameter data: F S11
# Hz S RI R 50
!     Frequency           S11_Real           S11_Imag
     2300000000    3.599447310e-01   -2.200310826e-01
     2300750000    3.752460778e-01   -1.864563227e-01
     2301500000    3.880475760e-01   -1.510610133e-01
     2302250000    3.969581425e-01   -1.169636920e-01
     2303000000    4.032431841e-01   -8.011023700e-02
     2303750000    4.063597023e-01   -4.643343389e-02
     2304500000    4.066084027e-01   -1.045113988e-02
     2305250000    4.024725556e-01    2.786352485e-02
     2306000000    3.970416188e-01    6.138841808e-02
     2306750000    3.881019056e-01    9.496799111e-02
     2307500000    3.760513961e-01    1.285262555e-01
     2308250000    3.613317311e-01    1.598116010e-01
     2309000000    3.442753851e-01    1.908222884e-01
     2309750000    3.258144557e-01    2.178398371e-01
     2310500000    3.025787175e-01    2.449484766e-01
     2311250000    2.790148854e-01    2.692661285e-01
     2312000000    2.540397942e-01    2.903064489e-01
     2312750000    2.238771617e-01    3.105359972e-01
     2313500000    1.998842210e-01    3.257015347e-01
     2314250000    1.681112349e-01    3.396161497e-01
     2315000000    1.386409253e-01    3.510715961e-01
     2315750000    1.027284786e-01    3.594503701e-01
     2316500000    7.710901648e-02    3.649781048e-01
     2317250000    4.218724743e-02    3.670837283e-01
     2318000000    9.011263028e-03    3.666103780e-01
     2318750000   -2.097591385e-02    3.639169037e-01
     2319500000   -5.288117751e-02    3.576582968e-01
     2320250000   -8.118473738e-02    3.506252468e-01
     2321000000   -1.121950969e-01    3.393572271e-01
     2321750000   -1.375229657e-01    3.282690644e-01
     2322500000   -1.664624363e-01    3.102925122e-01
     2323250000   -1.915306747e-01    2.919214070e-01
     2324000000   -2.138195634e-01    2.744421959e-01
     2324750000   -2.343821675e-01    2.533095479e-01
     2325500000   -2.553220987e-01    2.273354977e-01
     2326250000   -2.713530958e-01    2.062318772e-01
     2327000000   -2.863931060e-01    1.767245978e-01
     2327750000   -2.977839708e-01    1.525589228e-01
     2328500000   -3.069254458e-01    1.245240048e-01
     2329250000   -3.150210381e-01    9.752053022e-02
     2330000000   -3.194597363e-01    6.910193712e-02
     2330750000   -3.214370012e-01    3.950381652e-02
     2331500000   -3.213586509e-01    1.198744494e-02
     2332250000   -3.178018332e-01   -1.739281788e-02
     2333000000   -3.122923374e-01   -4.499191418e-02
     2333750000   -3.058844507e-01   -6.957911700e-02
     2334500000   -2.963203192e-01   -9.533878416e-02
     2335250000   -2.839051783e-01   -1.207960546e-01
     2336000000   -2.716820538e-01   -1.431506276e-01
     2336750000   -2.548270524e-01   -1.655931473e-01
     2337500000   -2.380916923e-01   -1.853280216e-01
     2338250000   -2.190560102e-01   -2.038257122e-01
     2339000000   -2.002454698e-01   -2.198967934e-01
     2339750000   -1.787966043e-01   -2.343480289e-01
     2340500000   -1.565152258e-01   -2.472358793e-01
     2341250000   -1.328944415e-01   -2.575222254e-01
     2342000000   -1.071888059e-01   -2.650640309e-01
     2342750000   -8.527158201e-02   -2.714450955e-01
     2343500000   -6.033981219e-02   -2.749615610e-01
     2344250000   -3.396024927e-02   -2.763409019e-01
     2345000000   -1.172637753e-02   -2.761243582e-01
     2345750000    1.333792787e-02   -2.728410065e-01
     2346500000    3.664273024e-02   -2.689422667e-01
     2347250000    6.023621187e-02   -2.615354061e-01
     2348000000    8.256590366e-02   -2.523798943e-01
     2348750000    1.032844186e-01   -2.429386526e-01
     2349500000    1.217141524e-01   -2.331343442e-01
     2350250000    1.413708478e-01   -2.172627896e-01
     2351000000    1.582083404e-01   -2.018264532e-01
     2351750000    1.728300601e-01   -1.863318533e-01
     2352500000    1.859446317e-01   -1.693518907e-01
     2353250000    1.986461580e-01   -1.521347463e-01
     2354000000    2.085168511e-01   -1.292602718e-01
     2354750000    2.168746442e-01   -1.110055596e-01
     2355500000    2.244566083e-01   -9.258178622e-02
     2356250000    2.282397747e-01   -6.995985657e-02
     2357000000    2.305418998e-01   -4.864856228e-02
     2357750000    2.318295091e-01   -2.748123184e-02
     2358500000    2.310449928e-01   -6.580109708e-03
     2359250000    2.284937948e-01    1.387670729e-02
     2360000000    2.259185463e-01    3.228328377e-02
     2360750000    2.178777307e-01    5.365246534e-02
     2361500000    2.098680735e-01    7.198561728e-02
     2362250000    2.028486282e-01    8.862951398e-02
     2363000000    1.917371452e-01    1.056012586e-01
     2363750000    1.803540438e-01    1.205774769e-01
     2364500000    1.663099974e-01    1.346151233e-01
     2365250000    1.531351358e-01    1.469340026e-01
     2366000000    1.381858736e-01    1.578727812e-01
     2366750000    1.232251897e-01    1.675243527e-01
     2367500000    1.065557078e-01    1.754855663e-01
     2368250000    8.944948763e-02    1.812717915e-01
     2369000000    7.299053669e-02    1.865315288e-01
     2369750000    5.473978072e-02    1.898578256e-01
     2370500000    3.723739833e-02    1.913465261e-01
     2371250000    1.927888952e-02    1.916278750e-01
     2372000000    2.746996703e-03    1.907292306e-01
     2372750000   -1.513844542e-02    1.872410774e-01
     2373500000   -3.121491335e-02    1.832340211e-01
     2374250000   -4.744011536e-02    1.764739901e-01
     2375000000   -6.177040190e-02    1.712154448e-01
     2375750000   -7.606790960e-02    1.606570184e-01
     2376500000   -8.891609311e-02    1.533514112e-01
     2377250000   -1.012377441e-01    1.413738281e-01
     2378000000   -1.123436689e-01    1.315417439e-01
     2378750000   -1.218447089e-01    1.185010001e-01
     2379500000   -1.298664361e-01    1.048952565e-01
     2380250000   -1.369320452e-01    9.214316308e-02
     2381000000   -1.431423277e-01    7.913187146e-02
     2381750000   -1.468622535e-01    6.391184032e-02
     2382500000   -1.500386298e-01    4.992999882e-02
     2383250000   -1.519966573e-01    3.482141346e-02
     2384000000   -1.520841569e-01    2.016568743e-02
     2384750000   -1.522924006e-01    6.818377413e-03
     2385500000   -1.491918862e-01   -8.178236894e-03
     2386250000   -1.478485167e-01   -1.843998209e-02
     2387000000   -1.434334368e-01   -3.186853975e-02
     2387750000   -1.361301988e-01   -4.482936487e-02
     2388500000   -1.318318397e-01   -5.707890168e-02
     2389250000   -1.247012019e-01   -6.813517958e-02
     2390000000   -1.167555973e-01   -7.921912521e-02
     2390750000   -1.075353101e-01   -8.904030919e-02
     2391500000   -9.809896350e-02   -9.790091962e-02
     2392250000   -8.881351352e-02   -1.055347547e-01
     2393000000   -7.756257057e-02   -1.122100726e-01
     2393750000   -6.688808650e-02   -1.180868894e-01
     2394500000   -5.568185076e-02   -1.226671487e-01
     2395250000   -4.411470890e-02   -1.261739731e-01
     2396000000   -3.228827193e-02   -1.281758547e-01
     2396750000   -2.086601220e-02   -1.309944540e-01
     2397500000   -9.069407359e-03   -1.304952353e-01
     2398250000    1.978233922e-03   -1.301684231e-01
     2399000000    1.352915913e-02   -1.283803880e-01
     2399750000    2.443985641e-02   -1.259518564e-01
     2400500000    3.463315591e-02   -1.227632612e-01
     2401250000    4.430487379e-02   -1.177168489e-01
     2402000000    5.429275334e-02   -1.136946306e-01
     2402750000    6.206616014e-02   -1.078415141e-01
     2403500000    6.965965778e-02   -1.010861695e-01
     2404250000    7.689767331e-02   -9.471952915e-02
     2405000000    8.284629136e-02   -8.639339358e-02
     2405750000    8.810228854e-02   -7.839702070e-02
     2406500000    9.254185855e-02   -6.994640827e-02
     2407250000    9.674010426e-02   -6.190316752e-02
     2408000000    9.879814088e-02   -5.276850611e-02
     2408750000    1.015308946e-01   -4.356455430e-02
     2409500000    1.016516089e-01   -3.410096839e-02
     2410250000    1.024321690e-01   -2.501416579e-02
     2411000000    1.016556174e-01   -1.602240838e-02
     2411750000    1.002557501e-01   -7.357277907e-03
     2412500000    9.831988811e-02    1.406882890e-03
     2413250000    9.556328505e-02    9.463207796e-03
     2414000000    9.156173468e-02    1.726747677e-02
     2414750000    8.827247471e-02    2.519226260e-02
     2415500000    8.297490329e-02    3.200144321e-02
     2416250000    7.799064368e-02    3.813588992e-02
     2417000000    7.211528718e-02    4.411881417e-02
     2417750000    6.596046686e-02    4.883297905e-02
     2418500000    5.938140675e-02    5.355654657e-02
     2419250000    5.291014537e-02    5.765591934e-02
     2420000000    4.588161781e-02    6.037244201e-02
     2420750000    3.868540004e-02    6.314411759e-02
     2421500000    3.137156740e-02    6.487749517e-02
     2422250000    2.414163575e-02    6.705875695e-02
     2423000000    1.660015993e-02    6.720132381e-02
     2423750000    9.381220676e-03    6.787070632e-02
     2424500000    2.668967703e-03    6.617487222e-02
     2425250000   -4.908561241e-03    6.667096168e-02
     2426000000   -1.074322499e-02    6.365073472e-02
     2426750000   -1.740330085e-02    6.236963719e-02
     2427500000   -2.276035398e-02    5.924512073e-02
     2428250000   -2.844517492e-02    5.666681379e-02
     2429000000   -3.386126086e-02    5.383193865e-02
     2429750000   -3.843295947e-02    4.982865602e-02
     2430500000   -4.241458327e-02    4.627010971e-02
     2431250000   -4.558963329e-02    4.213109240e-02
     2432000000   -4.991053417e-02    3.773429617e-02
     2432750000   -5.154728889e-02    3.342428058e-02
     2433500000   -5.441786349e-02    2.894830331e-02
     2434250000   -5.601214990e-02    2.430517972e-02
     2435000000   -5.742777511e-02    1.898869127e-02
     2435750000   -5.800281093e-02    1.478253212e-02
     2436500000   -5.771416426e-02    1.029255241e-02
     2437250000   -5.842132866e-02    5.215559155e-03
     2438000000   -5.674773082e-02    1.131331315e-03
     2438750000   -5.608629063e-02   -3.256596159e-03
     2439500000   -5.475475267e-02   -7.432360202e-03
     2440250000   -5.290153623e-02   -1.083651744e-02
     2441000000   -5.084939674e-02   -1.475599501e-02
     2441750000   -4.876771942e-02   -1.826796681e-02
     2442500000   -4.625943676e-02   -2.163587511e-02
     2443250000   -4.394783452e-02   -2.447370254e-02
     2444000000   -4.105369002e-02   -2.808456123e-02
     2444750000   -3.805289045e-02   -2.930754423e-02
     2445500000   -3.495027125e-02   -3.131794930e-02
     2446250000   -3.196842223e-02   -3.244610131e-02
     2447000000   -2.867553942e-02   -3.421953693e-02
     2447750000   -2.550634183e-02   -3.547332436e-02
     2448500000   -2.209169418e-02   -3.667309508e-02
     2449250000   -1.907259785e-02   -3.703030944e-02
     2450000000   -1.632724702e-02   -3.731130809e-02
     2450750000   -1.334562898e-02   -3.766724467e-02
     2451500000   -1.046573278e-02   -3.772500157e-02
     2452250000   -7.773707155e-03   -3.717858344e-02
     2453000000   -4.765203223e-03   -3.713961691e-02
     2453750000   -2.842460992e-03   -3.661119565e-02
     2454500000    1.201820560e-04   -3.660270199e-02
     2455250000    2.132295864e-03   -3.569102287e-02
     2456000000    4.396477714e-03   -3.497310355e-02
     2456750000    5.953654181e-03   -3.433821350e-02
     2457500000    7.341041695e-03   -3.387143463e-02
     2458250000    9.690178558e-03   -3.302440420e-02
     2459000000    1.078514382e-02   -3.228613734e-02
     2459750000    1.247973740e-02   -3.118608147e-02
     2460500000    1.267564576e-02   -3.134571388e-02
     2461250000    1.476066839e-02   -2.993813716e-02
     2462000000    1.592647284e-02   -2.919377759e-02
     2462750000    1.720007136e-02   -2.794338390e-02
     2463500000    1.804298721e-02   -2.831892669e-02
     2464250000    1.932850294e-02   -2.686083317e-02
     2465000000    1.985700987e-02   -2.734057233e-02
     2465750000    2.137186192e-02   -2.556096017e-02
     2466500000    2.249534801e-02   -2.452437393e-02
     2467250000    2.326582186e-02   -2.403123863e-02
     2468000000    2.468970418e-02   -2.488509379e-02
     2468750000    2.606010251e-02   -2.353848144e-02
     2469500000    2.714914270e-02   -2.347281203e-02
     2470250000    2.869581245e-02   -2.215294540e-02
     2471000000    3.084895387e-02   -2.278625034e-02
     2471750000    3.158474714e-02   -2.079994790e-02
     2472500000    3.312418982e-02   -1.990965195e-02
     2473250000    3.484328464e-02   -1.889271103e-02
     2474000000    3.681448102e-02   -1.808047667e-02
     2474750000    3.787730262e-02   -1.689733751e-02
     2475500000    3.919293731e-02   -1.519443281e-02
     2476250000    4.065192491e-02   -1.326593012e-02
     2477000000    4.406139627e-02   -1.240369305e-02
     2477750000    4.505442828e-02   -1.042472292e-02
     2478500000    4.599194974e-02   -7.869654335e-03
     2479250000    4.877583310e-02   -5.425388925e-03
     2480000000    4.990997538e-02   -2.735532820e-03
     2480750000    5.137417838e-02   -4.346391652e-04
     2481500000    5.268146098e-02    2.310142387e-03
     2482250000    5.306781828e-02    5.936848465e-03
     2483000000    5.442742631e-02    9.512713179e-03
     2483750000    5.511832982e-02    1.285393909e-02
     2484500000    5.516282469e-02    1.690359227e-02
     2485250000    5.435387045e-02    2.008458227e-02
     2486000000    5.444937572e-02    2.498515509e-02
     2486750000    5.385226756e-02    2.931651846e-02
     2487500000    5.254577845e-02    3.276611120e-02
     2488250000    5.172917247e-02    3.774699569e-02
     2489000000    4.947679862e-02    4.092169553e-02
     2489750000    4.702101275e-02    4.533940181e-02
     2490500000    4.457296804e-02    4.982145503e-02
     2491250000    4.131961241e-02    5.465953052e-02
     2492000000    3.784041107e-02    5.744696409e-02
     2492750000    3.417159989e-02    6.129191443e-02
     2493500000    2.941235900e-02    6.664527208e-02
     2494250000    2.478848957e-02    6.973356754e-02
     2495000000    2.053736895e-02    7.118821144e-02
     2495750000    1.338036824e-02    7.510957867e-02
     2496500000    8.329595439e-03    7.726807892e-02
     2497250000    3.980144858e-03    7.792855054e-02
     2498000000   -4.235827830e-03    8.068046719e-02
     2498750000   -1.105388161e-02    8.154052496e-02
     2499500000   -1.751438342e-02    8.228012919e-02
     2500250000   -2.300674841e-02    8.138728887e-02
     2501000000   -3.222344443e-02    8.106523752e-02
     2501750000   -3.949410468e-02    8.021888137e-02
     2502500000   -4.375489056e-02    7.828927785e-02
     2503250000   -5.344989896e-02    7.542113215e-02
     2504000000   -6.003603339e-02    7.209094614e-02
     2504750000   -6.592850387e-02    6.891991198e-02
     2505500000   -7.282071561e-02    6.520041823e-02
     2506250000   -7.971876115e-02    5.952784792e-02
     2507000000   -8.535557985e-02    5.383148417e-02
     2507750000   -9.004668146e-02    4.865415394e-02
     2508500000   -9.590277821e-02    4.156105593e-02
     2509250000   -1.000167280e-01    3.442786634e-02
     2510000000   -1.032272577e-01    2.927316539e-02
     2510750000   -1.077418849e-01    1.894834451e-02
     2511500000   -1.099130735e-01    1.106077153e-02
     2512250000   -1.109457463e-01    2.454617759e-03
     2513000000   -1.123130992e-01   -5.629546009e-03
     2513750000   -1.128878519e-01   -1.478232443e-02
     2514500000   -1.123205945e-01   -2.374586836e-02
     2515250000   -1.108352020e-01   -3.468109667e-02
     2516000000   -1.090340242e-01   -4.231063277e-02
     2516750000   -1.062390432e-01   -5.176629871e-02
     2517500000   -1.017779335e-01   -6.168179214e-02
     2518250000   -9.761695564e-02   -7.018745691e-02
     2519000000   -9.224855155e-02   -7.868374884e-02
     2519750000   -8.561346680e-02   -8.793950826e-02
     2520500000   -7.870338857e-02   -9.607345611e-02
     2521250000   -7.124428451e-02   -1.029011160e-01
     2522000000   -6.309591979e-02   -1.096855849e-01
     2522750000   -5.404385552e-02   -1.162671894e-01
     2523500000   -4.416504875e-02   -1.220065132e-01
     2524250000   -3.454984352e-02   -1.266683936e-01
     2525000000   -2.413369156e-02   -1.303101182e-01
     2525750000   -1.301438641e-02   -1.333920956e-01
     2526500000   -1.939563663e-03   -1.363333017e-01
     2527250000    9.876052849e-03   -1.367762834e-01
     2528000000    2.212453447e-02   -1.373942941e-01
     2528750000    3.265447542e-02   -1.365065873e-01
     2529500000    4.434182122e-02   -1.356773078e-01
     2530250000    5.709553510e-02   -1.323482245e-01
     2531000000    6.754619628e-02   -1.294994801e-01
     2531750000    7.885257155e-02   -1.245535314e-01
     2532500000    9.072104096e-02   -1.183024272e-01
     2533250000    1.008437499e-01   -1.112664193e-01
     2534000000    1.107757315e-01   -1.034370214e-01
     2534750000    1.199082434e-01   -9.513234347e-02
     2535500000    1.281952858e-01   -8.501368016e-02
     2536250000    1.359892935e-01   -7.581847161e-02
     2537000000    1.427742988e-01   -6.470546871e-02
     2537750000    1.493365020e-01   -5.188908800e-02
     2538500000    1.549664140e-01   -3.819902986e-02
     2539250000    1.584631056e-01   -2.698279731e-02
     2540000000    1.613617986e-01   -1.317422651e-02
     2540750000    1.629689932e-01    3.273863986e-04
     2541500000    1.641643196e-01    1.449612714e-02
     2542250000    1.638956517e-01    2.729419619e-02
     2543000000    1.624889225e-01    3.946395963e-02
     2543750000    1.589701623e-01    5.501236767e-02
     2544500000    1.549181044e-01    6.776537746e-02
     2545250000    1.499806046e-01    8.032315969e-02
     2546000000    1.440957785e-01    9.349682182e-02
     2546750000    1.366063356e-01    1.050142273e-01
     2547500000    1.274452060e-01    1.170087308e-01
     2548250000    1.178262979e-01    1.278250217e-01
     2549000000    1.084194034e-01    1.373321414e-01
     2549750000    9.554357827e-02    1.473586857e-01
     2550500000    8.320883662e-02    1.557260305e-01
     2551250000    6.871586293e-02    1.627451777e-01
     2552000000    5.913099274e-02    1.675134599e-01
     2552750000    3.951199353e-02    1.740684658e-01
     2553500000    2.914392203e-02    1.779865026e-01
     2554250000    1.114162523e-02    1.795116365e-01
     2555000000   -8.802384837e-04    1.810357422e-01
     2555750000   -1.826952957e-02    1.801512539e-01
     2556500000   -3.209220618e-02    1.799926311e-01
     2557250000   -4.941665009e-02    1.753518730e-01
     2558000000   -6.195946783e-02    1.728584170e-01
     2558750000   -7.887468487e-02    1.661335528e-01
     2559500000   -9.054727107e-02    1.616887152e-01
     2560250000   -1.067042127e-01    1.511517018e-01
     2561000000   -1.182350442e-01    1.432235837e-01
     2561750000   -1.313660145e-01    1.323804259e-01
     2562500000   -1.424892992e-01    1.210528538e-01
     2563250000   -1.522215903e-01    1.097318977e-01
     2564000000   -1.620630175e-01    9.575432539e-02
     2564750000   -1.698421240e-01    8.219723403e-02
     2565500000   -1.771695465e-01    6.688566506e-02
     2566250000   -1.824780107e-01    5.358252302e-02
     2567000000   -1.875564456e-01    3.702029958e-02
     2567750000   -1.903121620e-01    2.065790445e-02
     2568500000   -1.916399598e-01    5.072939675e-03
     2569250000   -1.915614456e-01   -1.093817316e-02
     2570000000   -1.907392442e-01   -2.764407173e-02
     2570750000   -1.878922135e-01   -4.476225749e-02
     2571500000   -1.832047850e-01   -6.186288968e-02
     2572250000   -1.778684705e-01   -7.613742352e-02
     2573000000   -1.706416756e-01   -9.135793895e-02
     2573750000   -1.626967490e-01   -1.059906110e-01
     2574500000   -1.522896588e-01   -1.205346882e-01
     2575250000   -1.415583491e-01   -1.335228980e-01
     2576000000   -1.308279634e-01   -1.455209553e-01
     2576750000   -1.172372401e-01   -1.562645733e-01
     2577500000   -1.025415212e-01   -1.663272083e-01
     2578250000   -8.843962103e-02   -1.749377698e-01
     2579000000   -7.327066362e-02   -1.823404133e-01
     2579750000   -5.579050258e-02   -1.892508417e-01
     2580500000   -3.990485519e-02   -1.935553998e-01
     2581250000   -2.206830494e-02   -1.966617852e-01
     2582000000   -5.344514735e-03   -1.982320100e-01
     2582750000    1.311737020e-02   -1.982549131e-01
     2583500000    3.127455339e-02   -1.971056908e-01
     2584250000    4.825242609e-02   -1.938890517e-01
     2585000000    6.512674689e-02   -1.908700466e-01
     2585750000    8.329451829e-02   -1.829276681e-01
     2586500000    9.737681597e-02   -1.766786575e-01
     2587250000    1.152197197e-01   -1.659987271e-01
     2588000000    1.278197616e-01   -1.588401347e-01
     2588750000    1.431130320e-01   -1.460828185e-01
     2589500000    1.559736133e-01   -1.323313564e-01
     2590250000    1.670437753e-01   -1.207774431e-01
     2591000000    1.779935062e-01   -1.042581499e-01
     2591750000    1.866278648e-01   -8.793427795e-02
     2592500000    1.943001449e-01   -7.176512480e-02
     2593250000    2.000873983e-01   -5.592752248e-02
     2594000000    2.054607570e-01   -3.645052016e-02
     2594750000    2.082638741e-01   -2.031110972e-02
     2595500000    2.086368054e-01    4.274052626e-04
     2596250000    2.101114541e-01    1.791920327e-02
     2597000000    2.083722204e-01    3.496348485e-02
     2597750000    2.045709640e-01    5.504411459e-02
     2598500000    1.983243525e-01    7.351400703e-02
     2599250000    1.920288950e-01    9.034194797e-02
     2600000000    1.844260246e-01    1.053574756e-01
