! NanoVNA-App
! Date: 2026-05-22 18:14:37
! Start: 2.3GHz Stop: 2.6GHz Points: 401
! S-Parameter data: F S11
# Hz S RI R 50
!     Frequency           S11_Real           S11_Imag
     2300000000    4.306015074e-01   -1.851301193e-01
     2300750000    4.440782964e-01   -1.439756453e-01
     2301500000    4.529506266e-01   -1.086688191e-01
     2302250000    4.587506950e-01   -6.534530967e-02
     2303000000    4.612153172e-01   -2.445346490e-02
     2303750000    4.597005546e-01    1.487532910e-02
     2304500000    4.558915794e-01    5.194285884e-02
     2305250000    4.470908642e-01    9.282728285e-02
     2306000000    4.358905852e-01    1.303597540e-01
     2306750000    4.195335209e-01    1.696240902e-01
     2307500000    4.035065472e-01    2.029372454e-01
     2308250000    3.820165396e-01    2.370963991e-01
     2309000000    3.587391973e-01    2.690170705e-01
     2309750000    3.328581452e-01    2.979874313e-01
     2310500000    3.044383824e-01    3.247819245e-01
     2311250000    2.744131982e-01    3.494115174e-01
     2312000000    2.428432852e-01    3.698916733e-01
     2312750000    2.072675228e-01    3.891351819e-01
     2313500000    1.747281551e-01    4.035752416e-01
     2314250000    1.366237551e-01    4.162538648e-01
     2315000000    9.937538207e-02    4.251071513e-01
     2315750000    6.305264682e-02    4.309588373e-01
     2316500000    2.483132295e-02    4.331026673e-01
     2317250000   -1.137435343e-02    4.318728447e-01
     2318000000   -4.978693277e-02    4.278143048e-01
     2318750000   -8.284924924e-02    4.218550622e-01
     2319500000   -1.189714521e-01    4.109725356e-01
     2320250000   -1.567059308e-01    3.956611753e-01
     2321000000   -1.872241050e-01    3.817230165e-01
     2321750000   -2.181055546e-01    3.626027703e-01
     2322500000   -2.506683469e-01    3.381192684e-01
     2323250000   -2.742393315e-01    3.173991144e-01
     2324000000   -2.994237244e-01    2.915946841e-01
     2324750000   -3.229321241e-01    2.605882585e-01
     2325500000   -3.430564106e-01    2.316116542e-01
     2326250000   -3.599095941e-01    2.017138004e-01
     2327000000   -3.740408421e-01    1.701679379e-01
     2327750000   -3.854262233e-01    1.356781125e-01
     2328500000   -3.932218254e-01    1.007210612e-01
     2329250000   -3.996445239e-01    6.782416254e-02
     2330000000   -4.013589919e-01    3.015687689e-02
     2330750000   -4.010433555e-01   -2.552923746e-03
     2331500000   -3.976132870e-01   -3.541480377e-02
     2332250000   -3.910405934e-01   -6.982014328e-02
     2333000000   -3.798432946e-01   -1.054156423e-01
     2333750000   -3.702544272e-01   -1.327217817e-01
     2334500000   -3.545350432e-01   -1.644742340e-01
     2335250000   -3.369688690e-01   -1.939739585e-01
     2336000000   -3.163876534e-01   -2.218607664e-01
     2336750000   -2.950823009e-01   -2.464048117e-01
     2337500000   -2.734556198e-01   -2.687233984e-01
     2338250000   -2.455340624e-01   -2.913132608e-01
     2339000000   -2.183656693e-01   -3.099983037e-01
     2339750000   -1.902132183e-01   -3.260499239e-01
     2340500000   -1.608023942e-01   -3.400464058e-01
     2341250000   -1.299305111e-01   -3.509998918e-01
     2342000000   -9.881472588e-02   -3.593396544e-01
     2342750000   -6.919153780e-02   -3.649065197e-01
     2343500000   -3.660623357e-02   -3.679723144e-01
     2344250000   -3.291222267e-03   -3.674940765e-01
     2345000000    2.707118168e-02   -3.644058406e-01
     2345750000    5.816670507e-02   -3.583184779e-01
     2346500000    8.738020062e-02   -3.516229093e-01
     2347250000    1.186006144e-01   -3.389372826e-01
     2348000000    1.442692131e-01   -3.273727000e-01
     2348750000    1.705199182e-01   -3.136441708e-01
     2349500000    1.968868822e-01   -2.938020527e-01
     2350250000    2.193768919e-01   -2.767451108e-01
     2351000000    2.406400144e-01   -2.556804121e-01
     2351750000    2.593247294e-01   -2.340354621e-01
     2352500000    2.774087191e-01   -2.063021362e-01
     2353250000    2.929631770e-01   -1.822430640e-01
     2354000000    3.055642843e-01   -1.571830213e-01
     2354750000    3.162054121e-01   -1.286880672e-01
     2355500000    3.242964745e-01   -9.933688492e-02
     2356250000    3.301610351e-01   -7.201161981e-02
     2357000000    3.327855766e-01   -4.386932775e-02
     2357750000    3.335123956e-01   -1.508843619e-02
     2358500000    3.319136500e-01    1.346744876e-02
     2359250000    3.274533153e-01    4.072296619e-02
     2360000000    3.215463161e-01    6.747246534e-02
     2360750000    3.116057515e-01    9.570024908e-02
     2361500000    3.014965355e-01    1.199362651e-01
     2362250000    2.890182734e-01    1.440526992e-01
     2363000000    2.739449739e-01    1.668241769e-01
     2363750000    2.570188046e-01    1.881905496e-01
     2364500000    2.398887277e-01    2.072820514e-01
     2365250000    2.193062454e-01    2.253450900e-01
     2366000000    1.971452981e-01    2.410396934e-01
     2366750000    1.758789122e-01    2.549865842e-01
     2367500000    1.536870599e-01    2.668516040e-01
     2368250000    1.284425557e-01    2.760140300e-01
     2369000000    1.038887352e-01    2.834390104e-01
     2369750000    7.812987268e-02    2.888304293e-01
     2370500000    5.471596494e-02    2.927743495e-01
     2371250000    2.674616314e-02    2.924778759e-01
     2372000000    3.013391746e-03    2.915628850e-01
     2372750000   -2.238464169e-02    2.889434695e-01
     2373500000   -4.746671021e-02    2.824311852e-01
     2374250000   -7.070069760e-02    2.752306461e-01
     2375000000   -9.378328919e-02    2.656758428e-01
     2375750000   -1.151063442e-01    2.547892034e-01
     2376500000   -1.357201785e-01    2.411744744e-01
     2377250000   -1.558143646e-01    2.259815484e-01
     2378000000   -1.732518971e-01    2.109922767e-01
     2378750000   -1.897579432e-01    1.936704814e-01
     2379500000   -2.044371814e-01    1.752313972e-01
     2380250000   -2.170806080e-01    1.534188837e-01
     2381000000   -2.290072739e-01    1.359281242e-01
     2381750000   -2.374126762e-01    1.117198095e-01
     2382500000   -2.450604886e-01    9.164170176e-02
     2383250000   -2.513464093e-01    6.909441203e-02
     2384000000   -2.546249628e-01    4.687906057e-02
     2384750000   -2.563851774e-01    2.583712339e-02
     2385500000   -2.562122643e-01    2.629753668e-03
     2386250000   -2.528870106e-01   -2.030922845e-02
     2387000000   -2.503150702e-01   -4.077782109e-02
     2387750000   -2.433479726e-01   -6.197745726e-02
     2388500000   -2.369593531e-01   -8.221507818e-02
     2389250000   -2.287625372e-01   -1.006009206e-01
     2390000000   -2.161374688e-01   -1.193746403e-01
     2390750000   -2.041017413e-01   -1.369730234e-01
     2391500000   -1.903765351e-01   -1.525120884e-01
     2392250000   -1.764408052e-01   -1.665277630e-01
     2393000000   -1.600776166e-01   -1.803250760e-01
     2393750000   -1.430443227e-01   -1.920667887e-01
     2394500000   -1.250955164e-01   -2.014052123e-01
     2395250000   -1.076254100e-01   -2.105273902e-01
     2396000000   -8.875667304e-02   -2.170147896e-01
     2396750000   -6.961902231e-02   -2.224338204e-01
     2397500000   -4.966931418e-02   -2.254577577e-01
     2398250000   -3.039328940e-02   -2.276365161e-01
     2399000000   -1.040416304e-02   -2.273796350e-01
     2399750000    8.480662480e-03   -2.262212187e-01
     2400500000    2.760913223e-02   -2.240654975e-01
     2401250000    4.643124714e-02   -2.191853225e-01
     2402000000    6.331101060e-02   -2.126085013e-01
     2402750000    8.101215214e-02   -2.055558413e-01
     2403500000    9.685437381e-02   -1.973463595e-01
     2404250000    1.125275940e-01   -1.859641671e-01
     2405000000    1.269571185e-01   -1.749973446e-01
     2405750000    1.405369192e-01   -1.630238891e-01
     2406500000    1.523835063e-01   -1.495027840e-01
     2407250000    1.625021249e-01   -1.350651383e-01
     2408000000    1.724447459e-01   -1.200958714e-01
     2408750000    1.802034229e-01   -1.040481031e-01
     2409500000    1.868478954e-01   -8.826550096e-02
     2410250000    1.921235323e-01   -7.201156020e-02
     2411000000    1.958507150e-01   -5.563434958e-02
     2411750000    1.984861791e-01   -3.919340298e-02
     2412500000    1.992181242e-01   -2.193032391e-02
     2413250000    1.977986246e-01   -5.077583250e-03
     2414000000    1.960806698e-01    1.103110798e-02
     2414750000    1.927977651e-01    2.713642642e-02
     2415500000    1.876054257e-01    4.276652634e-02
     2416250000    1.815924495e-01    5.764419585e-02
     2417000000    1.740974486e-01    7.244217396e-02
     2417750000    1.659724712e-01    8.616993576e-02
     2418500000    1.557549536e-01    9.871089458e-02
     2419250000    1.459903270e-01    1.106342375e-01
     2420000000    1.342056245e-01    1.213998348e-01
     2420750000    1.226352230e-01    1.314965338e-01
     2421500000    1.093602180e-01    1.400135905e-01
     2422250000    9.631556273e-02    1.476887316e-01
     2423000000    8.232825249e-02    1.541917920e-01
     2423750000    6.794481725e-02    1.591702849e-01
     2424500000    5.362697691e-02    1.629642844e-01
     2425250000    3.866312653e-02    1.654639542e-01
     2426000000    2.354969643e-02    1.665971130e-01
     2426750000    9.147110395e-03    1.664082557e-01
     2427500000   -5.779278465e-03    1.660996079e-01
     2428250000   -1.950526796e-02    1.633096337e-01
     2429000000   -3.392447904e-02    1.604270637e-01
     2429750000   -4.756158963e-02    1.555688977e-01
     2430500000   -6.052660942e-02    1.506258100e-01
     2431250000   -7.287973166e-02    1.436904222e-01
     2432000000   -8.440551907e-02    1.361269951e-01
     2432750000   -9.603816271e-02    1.276338995e-01
     2433500000   -1.063817292e-01    1.183632612e-01
     2434250000   -1.152694747e-01    1.088331491e-01
     2435000000   -1.236548871e-01    9.806732833e-02
     2435750000   -1.306586713e-01    8.707249910e-02
     2436500000   -1.376567930e-01    7.576481253e-02
     2437250000   -1.428860277e-01    6.319633126e-02
     2438000000   -1.475014538e-01    5.110599846e-02
     2438750000   -1.495116800e-01    3.850649297e-02
     2439500000   -1.521220356e-01    2.570679225e-02
     2440250000   -1.527052373e-01    1.289206930e-02
     2441000000   -1.530631185e-01    5.277708988e-04
     2441750000   -1.514419019e-01   -1.217550691e-02
     2442500000   -1.494849175e-01   -2.495487407e-02
     2443250000   -1.461954564e-01   -3.686973080e-02
     2444000000   -1.418630630e-01   -4.879309610e-02
     2444750000   -1.364313364e-01   -6.056999415e-02
     2445500000   -1.302507967e-01   -7.092339545e-02
     2446250000   -1.236248910e-01   -8.097806573e-02
     2447000000   -1.163369194e-01   -9.118586779e-02
     2447750000   -1.075406224e-01   -1.005037948e-01
     2448500000   -9.898173064e-02   -1.087494269e-01
     2449250000   -8.964785188e-02   -1.167084873e-01
     2450000000   -7.947413623e-02   -1.233490333e-01
     2450750000   -6.905464083e-02   -1.296084672e-01
     2451500000   -5.845603719e-02   -1.346911788e-01
     2452250000   -4.728969932e-02   -1.387602091e-01
     2453000000   -3.588919342e-02   -1.419388354e-01
     2453750000   -2.478687651e-02   -1.437752545e-01
     2454500000   -1.294191089e-02   -1.450994313e-01
     2455250000   -1.491922536e-03   -1.455294639e-01
     2456000000    1.017931290e-02   -1.448534280e-01
     2456750000    2.162927575e-02   -1.432147324e-01
     2457500000    3.259725124e-02   -1.406809539e-01
     2458250000    4.360210150e-02   -1.372714043e-01
     2459000000    5.454742908e-02   -1.333535761e-01
     2459750000    6.458789110e-02   -1.285597086e-01
     2460500000    7.454390079e-02   -1.222988069e-01
     2461250000    8.403043449e-02   -1.164233387e-01
     2462000000    9.298328310e-02   -1.092408150e-01
     2462750000    1.007265225e-01   -1.012914106e-01
     2463500000    1.081323177e-01   -9.357385337e-02
     2464250000    1.151727661e-01   -8.405414969e-02
     2465000000    1.208555847e-01   -7.477483898e-02
     2465750000    1.267082095e-01   -6.488040835e-02
     2466500000    1.309844553e-01   -5.460830405e-02
     2467250000    1.346572191e-01   -4.353631660e-02
     2468000000    1.380497962e-01   -3.352817893e-02
     2468750000    1.398390830e-01   -2.183280885e-02
     2469500000    1.417153478e-01   -1.120258495e-02
     2470250000    1.418314129e-01    4.021649947e-04
     2471000000    1.420147270e-01    1.146588475e-02
     2471750000    1.407596171e-01    2.192610689e-02
     2472500000    1.385835856e-01    3.291746601e-02
     2473250000    1.369663328e-01    4.385783523e-02
     2474000000    1.329797655e-01    5.434053391e-02
     2474750000    1.286708266e-01    6.461133063e-02
     2475500000    1.246335804e-01    7.405555248e-02
     2476250000    1.178793758e-01    8.289835602e-02
     2477000000    1.123634353e-01    9.167287499e-02
     2477750000    1.047532633e-01    1.001048163e-01
     2478500000    9.746691585e-02    1.075303257e-01
     2479250000    9.012659639e-02    1.154236197e-01
     2480000000    8.075622469e-02    1.211262271e-01
     2480750000    7.122802734e-02    1.272054613e-01
     2481500000    6.215195730e-02    1.322203875e-01
     2482250000    5.196113512e-02    1.363760680e-01
     2483000000    4.191202670e-02    1.402335614e-01
     2483750000    3.122124076e-02    1.433947831e-01
     2484500000    2.071438171e-02    1.445734948e-01
     2485250000    9.494225495e-03    1.458133161e-01
     2486000000   -1.226608176e-03    1.463654786e-01
     2486750000   -1.242416073e-02    1.455054581e-01
     2487500000   -2.300352231e-02    1.444099545e-01
     2488250000   -3.346152976e-02    1.414170712e-01
     2489000000   -4.438263550e-02    1.389916837e-01
     2489750000   -5.515466630e-02    1.359775960e-01
     2490500000   -6.474193931e-02    1.311056316e-01
     2491250000   -7.485127449e-02    1.262389123e-01
     2492000000   -8.395983279e-02    1.198191941e-01
     2492750000   -9.315146506e-02    1.137818098e-01
     2493500000   -1.002595127e-01    1.057505757e-01
     2494250000   -1.088722274e-01    9.767244756e-02
     2495000000   -1.161651239e-01    8.918672800e-02
     2495750000   -1.228319257e-01    8.014940470e-02
     2496500000   -1.280106306e-01    7.009821385e-02
     2497250000   -1.332311332e-01    5.980360135e-02
     2498000000   -1.389439255e-01    4.979711026e-02
     2498750000   -1.415987164e-01    3.812671453e-02
     2499500000   -1.453895569e-01    2.716776356e-02
     2500250000   -1.466993392e-01    1.599599235e-02
     2501000000   -1.468236148e-01    4.328582436e-03
     2501750000   -1.487348378e-01   -7.459356915e-03
     2502500000   -1.464191973e-01   -1.770564169e-02
     2503250000   -1.459021270e-01   -3.076573461e-02
     2504000000   -1.445061713e-01   -4.293278605e-02
     2504750000   -1.401068866e-01   -5.363753811e-02
     2505500000   -1.358261704e-01   -6.399443746e-02
     2506250000   -1.313481778e-01   -7.453715801e-02
     2507000000   -1.257641166e-01   -8.777533472e-02
     2507750000   -1.186591387e-01   -9.476929158e-02
     2508500000   -1.116569638e-01   -1.051766276e-01
     2509250000   -1.028343216e-01   -1.141762659e-01
     2510000000   -9.415233880e-02   -1.218006313e-01
     2510750000   -8.418592066e-02   -1.298907846e-01
     2511500000   -7.413985580e-02   -1.366688907e-01
     2512250000   -6.301610172e-02   -1.424671859e-01
     2513000000   -5.198409036e-02   -1.478722841e-01
     2513750000   -4.060738534e-02   -1.517424285e-01
     2514500000   -2.761680074e-02   -1.551435292e-01
     2515250000   -1.498360466e-02   -1.581225544e-01
     2516000000   -3.101642942e-03   -1.594890952e-01
     2516750000    1.130203158e-02   -1.607652754e-01
     2517500000    2.413522825e-02   -1.595872343e-01
     2518250000    3.597751260e-02   -1.577398032e-01
     2519000000    4.934654757e-02   -1.564018726e-01
     2519750000    6.212540716e-02   -1.527910382e-01
     2520500000    7.451945543e-02   -1.478871256e-01
     2521250000    8.510375768e-02   -1.428949386e-01
     2522000000    9.904495627e-02   -1.368659586e-01
     2522750000    1.092966720e-01   -1.294896305e-01
     2523500000    1.211897060e-01   -1.219310835e-01
     2524250000    1.322953105e-01   -1.126258075e-01
     2525000000    1.395011544e-01   -1.027532369e-01
     2525750000    1.496748179e-01   -9.140078723e-02
     2526500000    1.570321321e-01   -8.072163910e-02
     2527250000    1.632472873e-01   -6.879720837e-02
     2528000000    1.709819585e-01   -5.595108122e-02
     2528750000    1.753309518e-01   -4.232240096e-02
     2529500000    1.780853122e-01   -2.939884737e-02
     2530250000    1.814818084e-01   -1.537106000e-02
     2531000000    1.841802299e-01    3.614702728e-04
     2531750000    1.836866587e-01    1.433314011e-02
     2532500000    1.835216135e-01    2.834818140e-02
     2533250000    1.822302788e-01    4.411345720e-02
     2534000000    1.790374666e-01    5.722153187e-02
     2534750000    1.752572358e-01    7.170227170e-02
     2535500000    1.697456837e-01    8.365227282e-02
     2536250000    1.637006402e-01    9.994979948e-02
     2537000000    1.565540135e-01    1.123629063e-01
     2537750000    1.481083035e-01    1.251287460e-01
     2538500000    1.391497552e-01    1.366727948e-01
     2539250000    1.290223151e-01    1.478389651e-01
     2540000000    1.177790910e-01    1.582439840e-01
     2540750000    1.049426123e-01    1.678022891e-01
     2541500000    9.217429906e-02    1.759844571e-01
     2542250000    7.803583890e-02    1.841173470e-01
     2543000000    6.396365166e-02    1.895282120e-01
     2543750000    4.900316149e-02    1.947429329e-01
     2544500000    3.296023235e-02    1.985524297e-01
     2545250000    1.643636264e-02    2.013059705e-01
     2546000000    1.011808868e-03    2.026739120e-01
     2546750000   -1.452117693e-02    2.022594661e-01
     2547500000   -3.103408776e-02    2.010155469e-01
     2548250000   -4.925237224e-02    1.983400881e-01
     2549000000   -6.383686513e-02    1.937873513e-01
     2549750000   -8.328194171e-02    1.886466295e-01
     2550500000   -9.478092939e-02    1.826616526e-01
     2551250000   -1.106074378e-01    1.742311716e-01
     2552000000   -1.267732531e-01    1.647009552e-01
     2552750000   -1.415641010e-01    1.539437622e-01
     2553500000   -1.535106003e-01    1.433270574e-01
     2554250000   -1.647167504e-01    1.316209286e-01
     2555000000   -1.758858562e-01    1.177372187e-01
     2555750000   -1.850811392e-01    1.042856425e-01
     2556500000   -1.964789331e-01    8.759707212e-02
     2557250000   -2.035538554e-01    7.115088403e-02
     2558000000   -2.092269659e-01    5.548942089e-02
     2558750000   -2.124482542e-01    4.055680335e-02
     2559500000   -2.184379697e-01    1.926894300e-02
     2560250000   -2.179886401e-01    6.253865547e-03
     2561000000   -2.196189016e-01   -1.651640609e-02
     2561750000   -2.178594023e-01   -3.457579762e-02
     2562500000   -2.155329734e-01   -5.085856095e-02
     2563250000   -2.115245610e-01   -6.954313070e-02
     2564000000   -2.046525329e-01   -9.101045877e-02
     2564750000   -1.994041950e-01   -1.044471189e-01
     2565500000   -1.897411197e-01   -1.236628592e-01
     2566250000   -1.811947078e-01   -1.369092017e-01
     2567000000   -1.695280373e-01   -1.544410884e-01
     2567750000   -1.577441841e-01   -1.675502658e-01
     2568500000   -1.436602175e-01   -1.810332090e-01
     2569250000   -1.287889183e-01   -1.933642626e-01
     2570000000   -1.142632216e-01   -2.049116790e-01
     2570750000   -9.679160267e-02   -2.149054855e-01
     2571500000   -7.955034822e-02   -2.234339565e-01
     2572250000   -6.029653549e-02   -2.303724140e-01
     2573000000   -4.158984125e-02   -2.360974103e-01
     2573750000   -2.267185785e-02   -2.401304096e-01
     2574500000   -3.203063738e-03   -2.414262295e-01
     2575250000    1.510347333e-02   -2.424474359e-01
     2576000000    3.468689322e-02   -2.419468015e-01
     2576750000    5.542380735e-02   -2.387360930e-01
     2577500000    7.622635365e-02   -2.338138223e-01
     2578250000    9.664836526e-02   -2.282170057e-01
     2579000000    1.158828288e-01   -2.210011333e-01
     2579750000    1.326695383e-01   -2.120540142e-01
     2580500000    1.507941782e-01   -2.011199892e-01
     2581250000    1.670185477e-01   -1.882518530e-01
     2582000000    1.820786446e-01   -1.754884571e-01
     2582750000    1.977040768e-01   -1.583152711e-01
     2583500000    2.058820128e-01   -1.467109919e-01
     2584250000    2.180419862e-01   -1.281093955e-01
     2585000000    2.304639965e-01   -1.079745367e-01
     2585750000    2.384661734e-01   -9.082232416e-02
     2586500000    2.452306151e-01   -7.314783335e-02
     2587250000    2.518785894e-01   -4.846194014e-02
     2588000000    2.552260160e-01   -3.230414912e-02
     2588750000    2.568548620e-01   -8.647347800e-03
     2589500000    2.575138211e-01    1.081397012e-02
     2590250000    2.561975420e-01    2.960222028e-02
     2591000000    2.524326742e-01    5.423494056e-02
     2591750000    2.482911199e-01    7.269175351e-02
     2592500000    2.413652092e-01    9.587606788e-02
     2593250000    2.333124578e-01    1.122335345e-01
     2594000000    2.216617018e-01    1.326144636e-01
     2594750000    2.104914933e-01    1.519149542e-01
     2595500000    1.970041096e-01    1.685193777e-01
     2596250000    1.812265068e-01    1.865148395e-01
     2597000000    1.667994410e-01    1.991566867e-01
     2597750000    1.475191265e-01    2.132812142e-01
     2598500000    1.291641742e-01    2.256022245e-01
     2599250000    1.089514047e-01    2.352535278e-01
     2600000000    9.025692940e-02    2.436589450e-01
