! NanoVNA-App
! Date: 2026-05-15 11:40:55
! Start: 4.8GHz Stop: 6GHz Points: 401
! S-Parameter data: F S11
# Hz S RI R 50
!     Frequency           S11_Real           S11_Imag
     4800000000   -7.615504861e-01    3.980339468e-01
     4803000000   -8.551883698e-01    9.894544631e-02
     4806000000   -8.319015503e-01   -2.217144668e-01
     4809000000   -6.979716420e-01   -5.058134198e-01
     4812000000   -4.695097208e-01   -7.213108540e-01
     4815000000   -1.843030006e-01   -8.400447369e-01
     4818000000    1.406188160e-01   -8.486492038e-01
     4821000000    4.263813794e-01   -7.466120124e-01
     4824000000    6.694161892e-01   -5.418033004e-01
     4827000000    8.200303316e-01   -2.582899332e-01
     4830000000    8.582349420e-01    5.124279484e-02
     4833000000    7.852478623e-01    3.509079218e-01
     4836000000    5.998268127e-01    6.181777716e-01
     4839000000    3.442401588e-01    7.890889645e-01
     4842000000    2.890652418e-02    8.628534079e-01
     4845000000   -2.762366533e-01    8.153843880e-01
     4848000000   -5.532053113e-01    6.608909965e-01
     4851000000   -7.552273870e-01    4.161172211e-01
     4854000000   -8.555948138e-01    1.196961626e-01
     4857000000   -8.397238255e-01   -2.021284401e-01
     4860000000   -7.124294639e-01   -4.875805378e-01
     4863000000   -5.036992431e-01   -7.000979781e-01
     4866000000   -2.027116418e-01   -8.388050199e-01
     4869000000    1.122033745e-01   -8.574525714e-01
     4872000000    4.089154601e-01   -7.572143674e-01
     4875000000    6.493423581e-01   -5.636022687e-01
     4878000000    8.201011419e-01   -2.726445198e-01
     4881000000    8.644780517e-01    4.604189470e-02
     4884000000    7.969373465e-01    3.283027709e-01
     4887000000    6.189702153e-01    6.031807661e-01
     4890000000    3.618873060e-01    7.857297659e-01
     4893000000    4.534633085e-02    8.613567352e-01
     4896000000   -2.467129678e-01    8.275197148e-01
     4899000000   -5.401017666e-01    6.748339534e-01
     4902000000   -7.437168956e-01    4.405914843e-01
     4905000000   -8.531500101e-01    1.378951222e-01
     4908000000   -8.455013037e-01   -1.763119996e-01
     4911000000   -7.250571847e-01   -4.676072896e-01
     4914000000   -5.036718249e-01   -7.016566396e-01
     4917000000   -2.222484797e-01   -8.356119990e-01
     4920000000    9.633183479e-02   -8.564470410e-01
     4923000000    3.922315240e-01   -7.652914524e-01
     4926000000    6.542380452e-01   -5.697582364e-01
     4929000000    8.100848198e-01   -3.015561998e-01
     4932000000    8.613576889e-01    8.853198029e-03
     4935000000    8.075373769e-01    3.117460608e-01
     4938000000    6.171116829e-01    6.024982929e-01
     4941000000    3.774132133e-01    7.739537358e-01
     4944000000    8.942342550e-02    8.610937595e-01
     4947000000   -2.438276410e-01    8.290947676e-01
     4950000000   -5.286676884e-01    6.811727881e-01
     4953000000   -7.351210713e-01    4.474993348e-01
     4956000000   -8.487201333e-01    1.613231599e-01
     4959000000   -8.444722891e-01   -1.678141505e-01
     4962000000   -7.368367910e-01   -4.470133185e-01
     4965000000   -5.194042921e-01   -6.885431409e-01
     4968000000   -2.357913256e-01   -8.300691843e-01
     4971000000    7.152619213e-02   -8.604531288e-01
     4974000000    3.824806213e-01   -7.710334659e-01
     4977000000    6.326370239e-01   -5.869728327e-01
     4980000000    7.995407581e-01   -3.220555484e-01
     4983000000    8.612904549e-01   -3.896247596e-03
     4986000000    8.088824153e-01    2.989782989e-01
     4989000000    6.413410902e-01    5.705798268e-01
     4992000000    3.888216913e-01    7.650308609e-01
     4995000000    9.841167182e-02    8.523553014e-01
     4998000000   -2.325758040e-01    8.259349465e-01
     5001000000   -5.021563172e-01    6.982002854e-01
     5004000000   -7.180757523e-01    4.628584683e-01
     5007000000   -8.369535804e-01    1.651055664e-01
     5010000000   -8.423473835e-01   -1.379882395e-01
     5013000000   -7.349825501e-01   -4.414971769e-01
     5016000000   -5.360203981e-01   -6.656377316e-01
     5019000000   -2.474021912e-01   -8.171747923e-01
     5022000000    6.053950638e-02   -8.498967886e-01
     5025000000    3.640539050e-01   -7.662918568e-01
     5028000000    6.092873216e-01   -5.916090608e-01
     5031000000    7.841218114e-01   -3.333684504e-01
     5034000000    8.497799039e-01   -2.925828286e-02
     5037000000    7.971547246e-01    2.794216573e-01
     5040000000    6.418819427e-01    5.516638160e-01
     5043000000    4.040096104e-01    7.415676117e-01
     5046000000    1.051926836e-01    8.362671733e-01
     5049000000   -1.965595484e-01    8.187974095e-01
     5052000000   -4.773771465e-01    6.911237836e-01
     5055000000   -6.971921325e-01    4.759682715e-01
     5058000000   -8.163031936e-01    1.874997169e-01
     5061000000   -8.292637467e-01   -1.230436116e-01
     5064000000   -7.311916947e-01   -4.034602642e-01
     5067000000   -5.305634141e-01   -6.440548301e-01
     5070000000   -2.638475001e-01   -7.915580273e-01
     5073000000    3.541630134e-02   -8.338682055e-01
     5076000000    3.318646848e-01   -7.638373971e-01
     5079000000    5.845380425e-01   -5.925939679e-01
     5082000000    7.581179142e-01   -3.414764404e-01
     5085000000    8.279461265e-01   -4.394049570e-02
     5088000000    7.808836699e-01    2.610144913e-01
     5091000000    6.423032880e-01    5.179044604e-01
     5094000000    4.098221064e-01    7.126502991e-01
     5097000000    1.256775409e-01    8.116112947e-01
     5100000000   -1.723309904e-01    7.990114689e-01
     5103000000   -4.514313936e-01    6.802489161e-01
     5106000000   -6.637948751e-01    4.815798700e-01
     5109000000   -7.922662497e-01    1.972442269e-01
     5112000000   -8.133607507e-01   -9.304901212e-02
     5115000000   -7.191710472e-01   -3.801885545e-01
     5118000000   -5.388556719e-01   -6.081371903e-01
     5121000000   -2.896483839e-01   -7.648599148e-01
     5124000000    1.736979187e-02   -8.081096411e-01
     5127000000    2.973017097e-01   -7.518770695e-01
     5130000000    5.509347320e-01   -5.888469219e-01
     5133000000    7.248390913e-01   -3.563691676e-01
     5136000000    8.021255732e-01   -7.221604884e-02
     5139000000    7.730177641e-01    2.230591923e-01
     5142000000    6.382379532e-01    4.841889441e-01
     5145000000    4.216111600e-01    6.800338626e-01
     5148000000    1.493816376e-01    7.840607166e-01
     5151000000   -1.392686814e-01    7.874010205e-01
     5154000000   -4.115566015e-01    6.815733314e-01
     5157000000   -6.284878254e-01    4.862175882e-01
     5160000000   -7.621772885e-01    2.285631895e-01
     5163000000   -7.895068526e-01   -6.037049741e-02
     5166000000   -7.153159976e-01   -3.380251527e-01
     5169000000   -5.450573564e-01   -5.715799332e-01
     5172000000   -3.001898527e-01   -7.270447612e-01
     5175000000   -2.507302910e-02   -7.888284326e-01
     5178000000    2.635947168e-01   -7.422524691e-01
     5181000000    5.096836686e-01   -6.002388000e-01
     5184000000    6.889232993e-01   -3.745492697e-01
     5187000000    7.761517167e-01   -1.003650427e-01
     5190000000    7.645847797e-01    1.781827807e-01
     5193000000    6.407870650e-01    4.456088841e-01
     5196000000    4.437095821e-01    6.457474232e-01
     5199000000    1.798038483e-01    7.587938905e-01
     5202000000   -1.007132977e-01    7.712465525e-01
     5205000000   -3.735971451e-01    6.749671102e-01
     5208000000   -5.945087075e-01    5.046585798e-01
     5211000000   -7.297878265e-01    2.576878667e-01
     5214000000   -7.724711299e-01   -2.096853592e-02
     5217000000   -7.107342482e-01   -2.996706367e-01
     5220000000   -5.562182665e-01   -5.334447622e-01
     5223000000   -3.295059204e-01   -6.961138248e-01
     5226000000   -5.678821728e-02   -7.671512961e-01
     5229000000    2.228636742e-01   -7.353067994e-01
     5232000000    4.702627659e-01   -6.069553494e-01
     5235000000    6.574282646e-01   -3.963376582e-01
     5238000000    7.545322776e-01   -1.336706281e-01
     5241000000    7.535701990e-01    1.449377537e-01
     5244000000    6.487121582e-01    4.041776657e-01
     5247000000    4.612767994e-01    6.083689332e-01
     5250000000    2.153171748e-01    7.351998687e-01
     5253000000   -6.511329859e-02    7.610614896e-01
     5256000000   -3.341993690e-01    6.853774786e-01
     5259000000   -5.567499399e-01    5.203007460e-01
     5262000000   -7.054578066e-01    2.854990065e-01
     5265000000   -7.595828772e-01    1.339667849e-02
     5268000000   -7.139247656e-01   -2.586361468e-01
     5271000000   -5.702734590e-01   -5.008269548e-01
     5274000000   -3.567106426e-01   -6.688893437e-01
     5277000000   -9.396287799e-02   -7.526342869e-01
     5280000000    1.863108426e-01   -7.343105674e-01
     5283000000    4.353869259e-01   -6.204743385e-01
     5286000000    6.274484992e-01   -4.229457378e-01
     5289000000    7.381267548e-01   -1.677852124e-01
     5292000000    7.493447065e-01    1.078432351e-01
     5295000000    6.591352820e-01    3.699127734e-01
     5298000000    4.848728776e-01    5.786406994e-01
     5301000000    2.443083525e-01    7.144214511e-01
     5304000000   -2.891471237e-02    7.542801499e-01
     5307000000   -2.976789176e-01    6.933791041e-01
     5310000000   -5.275535583e-01    5.414072275e-01
     5313000000   -6.869586110e-01    3.154189587e-01
     5316000000   -7.527875304e-01    4.890432581e-02
     5319000000   -7.206617594e-01   -2.234177589e-01
     5322000000   -5.935859084e-01   -4.671034813e-01
     5325000000   -3.880548775e-01   -6.474596858e-01
     5328000000   -1.272478998e-01   -7.439202666e-01
     5331000000    1.467888951e-01   -7.390623093e-01
     5334000000    4.019978344e-01   -6.371920705e-01
     5337000000    6.028981805e-01   -4.505900443e-01
     5340000000    7.232087851e-01   -2.051913738e-01
     5343000000    7.486389279e-01    6.854266673e-02
     5346000000    6.740185022e-01    3.312355578e-01
     5349000000    5.111475587e-01    5.524427295e-01
     5352000000    2.793468237e-01    6.969306469e-01
     5355000000    1.392312907e-02    7.504492998e-01
     5358000000   -2.565882504e-01    7.059809566e-01
     5361000000   -4.967691302e-01    5.616639256e-01
     5364000000   -6.735873222e-01    3.478946090e-01
     5367000000   -7.451029420e-01    9.391824156e-02
     5370000000   -7.259305120e-01   -1.772738397e-01
     5373000000   -6.129904985e-01   -4.319729805e-01
     5376000000   -4.200214446e-01   -6.236480474e-01
     5379000000   -1.665435433e-01   -7.401407361e-01
     5382000000    9.974309057e-02   -7.396275997e-01
     5385000000    3.516780436e-01   -6.500762701e-01
     5388000000    5.901538134e-01   -4.794485569e-01
     5391000000    7.116020918e-01   -2.418088317e-01
     5394000000    7.613989711e-01    2.831728198e-02
     5397000000    6.966513991e-01    2.891027331e-01
     5400000000    5.400888324e-01    5.156284571e-01
     5403000000    3.180210888e-01    6.791809201e-01
     5406000000    5.743849650e-02    7.475042343e-01
     5409000000   -2.232743204e-01    7.234320045e-01
     5412000000   -4.620375931e-01    5.954248905e-01
     5415000000   -6.512771845e-01    3.905414045e-01
     5418000000   -7.388319969e-01    1.395834833e-01
     5421000000   -7.456555367e-01   -1.477950960e-01
     5424000000   -6.429944634e-01   -3.849235773e-01
     5427000000   -4.568626285e-01   -6.000043750e-01
     5430000000   -2.117735445e-01   -7.250145078e-01
     5433000000    7.055445015e-02   -7.616950870e-01
     5436000000    3.095721304e-01   -6.803854108e-01
     5439000000    5.455998778e-01   -5.241067410e-01
     5442000000    7.015638351e-01   -2.894716561e-01
     5445000000    7.642852068e-01   -1.531654783e-02
     5448000000    7.160651684e-01    2.548544109e-01
     5451000000    5.793495774e-01    4.936624765e-01
     5454000000    3.646243215e-01    6.672900915e-01
     5457000000    1.006610096e-01    7.557916641e-01
     5460000000   -1.834810972e-01    7.460761070e-01
     5463000000   -4.157087207e-01    6.309713721e-01
     5466000000   -6.164475083e-01    4.393745363e-01
     5469000000   -7.367216349e-01    1.871124208e-01
     5472000000   -7.548661828e-01   -8.990912884e-02
     5475000000   -6.758238673e-01   -3.522321284e-01
     5478000000   -5.046619177e-01   -5.720515251e-01
     5481000000   -2.575447559e-01   -7.235869169e-01
     5484000000   -7.903152145e-03   -7.540502548e-01
     5487000000    2.883202732e-01   -7.138326764e-01
     5490000000    5.230041146e-01   -5.619135499e-01
     5493000000    6.851851344e-01   -3.435424864e-01
     5496000000    7.508739233e-01   -9.517204762e-02
     5499000000    7.408735752e-01    2.066005468e-01
     5502000000    6.216054559e-01    4.597707093e-01
     5505000000    4.197140634e-01    6.413609385e-01
     5508000000    1.602958292e-01    7.540806532e-01
     5511000000   -1.383022964e-01    7.664093375e-01
     5514000000   -3.686498702e-01    6.697354913e-01
     5517000000   -6.039288640e-01    4.853000641e-01
     5520000000   -7.476350665e-01    2.274208218e-01
     5523000000   -7.656574249e-01   -2.025407925e-02
     5526000000   -7.079663277e-01   -3.003523052e-01
     5529000000   -5.479947925e-01   -5.536952615e-01
     5532000000   -3.344882131e-01   -6.914514303e-01
     5535000000   -6.839103252e-02   -7.631227374e-01
     5538000000    2.544187605e-01   -7.422426343e-01
     5541000000    4.815844297e-01   -6.112877727e-01
     5544000000    6.677849889e-01   -3.984962702e-01
     5547000000    7.572124600e-01   -1.449151039e-01
     5550000000    7.667751908e-01    1.613570899e-01
     5553000000    6.624593139e-01    4.072579145e-01
     5556000000    4.736596048e-01    6.118874550e-01
     5559000000    2.470707595e-01    7.245028019e-01
     5562000000   -7.784358412e-02    7.804173231e-01
     5565000000   -3.577406704e-01    7.031129599e-01
     5568000000   -5.308233500e-01    5.541805625e-01
     5571000000   -7.163300514e-01    3.073537946e-01
     5574000000   -7.796376348e-01    2.701786719e-02
     5577000000   -7.384896874e-01   -2.486885041e-01
     5580000000   -6.003553271e-01   -4.989103973e-01
     5583000000   -3.797588050e-01   -6.813135147e-01
     5586000000   -1.099290326e-01   -7.768689990e-01
     5589000000    1.638369411e-01   -7.639434934e-01
     5592000000    4.480119348e-01   -6.512470841e-01
     5595000000    6.277635694e-01   -4.638631046e-01
     5598000000    7.539452314e-01   -2.091016024e-01
     5601000000    7.819159031e-01    1.000974998e-01
     5604000000    7.055185437e-01    3.363065720e-01
     5607000000    5.114815831e-01    6.075786948e-01
     5610000000    3.014787734e-01    7.239267230e-01
     5613000000    2.802018821e-02    7.842056751e-01
     5616000000   -2.634265721e-01    7.423759699e-01
     5619000000   -5.501992702e-01    5.758214593e-01
     5622000000   -6.945121884e-01    3.751953244e-01
     5625000000   -7.798783779e-01    1.111955494e-01
     5628000000   -7.653138638e-01   -1.915237755e-01
     5631000000   -6.487945914e-01   -4.498354793e-01
     5634000000   -4.499584138e-01   -6.463075876e-01
     5637000000   -2.116097659e-01   -7.583060861e-01
     5640000000    1.186872870e-01   -7.884666920e-01
     5643000000    3.470804393e-01   -7.089529037e-01
     5646000000    6.048200130e-01   -5.135765672e-01
     5649000000    7.383603454e-01   -2.802988589e-01
     5652000000    7.936799526e-01    1.857751980e-02
     5655000000    7.456730008e-01    2.680430710e-01
     5658000000    5.758656859e-01    5.424051881e-01
     5661000000    3.428505659e-01    7.148649693e-01
     5664000000    1.051762924e-01    7.881525755e-01
     5667000000   -2.030051202e-01    7.616117001e-01
     5670000000   -4.631454945e-01    6.414179802e-01
     5673000000   -6.608317494e-01    4.352612495e-01
     5676000000   -7.618730068e-01    1.918714792e-01
     5679000000   -7.810472250e-01   -1.231789142e-01
     5682000000   -7.044358253e-01   -3.542630374e-01
     5685000000   -5.249211788e-01   -5.919115543e-01
     5688000000   -2.606861889e-01   -7.462490797e-01
     5691000000   -1.460835338e-04   -7.858332992e-01
     5694000000    2.735029757e-01   -7.381645441e-01
     5697000000    5.305668712e-01   -5.787736773e-01
     5700000000    7.031821609e-01   -3.516131639e-01
     5703000000    7.782461047e-01   -1.031589732e-01
     5706000000    7.544779181e-01    2.114956528e-01
     5709000000    6.546685100e-01    4.343817234e-01
     5712000000    4.270958900e-01    6.587836146e-01
     5715000000    1.606546938e-01    7.574930787e-01
     5718000000   -6.381112337e-02    7.823469639e-01
     5721000000   -3.700175583e-01    6.830352545e-01
     5724000000   -5.801360607e-01    5.208106637e-01
     5727000000   -7.409573793e-01    2.315686345e-01
     5730000000   -7.778584361e-01    1.383560989e-02
     5733000000   -7.122530937e-01   -2.997696400e-01
     5736000000   -5.838947296e-01   -5.076466203e-01
     5739000000   -3.365510404e-01   -6.912934780e-01
     5742000000   -1.084473208e-01   -7.648594379e-01
     5745000000    1.993399113e-01   -7.409256101e-01
     5748000000    4.471739829e-01   -6.296206117e-01
     5751000000    6.272370219e-01   -4.455775023e-01
     5754000000    7.454618216e-01   -1.628922671e-01
     5757000000    7.594088316e-01    7.972761244e-02
     5760000000    6.619522572e-01    3.668278754e-01
     5763000000    5.022152662e-01    5.746761560e-01
     5766000000    2.844027579e-01    7.063215971e-01
     5769000000   -2.680308372e-02    7.505913377e-01
     5772000000   -2.741881013e-01    7.033266425e-01
     5775000000   -5.021849275e-01    5.706394911e-01
     5778000000   -6.729941964e-01    3.353630006e-01
     5781000000   -7.438878417e-01    6.494828314e-02
     5784000000   -7.443237901e-01   -1.662034094e-01
     5787000000   -6.162241101e-01   -4.319023192e-01
     5790000000   -3.991756737e-01   -6.265525222e-01
     5793000000   -1.671973467e-01   -7.281640768e-01
     5796000000    1.064753309e-01   -7.321774960e-01
     5799000000    3.593558073e-01   -6.496605873e-01
     5802000000    5.751738548e-01   -4.581268132e-01
     5805000000    7.007938027e-01   -2.617958188e-01
     5808000000    7.425614595e-01    1.374047250e-02
     5811000000    6.650884151e-01    2.950265110e-01
     5814000000    5.548456311e-01    4.963823557e-01
     5817000000    3.270293772e-01    6.661419868e-01
     5820000000    8.991733193e-02    7.406649590e-01
     5823000000   -1.955192089e-01    7.129800916e-01
     5826000000   -4.281905890e-01    5.994691849e-01
     5829000000   -6.140999198e-01    4.019979835e-01
     5832000000   -7.137919068e-01    1.491041929e-01
     5835000000   -7.236140966e-01   -1.029796377e-01
     5838000000   -6.592898369e-01   -3.460209966e-01
     5841000000   -4.684497714e-01   -5.640851855e-01
     5844000000   -2.400963157e-01   -6.866096258e-01
     5847000000    3.067236207e-02   -7.253220677e-01
     5850000000    2.701159418e-01   -6.853439808e-01
     5853000000    4.981868565e-01   -5.252677202e-01
     5856000000    6.543105245e-01   -3.203457892e-01
     5859000000    7.264380455e-01   -6.516978890e-02
     5862000000    6.982399821e-01    1.957997531e-01
     5865000000    5.882132053e-01    4.316221774e-01
     5868000000    3.893482685e-01    6.084786057e-01
     5871000000    1.449166387e-01    7.074483633e-01
     5874000000   -1.123066694e-01    7.156827450e-01
     5877000000   -3.601158559e-01    6.259741783e-01
     5880000000   -5.579242110e-01    4.462368786e-01
     5883000000   -6.846624613e-01    2.374517173e-01
     5886000000   -7.156743407e-01   -3.704433888e-02
     5889000000   -6.488724947e-01   -2.911479473e-01
     5892000000   -5.452829003e-01   -4.950076044e-01
     5895000000   -2.815750539e-01   -6.447179914e-01
     5898000000   -6.383039057e-02   -7.222360373e-01
     5901000000    2.133604735e-01   -6.826802492e-01
     5904000000    4.378368556e-01   -5.700798035e-01
     5907000000    6.118307710e-01   -3.898187876e-01
     5910000000    7.013295889e-01   -1.268195063e-01
     5913000000    7.175474763e-01    1.170122772e-01
     5916000000    6.149682999e-01    3.712705076e-01
     5919000000    4.587113559e-01    5.614943504e-01
     5922000000    2.027396113e-01    6.775151491e-01
     5925000000   -4.167031869e-02    7.177219987e-01
     5928000000   -2.940863371e-01    6.495886445e-01
     5931000000   -5.071305037e-01    5.090687871e-01
     5934000000   -6.526775360e-01    2.914071381e-01
     5937000000   -7.095097899e-01    3.929425031e-02
     5940000000   -6.821920276e-01   -2.173280716e-01
     5943000000   -5.610326529e-01   -4.427665770e-01
     5946000000   -3.704702258e-01   -6.172416806e-01
     5949000000   -1.155583262e-01   -7.000130415e-01
     5952000000    1.347867399e-01   -7.003376484e-01
     5955000000    3.804599345e-01   -5.960284472e-01
     5958000000    5.667590499e-01   -4.236568213e-01
     5961000000    6.929549575e-01   -2.165216655e-01
     5964000000    7.050341368e-01    6.076321378e-02
     5967000000    6.380375624e-01    3.064436615e-01
     5970000000    4.921606779e-01    5.146816373e-01
     5973000000    2.787289023e-01    6.582556367e-01
     5976000000    1.595566608e-02    7.034454346e-01
     5979000000   -2.268876880e-01    6.782538891e-01
     5982000000   -4.532867372e-01    5.436574221e-01
     5985000000   -6.210924387e-01    3.469842672e-01
     5988000000   -7.032238245e-01    1.015679762e-01
     5991000000   -6.927061677e-01   -1.554699242e-01
     5994000000   -5.924872160e-01   -3.912145197e-01
     5997000000   -4.127976000e-01   -5.763090849e-01
     6000000000   -1.850208044e-01   -6.838328838e-01
