! NanoVNA-App
! Date: 2026-05-15 11:40:24
! Start: 4.8GHz Stop: 6GHz Points: 401
! S-Parameter data: F S11
# Hz S RI R 50
!     Frequency           S11_Real           S11_Imag
     4800000000   -7.463532686e-01    4.314793050e-01
     4803000000   -8.513544798e-01    1.288931221e-01
     4806000000   -8.413904309e-01   -1.932567656e-01
     4809000000   -7.128655910e-01   -4.870412052e-01
     4812000000   -4.980181158e-01   -7.038351893e-01
     4815000000   -1.997597665e-01   -8.413031101e-01
     4818000000    1.067339852e-01   -8.553323150e-01
     4821000000    3.945881128e-01   -7.679796219e-01
     4824000000    6.581016183e-01   -5.598148108e-01
     4827000000    8.205174208e-01   -2.812741995e-01
     4830000000    8.647155762e-01    2.282717265e-02
     4833000000    7.988121510e-01    3.328147233e-01
     4836000000    6.240531206e-01    6.007346511e-01
     4839000000    3.648201823e-01    7.846035957e-01
     4842000000    6.411895901e-02    8.632127047e-01
     4845000000   -2.557599247e-01    8.263359070e-01
     4848000000   -5.367026925e-01    6.789831519e-01
     4851000000   -7.469030023e-01    4.398863614e-01
     4854000000   -8.557278514e-01    1.451506764e-01
     4857000000   -8.523420691e-01   -1.788562536e-01
     4860000000   -7.260924578e-01   -4.799816608e-01
     4863000000   -5.266135931e-01   -6.900345683e-01
     4866000000   -2.138860524e-01   -8.434911966e-01
     4869000000    9.247393906e-02   -8.654354215e-01
     4872000000    3.836942911e-01   -7.771086693e-01
     4875000000    6.477033496e-01   -5.797098875e-01
     4878000000    8.122171164e-01   -3.141988516e-01
     4881000000    8.716765046e-01    4.248668440e-03
     4884000000    8.117177486e-01    3.073074520e-01
     4887000000    6.284674406e-01    6.052551866e-01
     4890000000    3.871837854e-01    7.806481719e-01
     4893000000    7.197237015e-02    8.689073324e-01
     4896000000   -2.536195815e-01    8.339138031e-01
     4899000000   -5.203120708e-01    7.004355788e-01
     4902000000   -7.426940799e-01    4.597277045e-01
     4905000000   -8.586254120e-01    1.538563669e-01
     4908000000   -8.584831953e-01   -1.579417735e-01
     4911000000   -7.388376594e-01   -4.614079595e-01
     4914000000   -5.241667628e-01   -6.975668073e-01
     4917000000   -2.451678067e-01   -8.403116465e-01
     4920000000    7.479892671e-02   -8.697896004e-01
     4923000000    3.922338784e-01   -7.779465914e-01
     4926000000    6.413228512e-01   -5.986608267e-01
     4929000000    8.196870685e-01   -3.125265539e-01
     4932000000    8.720996976e-01   -1.074844319e-02
     4935000000    8.197431564e-01    3.097778857e-01
     4938000000    6.438338757e-01    5.912790298e-01
     4941000000    4.062824249e-01    7.723459601e-01
     4944000000    8.062963933e-02    8.717781901e-01
     4947000000   -2.269835472e-01    8.448906541e-01
     4950000000   -5.205723643e-01    7.002757192e-01
     4953000000   -7.350071073e-01    4.692910314e-01
     4956000000   -8.572443128e-01    1.692242175e-01
     4959000000   -8.611078858e-01   -1.502479613e-01
     4962000000   -7.479714751e-01   -4.525127709e-01
     4965000000   -5.318681002e-01   -6.953661442e-01
     4968000000   -2.506993115e-01   -8.390011787e-01
     4971000000    6.958096474e-02   -8.723334074e-01
     4974000000    3.790671527e-01   -7.906239033e-01
     4977000000    6.397920847e-01   -5.997096896e-01
     4980000000    8.094981313e-01   -3.341589570e-01
     4983000000    8.750339746e-01   -1.967051625e-02
     4986000000    8.238844275e-01    2.973173559e-01
     4989000000    6.553085446e-01    5.737003684e-01
     4992000000    4.035372436e-01    7.735185623e-01
     4995000000    1.078183427e-01    8.661802411e-01
     4998000000   -2.289773971e-01    8.425987959e-01
     5001000000   -5.079649091e-01    7.118757963e-01
     5004000000   -7.301613092e-01    4.687266648e-01
     5007000000   -8.498165011e-01    1.872903854e-01
     5010000000   -8.566334248e-01   -1.441219747e-01
     5013000000   -7.523968220e-01   -4.418586791e-01
     5016000000   -5.446904898e-01   -6.765648723e-01
     5019000000   -2.563211024e-01   -8.296784759e-01
     5022000000    5.947971717e-02   -8.652882576e-01
     5025000000    3.614363968e-01   -7.908962369e-01
     5028000000    6.229106784e-01   -6.037853360e-01
     5031000000    8.012486100e-01   -3.342420757e-01
     5034000000    8.651270866e-01   -2.691453695e-02
     5037000000    8.120800853e-01    2.906695604e-01
     5040000000    6.620149612e-01    5.591447949e-01
     5043000000    4.089599848e-01    7.598909736e-01
     5046000000    1.064173877e-01    8.532516956e-01
     5049000000   -2.059914172e-01    8.337950706e-01
     5052000000   -4.905430377e-01    7.068176270e-01
     5055000000   -7.168563008e-01    4.742195010e-01
     5058000000   -8.358469009e-01    1.923533231e-01
     5061000000   -8.472906351e-01   -1.296425909e-01
     5064000000   -7.445110083e-01   -4.192126095e-01
     5067000000   -5.383412838e-01   -6.620148420e-01
     5070000000   -2.672564983e-01   -8.115618229e-01
     5073000000    4.692370445e-02   -8.508113027e-01
     5076000000    3.478621244e-01   -7.767973542e-01
     5079000000    6.065591574e-01   -5.960439444e-01
     5082000000    7.798874378e-01   -3.364273310e-01
     5085000000    8.470017314e-01   -3.554676846e-02
     5088000000    8.027139902e-01    2.680950165e-01
     5091000000    6.493660212e-01    5.399538279e-01
     5094000000    4.115827978e-01    7.371903658e-01
     5097000000    1.189062893e-01    8.360457420e-01
     5100000000   -1.854092330e-01    8.218127489e-01
     5103000000   -4.749769568e-01    6.878831387e-01
     5106000000   -6.881389022e-01    4.890238941e-01
     5109000000   -8.151647449e-01    1.871376634e-01
     5112000000   -8.375379443e-01   -1.040276065e-01
     5115000000   -7.257168293e-01   -4.075600505e-01
     5118000000   -5.443707108e-01   -6.346571445e-01
     5121000000   -2.686683834e-01   -7.901391387e-01
     5124000000    3.075573966e-02   -8.330018520e-01
     5127000000    3.250198960e-01   -7.642241120e-01
     5130000000    5.802780986e-01   -5.951693654e-01
     5133000000    7.551864982e-01   -3.537147343e-01
     5136000000    8.250288367e-01   -5.025015026e-02
     5139000000    7.890087962e-01    2.505008876e-01
     5142000000    6.458582878e-01    5.152192116e-01
     5145000000    4.160194397e-01    7.121278048e-01
     5148000000    1.333894730e-01    8.117104769e-01
     5151000000   -1.689675599e-01    8.043215871e-01
     5154000000   -4.447722137e-01    6.934490800e-01
     5157000000   -6.623630524e-01    4.800350070e-01
     5160000000   -7.934142947e-01    2.107186019e-01
     5163000000   -8.130823970e-01   -8.666672558e-02
     5166000000   -7.231975198e-01   -3.746254146e-01
     5169000000   -5.446754098e-01   -6.073195934e-01
     5172000000   -2.861391008e-01   -7.624709606e-01
     5175000000    1.795169665e-03   -8.151520491e-01
     5178000000    3.045449257e-01   -7.510249615e-01
     5181000000    5.471925139e-01   -6.026269794e-01
     5184000000    7.274035215e-01   -3.546535969e-01
     5187000000    8.097392917e-01   -8.043745160e-02
     5190000000    7.775086761e-01    2.233157605e-01
     5193000000    6.499373317e-01    4.840018451e-01
     5196000000    4.239422679e-01    6.876334548e-01
     5199000000    1.552751958e-01    7.936893702e-01
     5202000000   -1.389920563e-01    7.940729856e-01
     5205000000   -4.152834415e-01    6.872222424e-01
     5208000000   -6.384572983e-01    4.984653294e-01
     5211000000   -7.683529258e-01    2.292262316e-01
     5214000000   -7.979640365e-01   -6.232348457e-02
     5217000000   -7.246730328e-01   -3.463748395e-01
     5220000000   -5.545199513e-01   -5.810057521e-01
     5223000000   -3.060757220e-01   -7.379850745e-01
     5226000000   -2.043275349e-02   -8.014983535e-01
     5229000000    2.689050436e-01   -7.541795373e-01
     5232000000    5.220506787e-01   -6.062496901e-01
     5235000000    7.061436772e-01   -3.782186806e-01
     5238000000    7.930347323e-01   -9.927163273e-02
     5241000000    7.760237455e-01    1.921938360e-01
     5244000000    6.513473988e-01    4.584279656e-01
     5247000000    4.465958178e-01    6.590960622e-01
     5250000000    1.846920401e-01    7.786571980e-01
     5253000000   -1.118357331e-01    7.886486650e-01
     5256000000   -3.893089592e-01    6.940732002e-01
     5259000000   -6.115368009e-01    5.115470290e-01
     5262000000   -7.518339157e-01    2.571873069e-01
     5265000000   -7.937240005e-01   -3.012072481e-02
     5268000000   -7.287498116e-01   -3.159522712e-01
     5271000000   -5.674732327e-01   -5.558004379e-01
     5274000000   -3.309053481e-01   -7.209538221e-01
     5277000000   -4.735573381e-02   -7.915213108e-01
     5280000000    2.377531081e-01   -7.565460801e-01
     5283000000    4.947346449e-01   -6.203128695e-01
     5286000000    6.817393303e-01   -4.019793868e-01
     5289000000    7.838577032e-01   -1.249497980e-01
     5292000000    7.756088972e-01    1.594093442e-01
     5295000000    6.662096381e-01    4.266496599e-01
     5298000000    4.665547013e-01    6.379873157e-01
     5301000000    2.087740451e-01    7.615569234e-01
     5304000000   -7.985496521e-02    7.868652344e-01
     5307000000   -3.573099971e-01    7.060427666e-01
     5310000000   -5.884262919e-01    5.297134519e-01
     5313000000   -7.395633459e-01    2.828181982e-01
     5316000000   -7.902087569e-01   -1.599893789e-03
     5319000000   -7.374677658e-01   -2.839649916e-01
     5322000000   -5.866557956e-01   -5.308093429e-01
     5325000000   -3.600356281e-01   -7.028165460e-01
     5328000000   -7.903026044e-02   -7.868172526e-01
     5331000000    2.080657631e-01   -7.624920607e-01
     5334000000    4.644832909e-01   -6.372296214e-01
     5337000000    6.638131738e-01   -4.275948703e-01
     5340000000    7.720267773e-01   -1.602971405e-01
     5343000000    7.776949406e-01    1.262754500e-01
     5346000000    6.805894971e-01    3.974073827e-01
     5349000000    4.919905066e-01    6.164038181e-01
     5352000000    2.384209484e-01    7.519221902e-01
     5355000000   -4.311140999e-02    7.861288190e-01
     5358000000   -3.264801502e-01    7.183096409e-01
     5361000000   -5.654825568e-01    5.518782735e-01
     5364000000   -7.244809866e-01    3.144323826e-01
     5367000000   -7.854804397e-01    3.386152536e-02
     5370000000   -7.457619309e-01   -2.490521073e-01
     5373000000   -6.050081253e-01   -5.064366460e-01
     5376000000   -3.827736676e-01   -6.877788901e-01
     5379000000   -1.127759889e-01   -7.804709077e-01
     5382000000    1.720318943e-01   -7.709755301e-01
     5385000000    4.313973486e-01   -6.505565047e-01
     5388000000    6.438623667e-01   -4.521175921e-01
     5391000000    7.669715881e-01   -1.922262162e-01
     5394000000    7.830623984e-01    9.316775203e-02
     5397000000    6.951902509e-01    3.668499589e-01
     5400000000    5.164881349e-01    5.865004659e-01
     5403000000    2.765572667e-01    7.382088304e-01
     5406000000   -1.599780843e-02    7.911261320e-01
     5409000000   -2.962856591e-01    7.320768833e-01
     5412000000   -5.386602879e-01    5.772081017e-01
     5415000000   -7.145679593e-01    3.442159593e-01
     5418000000   -7.865806818e-01    7.021459937e-02
     5421000000   -7.596993446e-01   -2.176499218e-01
     5424000000   -6.328477263e-01   -4.704709947e-01
     5427000000   -4.219168723e-01   -6.626600027e-01
     5430000000   -1.405176222e-01   -7.853429317e-01
     5433000000    1.401653141e-01   -7.809726596e-01
     5436000000    3.951797783e-01   -6.773830056e-01
     5439000000    6.368394494e-01   -4.834349155e-01
     5442000000    7.426398993e-01   -2.438772619e-01
     5445000000    8.012248874e-01    7.218983024e-02
     5448000000    7.165252566e-01    3.253446519e-01
     5451000000    5.504246950e-01    5.789184570e-01
     5454000000    3.083961904e-01    7.365168929e-01
     5457000000    3.324457631e-02    7.914881110e-01
     5460000000   -2.624516785e-01    7.557259798e-01
     5463000000   -5.136986971e-01    6.112902164e-01
     5466000000   -6.855659485e-01    3.950332105e-01
     5469000000   -7.913924456e-01    1.126466393e-01
     5472000000   -7.790486217e-01   -1.775908470e-01
     5475000000   -6.639291048e-01   -4.408424199e-01
     5478000000   -4.613208473e-01   -6.550122499e-01
     5481000000   -1.982248873e-01   -7.756338120e-01
     5484000000    9.459288418e-02   -7.964810133e-01
     5487000000    3.870935142e-01   -7.109292150e-01
     5490000000    6.127035022e-01   -5.269749165e-01
     5493000000    7.567639351e-01   -2.798795402e-01
     5496000000    8.017956018e-01    2.112436574e-03
     5499000000    7.498113513e-01    2.946608663e-01
     5502000000    5.953807831e-01    5.492743254e-01
     5505000000    3.617399633e-01    7.207151055e-01
     5508000000    8.724830300e-02    8.013353944e-01
     5511000000   -2.176118940e-01    7.811115980e-01
     5514000000   -4.775378704e-01    6.518768072e-01
     5517000000   -6.931348443e-01    4.321427345e-01
     5520000000   -7.890415192e-01    1.653994322e-01
     5523000000   -8.000830412e-01   -1.276982576e-01
     5526000000   -7.042487860e-01   -4.052395821e-01
     5529000000   -5.193482041e-01   -6.153344512e-01
     5532000000   -2.368615568e-01   -7.860223055e-01
     5535000000    2.176338062e-02   -8.057812452e-01
     5538000000    3.300325572e-01   -7.468577027e-01
     5541000000    5.654957294e-01   -5.826091170e-01
     5544000000    7.587342858e-01   -3.197938502e-01
     5547000000    8.048979640e-01   -7.299708575e-02
     5550000000    7.850751281e-01    2.774106562e-01
     5553000000    6.511852741e-01    4.753816128e-01
     5556000000    4.022653699e-01    7.215977907e-01
     5559000000    1.548216194e-01    7.994845510e-01
     5562000000   -1.430321485e-01    8.004521132e-01
     5565000000   -4.482296407e-01    6.906006932e-01
     5568000000   -6.417701840e-01    5.008027554e-01
     5571000000   -7.909407616e-01    2.257145643e-01
     5574000000   -8.207555413e-01   -7.755427063e-02
     5577000000   -7.441416979e-01   -3.495920002e-01
     5580000000   -5.685822368e-01   -5.913314223e-01
     5583000000   -3.153825700e-01   -7.638534904e-01
     5586000000   -1.476984192e-02   -8.279030919e-01
     5589000000    2.571309209e-01   -7.792905569e-01
     5592000000    5.293640494e-01   -6.364135146e-01
     5595000000    6.961497664e-01   -4.273408949e-01
     5598000000    8.192464113e-01   -1.176396012e-01
     5601000000    8.058599234e-01    2.005997598e-01
     5604000000    6.858000159e-01    4.612483084e-01
     5607000000    5.057266355e-01    6.433572173e-01
     5610000000    1.936163157e-01    8.101156354e-01
     5613000000   -6.227755174e-02    8.221750259e-01
     5616000000   -3.751931190e-01    7.406203747e-01
     5619000000   -6.107817292e-01    5.525773764e-01
     5622000000   -7.680894732e-01    3.045260906e-01
     5625000000   -8.273701072e-01    6.404696964e-03
     5628000000   -7.759690881e-01   -2.839923203e-01
     5631000000   -6.260015965e-01   -5.456056595e-01
     5634000000   -3.705180585e-01   -7.434790134e-01
     5637000000   -1.339426935e-01   -8.119761944e-01
     5640000000    2.144890428e-01   -8.078946471e-01
     5643000000    4.540793300e-01   -6.882214546e-01
     5646000000    6.908136606e-01   -4.628069699e-01
     5649000000    8.100533485e-01   -1.984452903e-01
     5652000000    8.274546862e-01    1.106551066e-01
     5655000000    7.306918502e-01    4.017642140e-01
     5658000000    5.611317158e-01    6.068108678e-01
     5661000000    2.989264131e-01    7.686178088e-01
     5664000000   -6.743040401e-03    8.270159364e-01
     5667000000   -2.952707112e-01    7.729011178e-01
     5670000000   -5.444664359e-01    6.234159470e-01
     5673000000   -7.242935896e-01    3.981466889e-01
     5676000000   -8.171656728e-01    1.020686030e-01
     5679000000   -8.022310138e-01   -2.024613917e-01
     5682000000   -6.876117587e-01   -4.565376341e-01
     5685000000   -4.662439525e-01   -6.787145138e-01
     5688000000   -1.927250475e-01   -8.065533042e-01
     5691000000    1.172740981e-01   -8.165553212e-01
     5694000000    3.769120276e-01   -7.363152504e-01
     5697000000    6.057900190e-01   -5.553640723e-01
     5700000000    7.723358274e-01   -2.862454951e-01
     5703000000    8.206454515e-01   -4.606850073e-02
     5706000000    7.607109547e-01    3.064548373e-01
     5709000000    6.038892269e-01    5.593538880e-01
     5712000000    4.022623599e-01    7.134039402e-01
     5715000000    9.999370575e-02    8.104091883e-01
     5718000000   -1.805912703e-01    7.960070372e-01
     5721000000   -4.593477845e-01    6.764939427e-01
     5724000000   -6.679067612e-01    4.603748322e-01
     5727000000   -7.859584093e-01    2.005757689e-01
     5730000000   -8.067292571e-01   -8.762673289e-02
     5733000000   -7.284318209e-01   -3.586788177e-01
     5736000000   -5.540844202e-01   -5.906141400e-01
     5739000000   -2.995032668e-01   -7.459769249e-01
     5742000000   -3.323052078e-03   -7.994015217e-01
     5745000000    2.622551620e-01   -7.590029240e-01
     5748000000    5.084202290e-01   -6.246123910e-01
     5751000000    6.933539510e-01   -3.938304484e-01
     5754000000    7.856740952e-01   -1.224344149e-01
     5757000000    7.701182365e-01    1.797066331e-01
     5760000000    6.725299954e-01    4.145297706e-01
     5763000000    4.539627433e-01    6.476383805e-01
     5766000000    2.386906892e-01    7.527945042e-01
     5769000000   -8.647065610e-02    7.744134068e-01
     5772000000   -3.630041480e-01    6.918525696e-01
     5775000000   -5.626081228e-01    5.489895344e-01
     5778000000   -7.181358337e-01    2.996478081e-01
     5781000000   -7.741178274e-01    1.928951591e-02
     5784000000   -7.291808128e-01   -2.648202181e-01
     5787000000   -5.960896611e-01   -4.959831536e-01
     5790000000   -4.024765491e-01   -6.639496088e-01
     5793000000   -1.346679479e-01   -7.622703314e-01
     5796000000    1.580471545e-01   -7.478896976e-01
     5799000000    4.073528647e-01   -6.460620761e-01
     5802000000    6.095600128e-01   -4.532433748e-01
     5805000000    7.316817045e-01   -2.114395350e-01
     5808000000    7.580718994e-01    5.629635975e-02
     5811000000    6.755212545e-01    3.313892782e-01
     5814000000    5.255331993e-01    5.421280861e-01
     5817000000    3.159634173e-01    6.922324300e-01
     5820000000    3.121353313e-02    7.507887483e-01
     5823000000   -2.419832796e-01    7.053618431e-01
     5826000000   -4.709239900e-01    5.802636147e-01
     5829000000   -6.422103047e-01    3.909966946e-01
     5832000000   -7.322410941e-01    1.116177216e-01
     5835000000   -7.193329930e-01   -1.533785760e-01
     5838000000   -6.451388597e-01   -3.862448633e-01
     5841000000   -4.401223958e-01   -5.917720199e-01
     5844000000   -2.184727788e-01   -7.100659013e-01
     5847000000    6.849750876e-02   -7.284805179e-01
     5850000000    3.028833866e-01   -6.746482253e-01
     5853000000    5.233933926e-01   -5.107709169e-01
     5856000000    6.702126861e-01   -2.853174508e-01
     5859000000    7.263922095e-01   -2.372904122e-02
     5862000000    7.061341405e-01    2.153878361e-01
     5865000000    5.688782334e-01    4.557577372e-01
     5868000000    3.763287961e-01    6.252553463e-01
     5871000000    1.288536638e-01    7.174641490e-01
     5874000000   -1.342908442e-01    7.099723220e-01
     5877000000   -3.735902905e-01    6.306404471e-01
     5880000000   -5.735046268e-01    4.155879021e-01
     5883000000   -6.948171258e-01    2.298277169e-01
     5886000000   -7.112581730e-01   -6.169446930e-02
     5889000000   -6.491175294e-01   -3.029319346e-01
     5892000000   -5.457386971e-01   -5.038470030e-01
     5895000000   -2.722908258e-01   -6.490537524e-01
     5898000000   -4.837737978e-02   -7.215083838e-01
     5901000000    2.359527200e-01   -6.604749560e-01
     5904000000    4.405657053e-01   -5.811300874e-01
     5907000000    6.130504608e-01   -3.580112755e-01
     5910000000    6.965796351e-01   -1.110874489e-01
     5913000000    7.044101954e-01    1.296009123e-01
     5916000000    6.080695391e-01    3.760251105e-01
     5919000000    4.323700964e-01    5.631119013e-01
     5922000000    2.146621644e-01    6.840634942e-01
     5925000000   -4.995333776e-02    7.070945501e-01
     5928000000   -2.925841808e-01    6.486399770e-01
     5931000000   -5.038724542e-01    4.950705469e-01
     5934000000   -6.501211524e-01    2.896814942e-01
     5937000000   -7.045602202e-01    3.736391664e-02
     5940000000   -6.758217812e-01   -2.141209245e-01
     5943000000   -5.539148450e-01   -4.381370544e-01
     5946000000   -3.608411551e-01   -6.070171595e-01
     5949000000   -1.165929511e-01   -6.911866069e-01
     5952000000    1.242877766e-01   -7.017251849e-01
     5955000000    3.694264293e-01   -5.976713300e-01
     5958000000    5.554461479e-01   -4.259863496e-01
     5961000000    6.697934866e-01   -2.042063028e-01
     5964000000    6.979560256e-01    4.844376445e-02
     5967000000    6.462876201e-01    2.882285416e-01
     5970000000    4.999518394e-01    5.004662871e-01
     5973000000    2.754358947e-01    6.374408603e-01
     5976000000    3.056843206e-02    6.949775219e-01
     5979000000   -2.107329965e-01    6.694672704e-01
     5982000000   -4.356167614e-01    5.411948562e-01
     5985000000   -6.022789478e-01    3.571947813e-01
     5988000000   -6.861524582e-01    1.149569377e-01
     5991000000   -6.828091741e-01   -1.339254528e-01
     5994000000   -5.870741010e-01   -3.672270179e-01
     5997000000   -4.214783311e-01   -5.529912114e-01
     6000000000   -1.998617053e-01   -6.614032984e-01
