! NanoVNA-App
! Date: 2026-05-22 17:56:58
! Start: 4.8GHz Stop: 6GHz Points: 401
! S-Parameter data: F S11
# Hz S RI R 50
!     Frequency           S11_Real           S11_Imag
     4800000000    1.684813499e-01   -1.920096874e-01
     4803000000    2.268464416e-01   -1.234975979e-01
     4806000000    2.532840967e-01   -3.638860583e-02
     4809000000    2.499153167e-01    5.340473726e-02
     4812000000    2.133454531e-01    1.371945292e-01
     4815000000    1.508914381e-01    2.017175555e-01
     4818000000    7.115338743e-02    2.407351136e-01
     4821000000   -1.744995452e-02    2.492010891e-01
     4824000000   -1.026151925e-01    2.270947695e-01
     4827000000   -1.742557436e-01    1.745340079e-01
     4830000000   -2.230169177e-01    1.017123535e-01
     4833000000   -2.447974533e-01    1.791919768e-02
     4836000000   -2.344733179e-01   -6.817980856e-02
     4839000000   -1.970680356e-01   -1.445133984e-01
     4842000000   -1.332505047e-01   -2.014485151e-01
     4845000000   -5.492661893e-02   -2.338618785e-01
     4848000000    2.702925913e-02   -2.379605621e-01
     4851000000    1.034219936e-01   -2.129862309e-01
     4854000000    1.668651849e-01   -1.618408859e-01
     4857000000    2.087157369e-01   -9.410671890e-02
     4860000000    2.235544771e-01   -1.610560715e-02
     4863000000    2.107794434e-01    6.207086891e-02
     4866000000    1.729616374e-01    1.253303140e-01
     4869000000    1.153476983e-01    1.778018624e-01
     4872000000    4.702660069e-02    1.950559914e-01
     4875000000   -2.645031735e-02    2.026462108e-01
     4878000000   -9.112347662e-02    1.744557470e-01
     4881000000   -1.492659748e-01    1.338486224e-01
     4884000000   -1.784340143e-01    7.340369374e-02
     4887000000   -1.858610511e-01    9.654261172e-03
     4890000000   -1.748329103e-01   -5.328300223e-02
     4893000000   -1.415318698e-01   -1.053820550e-01
     4896000000   -9.306348115e-02   -1.427478790e-01
     4899000000   -3.487313166e-02   -1.630612463e-01
     4902000000    2.369762957e-02   -1.607751846e-01
     4905000000    7.435182482e-02   -1.380245984e-01
     4908000000    1.113266945e-01   -1.016317233e-01
     4911000000    1.365164965e-01   -5.614543334e-02
     4914000000    1.414197534e-01   -7.450476289e-03
     4917000000    1.333660632e-01    3.967352957e-02
     4920000000    1.064407378e-01    7.697308809e-02
     4923000000    7.125746459e-02    1.041707471e-01
     4926000000    3.261511028e-02    1.106792986e-01
     4929000000   -9.627516381e-03    1.155479029e-01
     4932000000   -4.023153335e-02    9.806923568e-02
     4935000000   -6.728471816e-02    7.307879627e-02
     4938000000   -8.008251339e-02    4.335776716e-02
     4941000000   -8.371398598e-02    1.284652762e-02
     4944000000   -7.563086599e-02   -1.292541716e-02
     4947000000   -6.496268511e-02   -3.407287225e-02
     4950000000   -4.457387701e-02   -4.638261348e-02
     4953000000   -2.475935966e-02   -5.593013018e-02
     4956000000   -4.788580816e-03   -5.775691569e-02
     4959000000    1.031232160e-02   -5.344397202e-02
     4962000000    2.121378854e-02   -4.470472038e-02
     4965000000    2.867070585e-02   -3.287610039e-02
     4968000000    3.441875800e-02   -2.177860402e-02
     4971000000    3.222374991e-02   -1.694267616e-02
     4974000000    3.311986849e-02   -8.273122832e-03
     4977000000    3.228618205e-02   -3.952830099e-03
     4980000000    3.168963268e-02    2.877456602e-03
     4983000000    3.308535367e-02    7.900849916e-03
     4986000000    3.147355095e-02    1.546560787e-02
     4989000000    3.576611727e-02    2.401675284e-02
     4992000000    3.236417845e-02    3.366591409e-02
     4995000000    2.636975795e-02    4.559584334e-02
     4998000000    1.108373329e-02    5.025475100e-02
     5001000000   -3.772040131e-03    6.551130116e-02
     5004000000   -2.201587707e-02    6.269005686e-02
     5007000000   -3.913444281e-02    5.466744676e-02
     5010000000   -6.648327410e-02    4.438974708e-02
     5013000000   -8.373608440e-02    2.175703272e-02
     5016000000   -9.641153365e-02   -7.952234708e-03
     5019000000   -9.227500856e-02   -3.800182417e-02
     5022000000   -8.008438349e-02   -7.163558900e-02
     5025000000   -5.630841106e-02   -9.863123298e-02
     5028000000   -2.157231979e-02   -1.203294247e-01
     5031000000    1.950700581e-02   -1.261620969e-01
     5034000000    6.334759295e-02   -1.189800277e-01
     5037000000    1.029675379e-01   -9.634014964e-02
     5040000000    1.376546323e-01   -5.905696377e-02
     5043000000    1.541790515e-01   -1.212600991e-02
     5046000000    1.551154554e-01    4.417536780e-02
     5049000000    1.370390207e-01    9.496328235e-02
     5052000000    9.887922555e-02    1.421830803e-01
     5055000000    4.567532986e-02    1.754658222e-01
     5058000000   -1.274038944e-02    1.864234060e-01
     5061000000   -7.873627543e-02    1.764987111e-01
     5064000000   -1.335508078e-01    1.462575644e-01
     5067000000   -1.816024333e-01    9.223145247e-02
     5070000000   -2.073432058e-01    2.660760097e-02
     5073000000   -2.084219009e-01   -4.592850432e-02
     5076000000   -1.823725849e-01   -1.165531874e-01
     5079000000   -1.339291036e-01   -1.766650975e-01
     5082000000   -6.946253031e-02   -2.150756270e-01
     5085000000    8.967775851e-03   -2.299926728e-01
     5088000000    8.841510862e-02   -2.182695270e-01
     5091000000    1.605275422e-01   -1.754828095e-01
     5094000000    2.146630883e-01   -1.103605032e-01
     5097000000    2.432913631e-01   -3.027489409e-02
     5100000000    2.431343347e-01    5.476554856e-02
     5103000000    2.097736597e-01    1.388448030e-01
     5106000000    1.570504308e-01    2.053125501e-01
     5109000000    7.058406621e-02    2.459677011e-01
     5112000000   -1.349556632e-02    2.663984001e-01
     5115000000   -1.065388769e-01    2.412571311e-01
     5118000000   -1.848075092e-01    1.993312985e-01
     5121000000   -2.420143783e-01    1.211427972e-01
     5124000000   -2.753963470e-01    3.524474427e-02
     5127000000   -2.617240548e-01   -6.296752393e-02
     5130000000   -2.320578694e-01   -1.519186199e-01
     5133000000   -1.636407077e-01   -2.209938467e-01
     5136000000   -7.934174687e-02   -2.646906376e-01
     5139000000    1.813204028e-02   -2.726637423e-01
     5142000000    1.128403470e-01   -2.549080551e-01
     5145000000    1.955520362e-01   -1.970266402e-01
     5148000000    2.476312220e-01   -1.156826541e-01
     5151000000    2.739792466e-01   -2.251256816e-02
     5154000000    2.612674832e-01    7.345976681e-02
     5157000000    2.201168835e-01    1.611862332e-01
     5160000000    1.500810236e-01    2.279213369e-01
     5163000000    6.140677258e-02    2.621369362e-01
     5166000000   -3.641413525e-02    2.651812732e-01
     5169000000   -1.259899884e-01    2.347735763e-01
     5172000000   -2.025565505e-01    1.728713363e-01
     5175000000   -2.494631410e-01    8.853436261e-02
     5178000000   -2.612566650e-01   -4.639755934e-03
     5181000000   -2.469358593e-01   -9.973316640e-02
     5184000000   -1.988777518e-01   -1.816863567e-01
     5187000000   -1.179106310e-01   -2.247184068e-01
     5190000000   -2.731616050e-02   -2.626135349e-01
     5193000000    6.183137372e-02   -2.493463755e-01
     5196000000    1.466813236e-01   -2.124719769e-01
     5199000000    2.112742215e-01   -1.432917416e-01
     5202000000    2.466142625e-01   -6.187095493e-02
     5205000000    2.501442730e-01    3.047858179e-02
     5208000000    2.185383439e-01    1.138957217e-01
     5211000000    1.622427553e-01    1.874711365e-01
     5214000000    8.599317074e-02    2.250417173e-01
     5217000000    4.848894605e-05    2.358710468e-01
     5220000000   -8.849537373e-02    2.198627740e-01
     5223000000   -1.579485536e-01    1.697102338e-01
     5226000000   -2.067646831e-01    9.908248484e-02
     5229000000   -2.192550153e-01    2.052742429e-02
     5232000000   -2.128279805e-01   -6.278429180e-02
     5235000000   -1.745540500e-01   -1.354418695e-01
     5238000000   -1.135149822e-01   -1.914961487e-01
     5241000000   -3.663601354e-02   -2.144682556e-01
     5244000000    4.062557220e-02   -2.075879425e-01
     5247000000    1.161775440e-01   -1.764063537e-01
     5250000000    1.609005928e-01   -1.164492071e-01
     5253000000    1.944043487e-01   -4.596817121e-02
     5256000000    1.975479275e-01    3.118103743e-02
     5259000000    1.736991704e-01    1.064470038e-01
     5262000000    1.171020269e-01    1.528911144e-01
     5265000000    5.120118335e-02    1.925843209e-01
     5268000000   -2.718297206e-02    2.052634656e-01
     5271000000   -8.801161498e-02    1.716556400e-01
     5274000000   -1.500118077e-01    1.289248914e-01
     5277000000   -1.875440925e-01    6.548830122e-02
     5280000000   -1.924881041e-01   -7.448605727e-03
     5283000000   -1.768009216e-01   -8.017749339e-02
     5286000000   -1.299457401e-01   -1.284678280e-01
     5289000000   -7.345484942e-02   -1.775264889e-01
     5292000000   -3.135906067e-03   -1.847959310e-01
     5295000000    6.602612138e-02   -1.736413389e-01
     5298000000    1.248090491e-01   -1.347618401e-01
     5301000000    1.677714288e-01   -7.942976058e-02
     5304000000    1.808151007e-01   -1.282097585e-02
     5307000000    1.715484709e-01    5.617047474e-02
     5310000000    1.369510591e-01    1.168381423e-01
     5313000000    8.293981850e-02    1.540867239e-01
     5316000000    1.831880398e-02    1.746198982e-01
     5319000000   -4.652569443e-02    1.662360281e-01
     5322000000   -1.078160703e-01    1.353586316e-01
     5325000000   -1.529850811e-01    8.539275825e-02
     5328000000   -1.710228622e-01    2.098507248e-02
     5331000000   -1.623859257e-01   -4.643458128e-02
     5334000000   -1.352605224e-01   -1.061834171e-01
     5337000000   -8.417235315e-02   -1.542374343e-01
     5340000000   -1.989570446e-02   -1.724801511e-01
     5343000000    4.639746994e-02   -1.696451008e-01
     5346000000    1.076830998e-01   -1.411677301e-01
     5349000000    1.552767307e-01   -9.184656292e-02
     5352000000    1.737968177e-01   -2.943181247e-02
     5355000000    1.794740856e-01    3.909016773e-02
     5358000000    1.500120312e-01    1.023649201e-01
     5361000000    9.807888418e-02    1.558013111e-01
     5364000000    4.170226306e-02    1.713693440e-01
     5367000000   -3.043401614e-02    1.805333495e-01
     5370000000   -9.789334238e-02    1.557629704e-01
     5373000000   -1.589691639e-01    1.065419391e-01
     5376000000   -1.805951893e-01    4.804553837e-02
     5379000000   -1.820935905e-01   -2.457316592e-02
     5382000000   -1.632367522e-01   -9.772430360e-02
     5385000000   -1.164872497e-01   -1.483721882e-01
     5388000000   -5.313590914e-02   -1.869101077e-01
     5391000000    1.864774898e-02   -1.904370636e-01
     5394000000    9.127753973e-02   -1.741891056e-01
     5397000000    1.501297504e-01   -1.249878407e-01
     5400000000    1.852701604e-01   -6.108316779e-02
     5403000000    2.023842484e-01    1.056373212e-02
     5406000000    1.855699569e-01    8.512721956e-02
     5409000000    1.413739473e-01    1.531554610e-01
     5412000000    7.786961645e-02    1.879899502e-01
     5415000000    1.543536782e-03    2.108659297e-01
     5418000000   -8.262150735e-02    2.012524754e-01
     5421000000   -1.416925341e-01    1.554028243e-01
     5424000000   -1.990135461e-01    9.251502901e-02
     5427000000   -2.152888328e-01    1.427160297e-02
     5430000000   -2.076898962e-01   -6.434646249e-02
     5433000000   -1.688099653e-01   -1.211208329e-01
     5436000000   -1.067342907e-01   -2.011799216e-01
     5439000000   -3.638176620e-02   -2.182258815e-01
     5442000000    5.285765603e-02   -2.223926038e-01
     5445000000    1.353873014e-01   -1.897161901e-01
     5448000000    1.882589757e-01   -1.343023330e-01
     5451000000    2.254532725e-01   -5.597528443e-02
     5454000000    2.389335483e-01    4.232054576e-02
     5457000000    2.036567181e-01    1.013643518e-01
     5460000000    1.475810558e-01    1.990656108e-01
     5463000000    7.248851657e-02    2.299618572e-01
     5466000000   -1.260058116e-02    2.397251129e-01
     5469000000   -1.086733565e-01    2.224045396e-01
     5472000000   -1.739478558e-01    1.722105443e-01
     5475000000   -2.450106442e-01    8.417810500e-02
     5478000000   -2.504861057e-01    4.445197992e-03
     5481000000   -2.335040420e-01   -7.868877053e-02
     5484000000   -1.880701631e-01   -1.735558510e-01
     5487000000   -1.230902001e-01   -2.138953358e-01
     5490000000   -1.608041860e-02   -2.621383965e-01
     5493000000    6.361156702e-02   -2.479029596e-01
     5496000000    1.677895635e-01   -2.093614340e-01
     5499000000    2.144213617e-01   -1.467436403e-01
     5502000000    2.623013854e-01   -5.011295900e-02
     5505000000    2.596020401e-01    3.700637445e-02
     5508000000    2.302238196e-01    1.326395422e-01
     5511000000    1.672618687e-01    2.098687291e-01
     5514000000    7.223502547e-02    2.612594962e-01
     5517000000   -6.389554590e-03    2.611658275e-01
     5520000000   -1.042436138e-01    2.445773929e-01
     5523000000   -1.962325424e-01    1.869667768e-01
     5526000000   -2.411047369e-01    1.123703346e-01
     5529000000   -2.659703493e-01    1.448361855e-02
     5532000000   -2.531295717e-01   -7.238453627e-02
     5535000000   -1.989798695e-01   -1.871609539e-01
     5538000000   -1.345098317e-01   -2.225658596e-01
     5541000000   -3.800187632e-02   -2.577078342e-01
     5544000000    5.638670176e-02   -2.545505166e-01
     5547000000    1.312443018e-01   -2.185008526e-01
     5550000000    2.239144444e-01   -1.378188282e-01
     5553000000    2.488451451e-01   -6.065337360e-02
     5556000000    2.556318343e-01    4.154687375e-02
     5559000000    2.257922590e-01    1.252281815e-01
     5562000000    1.650689393e-01    2.011372000e-01
     5565000000    8.080396056e-02    2.463424206e-01
     5568000000   -1.051542535e-02    2.532092035e-01
     5571000000   -1.029201448e-01    2.335977703e-01
     5574000000   -1.747564673e-01    1.834824979e-01
     5577000000   -2.337829769e-01    9.745962173e-02
     5580000000   -2.512361407e-01    1.181098353e-02
     5583000000   -2.370800525e-01   -8.940403908e-02
     5586000000   -1.922825724e-01   -1.589806080e-01
     5589000000   -1.069665551e-01   -2.248285860e-01
     5592000000   -3.438956663e-02   -2.428064793e-01
     5595000000    5.941056088e-02   -2.407491952e-01
     5598000000    1.430822760e-01   -2.032618076e-01
     5601000000    2.043941170e-01   -1.377689242e-01
     5604000000    2.391688079e-01   -5.123262480e-02
     5607000000    2.414530814e-01    3.528312966e-02
     5610000000    2.095383257e-01    1.217309907e-01
     5613000000    1.453746855e-01    1.902056485e-01
     5616000000    7.857443392e-02    2.223680317e-01
     5619000000   -9.450650774e-03    2.326765656e-01
     5622000000   -9.741631150e-02    2.107894123e-01
     5625000000   -1.677490026e-01    1.585442722e-01
     5628000000   -2.108950615e-01    8.770541847e-02
     5631000000   -2.257198393e-01   -2.291554352e-03
     5634000000   -2.121982127e-01   -7.759985328e-02
     5637000000   -1.745962501e-01   -1.425540745e-01
     5640000000   -9.176175296e-02   -2.007166743e-01
     5643000000   -5.432214960e-02   -2.175145000e-01
     5646000000    6.535278261e-02   -2.062145472e-01
     5649000000    1.183766350e-01   -1.820999533e-01
     5652000000    1.841896474e-01   -9.937057644e-02
     5655000000    2.060767710e-01   -5.100695044e-02
     5658000000    2.080977112e-01    2.893702313e-02
     5661000000    1.653792560e-01    1.205350235e-01
     5664000000    1.255850941e-01    1.608887017e-01
     5667000000    5.400296301e-02    1.967177093e-01
     5670000000   -1.508719474e-02    2.026594430e-01
     5673000000   -8.779765666e-02    1.771005243e-01
     5676000000   -1.415942311e-01    1.320533454e-01
     5679000000   -1.763415039e-01    7.106381655e-02
     5682000000   -1.835814416e-01   -5.350535735e-03
     5685000000   -1.643394530e-01   -7.094708830e-02
     5688000000   -1.339716911e-01   -1.189868376e-01
     5691000000   -8.159458637e-02   -1.574830562e-01
     5694000000    1.219279366e-03   -1.699725091e-01
     5697000000    5.355025455e-02   -1.604360193e-01
     5700000000    1.007553935e-01   -1.327107251e-01
     5703000000    1.416372806e-01   -9.145992994e-02
     5706000000    1.583766788e-01   -1.204493083e-02
     5709000000    1.516698897e-01    4.144562781e-02
     5712000000    1.191461906e-01    9.018185735e-02
     5715000000    7.253626734e-02    1.259417981e-01
     5718000000    3.295882791e-02    1.443544179e-01
     5721000000   -4.393999651e-02    1.267048866e-01
     5724000000   -7.746274024e-02    1.203924343e-01
     5727000000   -1.172055081e-01    5.779057741e-02
     5730000000   -1.331208944e-01    1.690214127e-02
     5733000000   -1.310301125e-01   -3.038248047e-02
     5736000000   -1.070833430e-01   -7.897467911e-02
     5739000000   -6.497114897e-02   -1.115052328e-01
     5742000000   -2.083420195e-02   -1.283285767e-01
     5745000000    2.265455388e-02   -1.284139603e-01
     5748000000    7.831708342e-02   -9.088062495e-02
     5751000000    1.051467657e-01   -6.125818193e-02
     5754000000    1.169132143e-01   -1.054608170e-02
     5757000000    1.117496565e-01    3.387274966e-02
     5760000000    1.001677662e-01    6.794231385e-02
     5763000000    5.691481009e-02    1.043376550e-01
     5766000000    1.060711034e-02    1.160257459e-01
     5769000000   -3.274570033e-02    1.145035699e-01
     5772000000   -7.784050703e-02    8.575108647e-02
     5775000000   -1.010758877e-01    6.860090792e-02
     5778000000   -1.107900962e-01   -1.079520117e-02
     5781000000   -1.095488518e-01   -3.748837486e-02
     5784000000   -8.788257092e-02   -7.613231987e-02
     5787000000   -5.376164988e-02   -1.056530923e-01
     5790000000    4.368951544e-03   -1.130782440e-01
     5793000000    4.221496731e-02   -1.112404838e-01
     5796000000    8.196032792e-02   -9.024818242e-02
     5799000000    1.117236838e-01   -4.337250441e-02
     5802000000    1.233957633e-01   -4.491306841e-03
     5805000000    1.143345162e-01    4.224159196e-02
     5808000000    8.099001646e-02    8.979717642e-02
     5811000000    5.567387864e-02    1.122175753e-01
     5814000000   -1.950089820e-03    1.223795861e-01
     5817000000   -4.442737252e-02    1.144679263e-01
     5820000000   -8.886063099e-02    8.571538329e-02
     5823000000   -1.158668399e-01    5.360057950e-02
     5826000000   -1.284742653e-01    5.799683742e-03
     5829000000   -1.185864359e-01   -5.022996664e-02
     5832000000   -8.899422735e-02   -9.287719429e-02
     5835000000   -5.401919037e-02   -1.219275519e-01
     5838000000    2.685349435e-03   -1.353082955e-01
     5841000000    4.119825736e-02   -1.326635182e-01
     5844000000    9.538021684e-02   -1.012442037e-01
     5847000000    1.273429990e-01   -5.897314847e-02
     5850000000    1.433816552e-01   -1.845953427e-02
     5853000000    1.323709935e-01    5.100388825e-02
     5856000000    1.082406789e-01    9.551566094e-02
     5859000000    5.700999871e-02    1.328700930e-01
     5862000000    5.746510345e-03    1.484772265e-01
     5865000000   -4.911534861e-02    1.432580948e-01
     5868000000   -9.584204108e-02    1.199802384e-01
     5871000000   -1.392722130e-01    6.919594109e-02
     5874000000   -1.582145393e-01    2.999862889e-03
     5877000000   -1.616585404e-01   -3.636769205e-02
     5880000000   -1.302434951e-01   -1.023470089e-01
     5883000000   -8.671177179e-02   -1.439205706e-01
     5886000000   -1.403406914e-02   -1.663981825e-01
     5889000000    4.855213687e-02   -1.625819951e-01
     5892000000    9.557092935e-02   -1.475522220e-01
     5895000000    1.484855562e-01   -9.281097353e-02
     5898000000    1.765219718e-01   -4.700575396e-02
     5901000000    1.742381006e-01    4.428981245e-02
     5904000000    1.634997576e-01    9.262932837e-02
     5907000000    1.262192279e-01    1.460057795e-01
     5910000000    3.666593879e-02    1.817969084e-01
     5913000000   -1.917080581e-02    1.918657869e-01
     5916000000   -8.401322365e-02    1.788850576e-01
     5919000000   -1.499081850e-01    1.343111843e-01
     5922000000   -1.894292980e-01    6.230060011e-02
     5925000000   -2.070958167e-01   -1.926983008e-03
     5928000000   -1.892775446e-01   -7.883983105e-02
     5931000000   -1.449010670e-01   -1.470080465e-01
     5934000000   -8.784791082e-02   -1.922852993e-01
     5937000000   -1.087715011e-02   -2.131941170e-01
     5940000000    6.816298515e-02   -2.039994448e-01
     5943000000    1.360579729e-01   -1.757544428e-01
     5946000000    1.900057346e-01   -1.057176813e-01
     5949000000    2.182585001e-01   -2.820056863e-02
     5952000000    2.112236619e-01    5.457298085e-02
     5955000000    1.784324348e-01    1.303409934e-01
     5958000000    1.192062721e-01    1.896744668e-01
     5961000000    6.374666095e-02    2.291160971e-01
     5964000000   -4.519112036e-02    2.227757275e-01
     5967000000   -1.195745841e-01    2.024707645e-01
     5970000000   -1.877769828e-01    1.541712433e-01
     5973000000   -2.292168438e-01    6.814055890e-02
     5976000000   -2.424648404e-01   -2.051472850e-02
     5979000000   -2.254997790e-01   -1.052222997e-01
     5982000000   -1.828702688e-01   -1.749227941e-01
     5985000000   -1.026629210e-01   -2.297011167e-01
     5988000000   -8.632526733e-03   -2.499788553e-01
     5991000000    8.143232018e-02   -2.364576757e-01
     5994000000    1.633822471e-01   -1.928684860e-01
     5997000000    2.246567756e-01   -1.273857206e-01
     6000000000    2.520286441e-01   -3.494029865e-02
