! NanoVNA-App
! Date: 2026-05-22 17:53:55
! Start: 2.3GHz Stop: 0Hz Points: 401
! S-Parameter data: F S11
# Hz S RI R 50
!     Frequency           S11_Real           S11_Imag
     2300000000    7.035022974e-02   -3.789127171e-01
     2300750000    1.063109338e-01   -3.691022098e-01
     2301500000    1.404756755e-01   -3.579983413e-01
     2302250000    1.716815233e-01   -3.440197408e-01
     2303000000    2.042132020e-01   -3.250405490e-01
     2303750000    2.321464717e-01   -3.061291873e-01
     2304500000    2.583812773e-01   -2.862406969e-01
     2305250000    2.840588987e-01   -2.590496540e-01
     2306000000    3.071953952e-01   -2.302897871e-01
     2306750000    3.265297413e-01   -2.018311471e-01
     2307500000    3.433251679e-01   -1.727471203e-01
     2308250000    3.568676412e-01   -1.388873160e-01
     2309000000    3.687564433e-01   -1.059108749e-01
     2309750000    3.760936260e-01   -7.080408931e-02
     2310500000    3.806416988e-01   -3.704836220e-02
     2311250000    3.821608126e-01   -1.485536573e-03
     2312000000    3.799278736e-01    3.353998438e-02
     2312750000    3.747522533e-01    6.834337860e-02
     2313500000    3.668474257e-01    1.024077237e-01
     2314250000    3.545688689e-01    1.349625885e-01
     2315000000    3.400841057e-01    1.679925621e-01
     2315750000    3.221898377e-01    1.989692897e-01
     2316500000    3.035806417e-01    2.270826697e-01
     2317250000    2.824932039e-01    2.527519166e-01
     2318000000    2.565803826e-01    2.786043286e-01
     2318750000    2.275986522e-01    3.010016084e-01
     2319500000    2.004603744e-01    3.198527992e-01
     2320250000    1.703365594e-01    3.367285728e-01
     2321000000    1.380311251e-01    3.510544300e-01
     2321750000    1.043716967e-01    3.618067205e-01
     2322500000    6.920761615e-02    3.693921864e-01
     2323250000    3.630149737e-02    3.736255169e-01
     2324000000    2.375627635e-03    3.765546679e-01
     2324750000   -3.183136508e-02    3.742472231e-01
     2325500000   -6.895129383e-02    3.681481481e-01
     2326250000   -1.016458794e-01    3.615083098e-01
     2327000000   -1.344770044e-01    3.509061635e-01
     2327750000   -1.671085358e-01    3.348740041e-01
     2328500000   -1.962478906e-01    3.186167479e-01
     2329250000   -2.264333367e-01    2.987583578e-01
     2330000000   -2.526805997e-01    2.774536908e-01
     2330750000   -2.775114477e-01    2.529182136e-01
     2331500000   -2.997099161e-01    2.251232564e-01
     2332250000   -3.193829060e-01    1.994928122e-01
     2333000000   -3.364821970e-01    1.659925133e-01
     2333750000   -3.506844640e-01    1.363421232e-01
     2334500000   -3.612733781e-01    1.025303975e-01
     2335250000   -3.708443046e-01    7.122588158e-02
     2336000000   -3.757660985e-01    3.712908179e-02
     2336750000   -3.774381280e-01    2.700980753e-03
     2337500000   -3.766458035e-01   -3.143875673e-02
     2338250000   -3.722952008e-01   -6.546051055e-02
     2339000000   -3.646514118e-01   -9.890102595e-02
     2339750000   -3.536639214e-01   -1.312572956e-01
     2340500000   -3.399435580e-01   -1.632065475e-01
     2341250000   -3.241945803e-01   -1.921515316e-01
     2342000000   -3.045987487e-01   -2.205674946e-01
     2342750000   -2.838470936e-01   -2.468167543e-01
     2343500000   -2.609163821e-01   -2.708882987e-01
     2344250000   -2.333213389e-01   -2.930559218e-01
     2345000000   -2.035903186e-01   -3.119368553e-01
     2345750000   -1.756523848e-01   -3.284795284e-01
     2346500000   -1.462789327e-01   -3.434099257e-01
     2347250000   -1.129693910e-01   -3.539169431e-01
     2348000000   -7.853475958e-02   -3.619000316e-01
     2348750000   -4.407947883e-02   -3.669826984e-01
     2349500000   -1.270719618e-02   -3.703354895e-01
     2350250000    2.435162850e-02   -3.676741123e-01
     2351000000    5.774913356e-02   -3.633688986e-01
     2351750000    9.076987952e-02   -3.557653725e-01
     2352500000    1.232761890e-01   -3.450441957e-01
     2353250000    1.540149897e-01   -3.341507912e-01
     2354000000    1.867464185e-01   -3.139314055e-01
     2354750000    2.139490098e-01   -2.979565859e-01
     2355500000    2.402572185e-01   -2.790267169e-01
     2356250000    2.661739886e-01   -2.522429228e-01
     2357000000    2.871095538e-01   -2.273735702e-01
     2357750000    3.074961305e-01   -2.010173202e-01
     2358500000    3.251245320e-01   -1.732262522e-01
     2359250000    3.392315209e-01   -1.399656534e-01
     2360000000    3.511628807e-01   -1.096946821e-01
     2360750000    3.600584567e-01   -7.722333819e-02
     2361500000    3.651750088e-01   -4.440268874e-02
     2362250000    3.674071729e-01   -9.646319784e-03
     2363000000    3.681794703e-01    2.207047679e-02
     2363750000    3.633126915e-01    5.684340373e-02
     2364500000    3.568743169e-01    8.884915709e-02
     2365250000    3.468939364e-01    1.211028248e-01
     2366000000    3.341991007e-01    1.519866437e-01
     2366750000    3.183289170e-01    1.821654737e-01
     2367500000    3.003544211e-01    2.101439536e-01
     2368250000    2.796652615e-01    2.358138263e-01
     2369000000    2.568017542e-01    2.604620755e-01
     2369750000    2.318580300e-01    2.829612792e-01
     2370500000    2.050252408e-01    3.025877476e-01
     2371250000    1.748971790e-01    3.198044896e-01
     2372000000    1.459976882e-01    3.340571523e-01
     2372750000    1.137423515e-01    3.463926017e-01
     2373500000    8.184707165e-02    3.545961678e-01
     2374250000    4.900926352e-02    3.605473340e-01
     2375000000    1.420034003e-02    3.630652428e-01
     2375750000   -1.660465822e-02    3.635354936e-01
     2376500000   -5.139854178e-02    3.594028950e-01
     2377250000   -8.541455120e-02    3.528568447e-01
     2378000000   -1.153616011e-01    3.452187181e-01
     2378750000   -1.489336342e-01    3.309194744e-01
     2379500000   -1.782645732e-01    3.163931668e-01
     2380250000   -2.052954286e-01    3.004404902e-01
     2381000000   -2.322567403e-01    2.804949880e-01
     2381750000   -2.579719424e-01    2.559720874e-01
     2382500000   -2.786603868e-01    2.351712584e-01
     2383250000   -3.004912138e-01    2.041667253e-01
     2384000000   -3.172416687e-01    1.773759723e-01
     2384750000   -3.315803111e-01    1.484700441e-01
     2385500000   -3.443940282e-01    1.175443456e-01
     2386250000   -3.538211286e-01    8.828260750e-02
     2387000000   -3.591574728e-01    5.120428279e-02
     2387750000   -3.627697825e-01    2.110862546e-02
     2388500000   -3.638381064e-01   -1.160138100e-02
     2389250000   -3.597871363e-01   -4.513395205e-02
     2390000000   -3.545951843e-01   -7.758112997e-02
     2390750000   -3.466047943e-01   -1.098300740e-01
     2391500000   -3.349811733e-01   -1.405028999e-01
     2392250000   -3.190457225e-01   -1.703941673e-01
     2393000000   -3.030408919e-01   -1.987550259e-01
     2393750000   -2.846931517e-01   -2.249925435e-01
     2394500000   -2.635770440e-01   -2.488814443e-01
     2395250000   -2.391245663e-01   -2.720198631e-01
     2396000000   -2.129339725e-01   -2.923741043e-01
     2396750000   -1.858747900e-01   -3.103268743e-01
     2397500000   -1.569789797e-01   -3.253546357e-01
     2398250000   -1.266389042e-01   -3.374681175e-01
     2399000000   -9.505221248e-02   -3.473609686e-01
     2399750000   -6.352621317e-02   -3.543217778e-01
     2400500000   -3.031038493e-02   -3.584955633e-01
     2401250000    2.482770942e-03   -3.588913083e-01
     2402000000    3.482968733e-02   -3.562967777e-01
     2402750000    6.696746498e-02   -3.516519666e-01
     2403500000    9.796171635e-02   -3.441451788e-01
     2404250000    1.300661266e-01   -3.319077194e-01
     2405000000    1.588872075e-01   -3.195074797e-01
     2405750000    1.875549704e-01   -3.034620881e-01
     2406500000    2.144120485e-01   -2.846583426e-01
     2407250000    2.389119267e-01   -2.635099888e-01
     2408000000    2.617555559e-01   -2.414178103e-01
     2408750000    2.824396789e-01   -2.171693891e-01
     2409500000    3.007896245e-01   -1.901656538e-01
     2410250000    3.167545795e-01   -1.611567736e-01
     2411000000    3.298442066e-01   -1.325879097e-01
     2411750000    3.404406309e-01   -1.029317379e-01
     2412500000    3.475315273e-01   -7.051130384e-02
     2413250000    3.517891467e-01   -3.927464411e-02
     2414000000    3.538134992e-01   -7.491049822e-03
     2414750000    3.527659476e-01    2.519777231e-02
     2415500000    3.493921161e-01    5.590230227e-02
     2416250000    3.417488337e-01    8.775094151e-02
     2417000000    3.322502971e-01    1.182775646e-01
     2417750000    3.201191127e-01    1.473646909e-01
     2418500000    3.052150309e-01    1.754840612e-01
     2419250000    2.877536118e-01    2.020674795e-01
     2420000000    2.679136395e-01    2.271048129e-01
     2420750000    2.464670688e-01    2.497902662e-01
     2421500000    2.221378088e-01    2.705465257e-01
     2422250000    1.961759180e-01    2.891042233e-01
     2423000000    1.693381518e-01    3.054791391e-01
     2423750000    1.417213380e-01    3.194323480e-01
     2424500000    1.118822321e-01    3.298995197e-01
     2425250000    8.138964325e-02    3.384012580e-01
     2426000000    5.015528575e-02    3.444001675e-01
     2426750000    1.969682612e-02    3.465180397e-01
     2427500000   -1.184544340e-02    3.467320800e-01
     2428250000   -4.212747887e-02    3.438760638e-01
     2429000000   -7.314220816e-02    3.378931582e-01
     2429750000   -1.032494754e-01    3.296846449e-01
     2430500000   -1.319251060e-01    3.183917403e-01
     2431250000   -1.590398252e-01    3.056718409e-01
     2432000000   -1.848978847e-01    2.910485864e-01
     2432750000   -2.109304816e-01    2.713585198e-01
     2433500000   -2.343084663e-01    2.493261248e-01
     2434250000   -2.540138662e-01    2.291137427e-01
     2435000000   -2.733061612e-01    2.060170472e-01
     2435750000   -2.898986340e-01    1.807091534e-01
     2436500000   -3.045251071e-01    1.527130455e-01
     2437250000   -3.163602948e-01    1.248791590e-01
     2438000000   -3.253345191e-01    9.711995721e-02
     2438750000   -3.312208056e-01    6.816978753e-02
     2439500000   -3.346817493e-01    3.704990447e-02
     2440250000   -3.363653421e-01    7.672068663e-03
     2441000000   -3.351885378e-01   -2.083305083e-02
     2441750000   -3.306854963e-01   -5.084971711e-02
     2442500000   -3.232667744e-01   -7.964772731e-02
     2443250000   -3.149004281e-01   -1.069274545e-01
     2444000000   -3.024938405e-01   -1.341336519e-01
     2444750000   -2.887094021e-01   -1.598836631e-01
     2445500000   -2.729518712e-01   -1.837174892e-01
     2446250000   -2.543498278e-01   -2.058293223e-01
     2447000000   -2.341271788e-01   -2.268860638e-01
     2447750000   -2.124105543e-01   -2.455832809e-01
     2448500000   -1.894115657e-01   -2.620572448e-01
     2449250000   -1.649174392e-01   -2.768397331e-01
     2450000000   -1.395332217e-01   -2.887733579e-01
     2450750000   -1.134358197e-01   -2.980444729e-01
     2451500000   -8.594164252e-02   -3.048155606e-01
     2452250000   -5.908291414e-02   -3.095773160e-01
     2453000000   -3.083579987e-02   -3.110451400e-01
     2453750000   -3.556136508e-03   -3.107453287e-01
     2454500000    2.332678251e-02   -3.074173331e-01
     2455250000    5.037600175e-02   -3.017287552e-01
     2456000000    7.672324032e-02   -2.937961519e-01
     2456750000    1.023738012e-01   -2.836224437e-01
     2457500000    1.259283125e-01   -2.715240121e-01
     2458250000    1.480813771e-01   -2.573691905e-01
     2459000000    1.705571115e-01   -2.405065745e-01
     2459750000    1.897427738e-01   -2.228212804e-01
     2460500000    2.075277716e-01   -2.039626092e-01
     2461250000    2.236036360e-01   -1.823878884e-01
     2462000000    2.377784252e-01   -1.598602533e-01
     2462750000    2.492123395e-01   -1.369164884e-01
     2463500000    2.585555911e-01   -1.128179356e-01
     2464250000    2.661048472e-01   -8.856781572e-02
     2465000000    2.705149949e-01   -6.377017498e-02
     2465750000    2.735770047e-01   -3.851597011e-02
     2466500000    2.736145556e-01   -1.330308430e-02
     2467250000    2.716032267e-01    1.155500486e-02
     2468000000    2.675642371e-01    3.459342569e-02
     2468750000    2.610490620e-01    5.905248597e-02
     2469500000    2.529572845e-01    8.285499364e-02
     2470250000    2.434700131e-01    1.033009142e-01
     2471000000    2.299169004e-01    1.245448291e-01
     2471750000    2.158447653e-01    1.433374286e-01
     2472500000    2.001457810e-01    1.608050019e-01
     2473250000    1.828961521e-01    1.768843234e-01
     2474000000    1.643880457e-01    1.905944198e-01
     2474750000    1.444568038e-01    2.032567263e-01
     2475500000    1.242906898e-01    2.138340622e-01
     2476250000    1.028352007e-01    2.221129835e-01
     2477000000    8.156611025e-02    2.278745621e-01
     2477750000    5.939343199e-02    2.323392928e-01
     2478500000    3.755547851e-02    2.347459048e-01
     2479250000    1.566654630e-02    2.352885753e-01
     2480000000   -6.063478068e-03    2.332102060e-01
     2480750000   -2.820230462e-02    2.296085805e-01
     2481500000   -4.819737747e-02    2.240464091e-01
     2482250000   -6.822448224e-02    2.167279571e-01
     2483000000   -8.703758568e-02    2.075698227e-01
     2483750000   -1.046687812e-01    1.969704181e-01
     2484500000   -1.212959513e-01    1.847271174e-01
     2485250000   -1.358408779e-01    1.708886772e-01
     2486000000   -1.496409625e-01    1.558496952e-01
     2486750000   -1.614348888e-01    1.401173919e-01
     2487500000   -1.710345745e-01    1.235833541e-01
     2488250000   -1.790557355e-01    1.056414470e-01
     2489000000   -1.856168956e-01    8.766769618e-02
     2489750000   -1.898854077e-01    6.898391992e-02
     2490500000   -1.927357763e-01    5.006826669e-02
     2491250000   -1.934407800e-01    3.157892823e-02
     2492000000   -1.924236268e-01    1.261887792e-02
     2492750000   -1.897474825e-01   -6.231004838e-03
     2493500000   -1.851626933e-01   -2.367107756e-02
     2494250000   -1.795025021e-01   -4.063369706e-02
     2495000000   -1.720971316e-01   -5.750661343e-02
     2495750000   -1.634821445e-01   -7.267328352e-02
     2496500000   -1.526197791e-01   -8.692716062e-02
     2497250000   -1.417882293e-01   -9.995254129e-02
     2498000000   -1.291365027e-01   -1.106915250e-01
     2498750000   -1.154949367e-01   -1.217189580e-01
     2499500000   -1.013614163e-01   -1.298111826e-01
     2500250000   -8.694251627e-02   -1.370318830e-01
     2501000000   -7.128316909e-02   -1.427390128e-01
     2501750000   -5.533370003e-02   -1.462471336e-01
     2502500000   -3.946715593e-02   -1.487287879e-01
     2503250000   -2.367444709e-02   -1.494453698e-01
     2504000000   -8.019499481e-03   -1.481873691e-01
     2504750000    7.444753777e-03   -1.457547843e-01
     2505500000    2.202732675e-02   -1.421859562e-01
     2506250000    3.531049937e-02   -1.368659586e-01
     2507000000    5.031846091e-02   -1.297411174e-01
     2507750000    6.238092855e-02   -1.216976196e-01
     2508500000    7.353109121e-02   -1.129926220e-01
     2509250000    8.408008516e-02   -1.028345525e-01
     2510000000    9.247398376e-02   -9.283029288e-02
     2510750000    1.007918641e-01   -8.054825664e-02
     2511500000    1.069107875e-01   -6.877861917e-02
     2512250000    1.117305011e-01   -5.629848689e-02
     2513000000    1.151548699e-01   -4.309349135e-02
     2513750000    1.166654602e-01   -3.081363812e-02
     2514500000    1.172397807e-01   -1.780205593e-02
     2515250000    1.165267006e-01   -4.465268925e-03
     2516000000    1.135371476e-01    7.445476484e-03
     2516750000    1.097291782e-01    1.977228187e-02
     2517500000    1.044732928e-01    3.115018830e-02
     2518250000    9.778451920e-02    4.166559875e-02
     2519000000    9.039839357e-02    5.136129633e-02
     2519750000    8.164678514e-02    6.064824760e-02
     2520500000    7.205136120e-02    6.711412966e-02
     2521250000    6.105859950e-02    7.417237759e-02
     2522000000    4.987397045e-02    7.893271744e-02
     2522750000    3.870580718e-02    8.260651678e-02
     2523500000    2.579851449e-02    8.518236130e-02
     2524250000    1.315934025e-02    8.602052182e-02
     2525000000    7.249385817e-04    8.575335890e-02
     2525750000   -1.153230388e-02    8.386988938e-02
     2526500000   -2.348173596e-02    8.036826551e-02
     2527250000   -3.640888631e-02    7.585276663e-02
     2528000000   -4.869675264e-02    6.979109347e-02
     2528750000   -5.874228850e-02    6.271659583e-02
     2529500000   -6.928850710e-02    5.391282961e-02
     2530250000   -7.762500644e-02    4.455247894e-02
     2531000000   -8.553647250e-02    3.382886574e-02
     2531750000   -9.348861128e-02    2.256721072e-02
     2532500000   -9.891006351e-02    1.037629787e-02
     2533250000   -1.029639170e-01   -2.263479168e-03
     2534000000   -1.056493223e-01   -1.544571668e-02
     2534750000   -1.067238078e-01   -2.851678617e-02
     2535500000   -1.064932719e-01   -4.237007722e-02
     2536250000   -1.046316028e-01   -5.624081567e-02
     2537000000   -1.007542312e-01   -7.003866881e-02
     2537750000   -9.528716654e-02   -8.268288523e-02
     2538500000   -8.890020847e-02   -9.528724849e-02
     2539250000   -8.087237179e-02   -1.075074077e-01
     2540000000   -7.130740583e-02   -1.188611984e-01
     2540750000   -5.976869166e-02   -1.281161904e-01
     2541500000   -4.790501297e-02   -1.378260553e-01
     2542250000   -3.406452388e-02   -1.460211277e-01
     2543000000   -1.946776733e-02   -1.530059129e-01
     2543750000   -4.648215603e-03   -1.582569480e-01
     2544500000    1.135343686e-02   -1.616529077e-01
     2545250000    2.858674340e-02   -1.630152166e-01
     2546000000    4.554104432e-02   -1.642202139e-01
     2546750000    6.275916100e-02   -1.628842652e-01
     2547500000    8.024170250e-02   -1.594147086e-01
     2548250000    9.814086556e-02   -1.540981680e-01
     2549000000    1.145681292e-01   -1.464630961e-01
     2549750000    1.320099980e-01   -1.392181218e-01
     2550500000    1.469956338e-01   -1.273449063e-01
     2551250000    1.622166187e-01   -1.139706448e-01
     2552000000    1.765117943e-01   -1.020938829e-01
     2552750000    1.883567572e-01   -8.564469218e-02
     2553500000    2.008264512e-01   -6.953018159e-02
     2554250000    2.090675086e-01   -4.891388491e-02
     2555000000    2.175575346e-01   -3.103572503e-02
     2555750000    2.246440947e-01   -1.012972463e-02
     2556500000    2.299269587e-01    1.054163650e-02
     2557250000    2.304244787e-01    3.296447545e-02
     2558000000    2.310712039e-01    5.593701079e-02
     2558750000    2.307890356e-01    7.807657123e-02
     2559500000    2.242868096e-01    1.033118591e-01
     2560250000    2.205444425e-01    1.249675304e-01
     2561000000    2.093634158e-01    1.479825974e-01
     2561750000    2.010055482e-01    1.705699861e-01
     2562500000    1.888872236e-01    1.914036274e-01
     2563250000    1.716980189e-01    2.107169479e-01
     2564000000    1.574517190e-01    2.305158377e-01
     2564750000    1.380280554e-01    2.484789789e-01
     2565500000    1.175075546e-01    2.645438313e-01
     2566250000    9.506110102e-02    2.787280381e-01
     2567000000    7.175473869e-02    2.917759418e-01
     2567750000    4.815430194e-02    3.023622036e-01
     2568500000    2.114649676e-02    3.103564680e-01
     2569250000   -5.522268824e-03    3.162610829e-01
     2570000000   -3.373276070e-02    3.191385567e-01
     2570750000   -6.056822464e-02    3.197294474e-01
     2571500000   -8.880167454e-02    3.176763952e-01
     2572250000   -1.173169687e-01    3.133916557e-01
     2573000000   -1.453771293e-01    3.071697354e-01
     2573750000   -1.731811017e-01    2.963825166e-01
     2574500000   -2.001151145e-01    2.840232551e-01
     2575250000   -2.260021269e-01    2.687974870e-01
     2576000000   -2.509995103e-01    2.509081662e-01
     2576750000   -2.740558386e-01    2.314689904e-01
     2577500000   -2.953799367e-01    2.086279839e-01
     2578250000   -3.156229556e-01    1.841224432e-01
     2579000000   -3.333108723e-01    1.575811654e-01
     2579750000   -3.496758342e-01    1.295850724e-01
     2580500000   -3.621837199e-01    9.980683774e-02
     2581250000   -3.737925291e-01    6.820901483e-02
     2582000000   -3.807229698e-01    3.563436121e-02
     2582750000   -3.860690296e-01    3.727200907e-03
     2583500000   -3.882088959e-01   -3.241415694e-02
     2584250000   -3.874061406e-01   -6.578252465e-02
     2585000000   -3.843411207e-01   -9.870163351e-02
     2585750000   -3.762319386e-01   -1.345179975e-01
     2586500000   -3.666718304e-01   -1.680956483e-01
     2587250000   -3.546272218e-01   -1.994509101e-01
     2588000000   -3.382744789e-01   -2.324662358e-01
     2588750000   -3.189585507e-01   -2.633763254e-01
     2589500000   -2.998968065e-01   -2.908401191e-01
     2590250000   -2.722811699e-01   -3.191290200e-01
     2591000000   -2.462420017e-01   -3.441947997e-01
     2591750000   -2.195196599e-01   -3.657020926e-01
     2592500000   -1.842883527e-01   -3.865659833e-01
     2593250000   -1.528387368e-01   -4.025580585e-01
              0    4.663107917e-02    1.917865127e-01
              0    4.652456939e-02    1.918290555e-01
              0    4.599079490e-02    1.918368340e-01
              0    4.567349330e-02    1.919942349e-01
              0    4.581525922e-02    1.919689775e-01
              0    4.508886859e-02    1.919558197e-01
              0    4.441249371e-02    1.922230721e-01
              0    4.443092272e-02    1.922362745e-01
              0    4.443095252e-02    1.922363043e-01
