! NanoVNA-App
! Date: 2026-05-22 17:54:31
! Start: 2.3GHz Stop: 2.6GHz Points: 401
! S-Parameter data: F S11
# Hz S RI R 50
!     Frequency           S11_Real           S11_Imag
     2300000000    3.399281576e-02   -3.915753365e-01
     2300750000    7.056822628e-02   -3.856625855e-01
     2301500000    1.053858623e-01   -3.776809573e-01
     2302250000    1.407624185e-01   -3.639308810e-01
     2303000000    1.729702652e-01   -3.505352437e-01
     2303750000    2.037435919e-01   -3.328058422e-01
     2304500000    2.335484326e-01   -3.117346764e-01
     2305250000    2.611750662e-01   -2.877555490e-01
     2306000000    2.861692905e-01   -2.635947764e-01
     2306750000    3.083992600e-01   -2.352426648e-01
     2307500000    3.288252950e-01   -2.074363530e-01
     2308250000    3.450936377e-01   -1.739282608e-01
     2309000000    3.597273231e-01   -1.428609788e-01
     2309750000    3.704687059e-01   -1.093194485e-01
     2310500000    3.779281378e-01   -7.416001707e-02
     2311250000    3.830892444e-01   -3.901031241e-02
     2312000000    3.836722076e-01   -3.479578532e-03
     2312750000    3.815069795e-01    3.173175454e-02
     2313500000    3.772644699e-01    6.661256403e-02
     2314250000    3.678552508e-01    1.002516821e-01
     2315000000    3.588129878e-01    1.327464134e-01
     2315750000    3.424117565e-01    1.667389721e-01
     2316500000    3.247812092e-01    1.970507801e-01
     2317250000    3.064363599e-01    2.251615524e-01
     2318000000    2.824963331e-01    2.531471252e-01
     2318750000    2.587731481e-01    2.772218883e-01
     2319500000    2.319768369e-01    2.987076938e-01
     2320250000    2.031405568e-01    3.188992143e-01
     2321000000    1.730495542e-01    3.363465071e-01
     2321750000    1.385273188e-01    3.503306210e-01
     2322500000    1.081990525e-01    3.610180914e-01
     2323250000    7.287329435e-02    3.680317998e-01
     2324000000    3.996413201e-02    3.738289177e-01
     2324750000    6.279872730e-03    3.751395941e-01
     2325500000   -3.155709431e-02    3.727732897e-01
     2326250000   -6.317612529e-02    3.701753914e-01
     2327000000   -9.966839105e-02    3.604805768e-01
     2327750000   -1.292059720e-01    3.524211943e-01
     2328500000   -1.635843813e-01    3.342742026e-01
     2329250000   -1.928089112e-01    3.203852475e-01
     2330000000   -2.209746689e-01    3.019248247e-01
     2330750000   -2.480065823e-01    2.792510688e-01
     2331500000   -2.731122673e-01    2.538191676e-01
     2332250000   -2.950553894e-01    2.291087061e-01
     2333000000   -3.144353032e-01    2.029092461e-01
     2333750000   -3.318941891e-01    1.681584120e-01
     2334500000   -3.455469608e-01    1.399782598e-01
     2335250000   -3.574044406e-01    1.082161814e-01
     2336000000   -3.653739393e-01    7.402774692e-02
     2336750000   -3.706930578e-01    4.152692109e-02
     2337500000   -3.722145855e-01    6.850750186e-03
     2338250000   -3.715303540e-01   -2.684669010e-02
     2339000000   -3.674494922e-01   -5.956367031e-02
     2339750000   -3.594524860e-01   -9.242641181e-02
     2340500000   -3.494789004e-01   -1.244919747e-01
     2341250000   -3.367719948e-01   -1.547235996e-01
     2342000000   -3.204707801e-01   -1.841396987e-01
     2342750000   -3.016552329e-01   -2.119689286e-01
     2343500000   -2.797932029e-01   -2.379638702e-01
     2344250000   -2.562886178e-01   -2.615828216e-01
     2345000000   -2.309527844e-01   -2.824445069e-01
     2345750000   -2.031752467e-01   -3.009968102e-01
     2346500000   -1.763326973e-01   -3.180423677e-01
     2347250000   -1.434212774e-01   -3.313886523e-01
     2348000000   -1.145782024e-01   -3.423679471e-01
     2348750000   -7.843834907e-02   -3.499893546e-01
     2349500000   -4.842758179e-02   -3.554936349e-01
     2350250000   -1.467220206e-02   -3.578649759e-01
     2351000000    1.933304593e-02   -3.557715118e-01
     2351750000    5.294343457e-02   -3.508053124e-01
     2352500000    8.186162263e-02   -3.459043205e-01
     2353250000    1.176181287e-01   -3.326920271e-01
     2354000000    1.467001140e-01   -3.208461702e-01
     2354750000    1.751559675e-01   -3.070950210e-01
     2355500000    2.025312483e-01   -2.905197442e-01
     2356250000    2.293495685e-01   -2.672708333e-01
     2357000000    2.524837255e-01   -2.448944151e-01
     2357750000    2.740130424e-01   -2.200172096e-01
     2358500000    2.930504680e-01   -1.955042779e-01
     2359250000    3.092302978e-01   -1.659317017e-01
     2360000000    3.228523433e-01   -1.373288333e-01
     2360750000    3.343403637e-01   -1.074906960e-01
     2361500000    3.414327502e-01   -7.552066445e-02
     2362250000    3.478399515e-01   -4.585143179e-02
     2363000000    3.493538499e-01   -1.262441929e-02
     2363750000    3.485206664e-01    1.967728138e-02
     2364500000    3.438306153e-01    5.193461105e-02
     2365250000    3.385716379e-01    8.161634207e-02
     2366000000    3.281770051e-01    1.127587259e-01
     2366750000    3.165729642e-01    1.418344975e-01
     2367500000    3.004269898e-01    1.699873507e-01
     2368250000    2.825550437e-01    1.964197010e-01
     2369000000    2.631140053e-01    2.211421579e-01
     2369750000    2.413320392e-01    2.439419627e-01
     2370500000    2.174236923e-01    2.644484341e-01
     2371250000    1.908446848e-01    2.830860019e-01
     2372000000    1.631018966e-01    2.980736792e-01
     2372750000    1.337698996e-01    3.118206263e-01
     2373500000    1.037161127e-01    3.214640319e-01
     2374250000    7.347916812e-02    3.291328549e-01
     2375000000    4.235295206e-02    3.344559968e-01
     2375750000    9.981982410e-03    3.355703354e-01
     2376500000   -2.239602804e-02    3.340465128e-01
     2377250000   -5.286916345e-02    3.311907947e-01
     2378000000   -8.391047269e-02    3.239775896e-01
     2378750000   -1.158656031e-01    3.131726980e-01
     2379500000   -1.437346041e-01    3.027065396e-01
     2380250000   -1.705181897e-01    2.885959744e-01
     2381000000   -1.981358677e-01    2.700756192e-01
     2381750000   -2.221731246e-01    2.504927516e-01
     2382500000   -2.437674701e-01    2.291383296e-01
     2383250000   -2.648299038e-01    2.065464109e-01
     2384000000   -2.831232548e-01    1.789135337e-01
     2384750000   -2.980002761e-01    1.521964967e-01
     2385500000   -3.119524419e-01    1.255559772e-01
     2386250000   -3.219706118e-01    9.663976729e-02
     2387000000   -3.289616704e-01    6.334581226e-02
     2387750000   -3.343604207e-01    3.512045369e-02
     2388500000   -3.360371888e-01    3.408472752e-03
     2389250000   -3.343045712e-01   -2.803987637e-02
     2390000000   -3.310514390e-01   -5.820736662e-02
     2390750000   -3.258559108e-01   -8.810505271e-02
     2391500000   -3.147673905e-01   -1.187246293e-01
     2392250000   -3.029020131e-01   -1.458755285e-01
     2393000000   -2.882106602e-01   -1.738196760e-01
     2393750000   -2.710184753e-01   -1.999204606e-01
     2394500000   -2.529928684e-01   -2.226097286e-01
     2395250000   -2.304456830e-01   -2.455629408e-01
     2396000000   -2.080523223e-01   -2.651569545e-01
     2396750000   -1.813841015e-01   -2.830736637e-01
     2397500000   -1.561112702e-01   -2.979395390e-01
     2398250000   -1.279844493e-01   -3.109313250e-01
     2399000000   -9.999839216e-02   -3.210973740e-01
     2399750000   -6.963668019e-02   -3.288041055e-01
     2400500000   -3.867128491e-02   -3.333697021e-01
     2401250000   -7.650822401e-03   -3.350564837e-01
     2402000000    2.265248075e-02   -3.337825835e-01
     2402750000    5.254229158e-02   -3.305606544e-01
     2403500000    8.266880363e-02   -3.239564896e-01
     2404250000    1.123169959e-01   -3.138183057e-01
     2405000000    1.405203640e-01   -3.026599586e-01
     2405750000    1.672898382e-01   -2.883949876e-01
     2406500000    1.935669631e-01   -2.710087001e-01
     2407250000    2.171803117e-01   -2.518700957e-01
     2408000000    2.389819473e-01   -2.313251644e-01
     2408750000    2.598069012e-01   -2.089145482e-01
     2409500000    2.767267227e-01   -1.830188483e-01
     2410250000    2.927272916e-01   -1.580938995e-01
     2411000000    3.051375747e-01   -1.304810792e-01
     2411750000    3.158033490e-01   -1.015036106e-01
     2412500000    3.236056864e-01   -7.257794589e-02
     2413250000    3.285563886e-01   -4.307023808e-02
     2414000000    3.311596215e-01   -1.293516159e-02
     2414750000    3.307161927e-01    1.759903878e-02
     2415500000    3.266908526e-01    4.796086252e-02
     2416250000    3.216707408e-01    7.653197646e-02
     2417000000    3.128074706e-01    1.062186807e-01
     2417750000    3.016140163e-01    1.341074407e-01
     2418500000    2.882191241e-01    1.612887084e-01
     2419250000    2.728967667e-01    1.863406599e-01
     2420000000    2.546856403e-01    2.097713053e-01
     2420750000    2.344553173e-01    2.318779826e-01
     2421500000    2.124518603e-01    2.515697777e-01
     2422250000    1.886676997e-01    2.696818113e-01
     2423000000    1.634016335e-01    2.856512368e-01
     2423750000    1.383174509e-01    2.986108661e-01
     2424500000    1.092522591e-01    3.093363643e-01
     2425250000    8.100531995e-02    3.173197806e-01
     2426000000    5.166785419e-02    3.229299486e-01
     2426750000    2.256470174e-02    3.259416223e-01
     2427500000   -7.329048123e-03    3.258143663e-01
     2428250000   -3.740913421e-02    3.231015801e-01
     2429000000   -6.409499049e-02    3.189919591e-01
     2429750000   -9.281570464e-02    3.110600412e-01
     2430500000   -1.201842502e-01    3.003332019e-01
     2431250000   -1.468561739e-01    2.876274884e-01
     2432000000   -1.708946228e-01    2.739484012e-01
     2432750000   -1.950668395e-01    2.561104298e-01
     2433500000   -2.169153392e-01    2.361036241e-01
     2434250000   -2.364197075e-01    2.159037441e-01
     2435000000   -2.538191080e-01    1.949483603e-01
     2435750000   -2.702232599e-01    1.685087830e-01
     2436500000   -2.835362256e-01    1.444285959e-01
     2437250000   -2.942584455e-01    1.178185418e-01
     2438000000   -3.029801548e-01    9.174513072e-02
     2438750000   -3.083208501e-01    6.206439435e-02
     2439500000   -3.121954799e-01    3.528239578e-02
     2440250000   -3.132938445e-01    6.685194094e-03
     2441000000   -3.117937148e-01   -2.018923685e-02
     2441750000   -3.065377474e-01   -4.900215939e-02
     2442500000   -3.001361787e-01   -7.593387365e-02
     2443250000   -2.913015783e-01   -1.018063352e-01
     2444000000   -2.801636755e-01   -1.266491264e-01
     2444750000   -2.660404742e-01   -1.519294828e-01
     2445500000   -2.503143251e-01   -1.746115088e-01
     2446250000   -2.328414768e-01   -1.948658526e-01
     2447000000   -2.135825604e-01   -2.144850194e-01
     2447750000   -1.926916987e-01   -2.320928872e-01
     2448500000   -1.707031280e-01   -2.475005686e-01
     2449250000   -1.465821415e-01   -2.607707977e-01
     2450000000   -1.238735542e-01   -2.725373507e-01
     2450750000   -9.786111861e-02   -2.802692652e-01
     2451500000   -7.274893671e-02   -2.863208354e-01
     2452250000   -4.607526585e-02   -2.898229957e-01
     2453000000   -2.019056864e-02   -2.915329337e-01
     2453750000    5.834961776e-03   -2.899762690e-01
     2454500000    3.161641955e-02   -2.863790393e-01
     2455250000    5.672211945e-02   -2.806879282e-01
     2456000000    8.082056791e-02   -2.727554142e-01
     2456750000    1.049194261e-01   -2.617196441e-01
     2457500000    1.267726123e-01   -2.495304793e-01
     2458250000    1.483349353e-01   -2.347478122e-01
     2459000000    1.681314260e-01   -2.188163400e-01
     2459750000    1.861616522e-01   -2.010521889e-01
     2460500000    2.020932883e-01   -1.817644984e-01
     2461250000    2.166293263e-01   -1.613032669e-01
     2462000000    2.292339951e-01   -1.391149014e-01
     2462750000    2.392427176e-01   -1.166138947e-01
     2463500000    2.474626005e-01   -9.351942688e-02
     2464250000    2.533434927e-01   -7.063306123e-02
     2465000000    2.566972375e-01   -4.642036185e-02
     2465750000    2.584112883e-01   -2.232463844e-02
     2466500000    2.575555742e-01    1.763021573e-03
     2467250000    2.544097304e-01    2.522843890e-02
     2468000000    2.494782209e-01    4.764829203e-02
     2468750000    2.419299334e-01    7.011244446e-02
     2469500000    2.322668731e-01    9.208408743e-02
     2470250000    2.217908949e-01    1.117626950e-01
     2471000000    2.082700282e-01    1.310688257e-01
     2471750000    1.939919889e-01    1.485341191e-01
     2472500000    1.783887595e-01    1.640883386e-01
     2473250000    1.606074870e-01    1.790605783e-01
     2474000000    1.422592103e-01    1.916658878e-01
     2474750000    1.220132932e-01    2.024743855e-01
     2475500000    1.018399373e-01    2.109469920e-01
     2476250000    8.125402033e-02    2.174740285e-01
     2477000000    5.971037596e-02    2.224477232e-01
     2477750000    3.770580143e-02    2.250061184e-01
     2478500000    1.621453278e-02    2.258061320e-01
     2479250000   -4.758344032e-03    2.244692892e-01
     2480000000   -2.486475371e-02    2.215855867e-01
     2480750000   -4.681159183e-02    2.160073817e-01
     2481500000   -6.614560634e-02    2.088728696e-01
     2482250000   -8.537142724e-02    2.001505345e-01
     2483000000   -1.032007784e-01    1.892901808e-01
     2483750000   -1.194880083e-01    1.776370704e-01
     2484500000   -1.344421357e-01    1.641676277e-01
     2485250000   -1.480958611e-01    1.491914988e-01
     2486000000   -1.603517681e-01    1.336915493e-01
     2486750000   -1.703338027e-01    1.166155934e-01
     2487500000   -1.785681695e-01    9.914563596e-02
     2488250000   -1.850910187e-01    8.094975352e-02
     2489000000   -1.901655495e-01    6.189935654e-02
     2489750000   -1.931701303e-01    4.264090583e-02
     2490500000   -1.939136684e-01    2.344764210e-02
     2491250000   -1.929658502e-01    5.316410214e-03
     2492000000   -1.903822869e-01   -1.397368405e-02
     2492750000   -1.854405105e-01   -3.245336190e-02
     2493500000   -1.795624793e-01   -5.016135424e-02
     2494250000   -1.719805449e-01   -6.700073928e-02
     2495000000   -1.625588983e-01   -8.335313201e-02
     2495750000   -1.518913060e-01   -9.820490330e-02
     2496500000   -1.397695690e-01   -1.117443517e-01
     2497250000   -1.264142096e-01   -1.237865314e-01
     2498000000   -1.129665226e-01   -1.339699030e-01
     2498750000   -9.678554535e-02   -1.439958513e-01
     2499500000   -8.172813803e-02   -1.509974599e-01
     2500250000   -6.516698003e-02   -1.571598351e-01
     2501000000   -4.829832166e-02   -1.610896587e-01
     2501750000   -3.120814823e-02   -1.638020724e-01
     2502500000   -1.458347589e-02   -1.647604704e-01
     2503250000    2.545734402e-03   -1.641377956e-01
     2504000000    1.885375939e-02   -1.613498479e-01
     2504750000    3.553511947e-02   -1.570403725e-01
     2505500000    5.042845383e-02   -1.515691876e-01
     2506250000    6.440719217e-02   -1.443026215e-01
     2507000000    7.963270694e-02   -1.351704448e-01
     2507750000    9.160005301e-02   -1.254784167e-01
     2508500000    1.026125476e-01   -1.145002171e-01
     2509250000    1.136555895e-01   -1.023121625e-01
     2510000000    1.221915707e-01   -8.979947120e-02
     2510750000    1.298879683e-01   -7.602572441e-02
     2511500000    1.353221536e-01   -6.252076477e-02
     2512250000    1.396707892e-01   -4.781488702e-02
     2513000000    1.419261396e-01   -3.286145255e-02
     2513750000    1.428196728e-01   -1.820733771e-02
     2514500000    1.429416537e-01   -3.020050470e-03
     2515250000    1.404999644e-01    1.133386791e-02
     2516000000    1.368401647e-01    2.538012713e-02
     2516750000    1.315203607e-01    3.918060288e-02
     2517500000    1.252558678e-01    5.285361409e-02
     2518250000    1.170841455e-01    6.386152655e-02
     2519000000    1.076015458e-01    7.532805949e-02
     2519750000    9.697918594e-02    8.535846323e-02
     2520500000    8.603763580e-02    9.355950356e-02
     2521250000    7.366818190e-02    1.007417813e-01
     2522000000    5.983354524e-02    1.067993119e-01
     2522750000    4.621082917e-02    1.113314331e-01
     2523500000    3.190546110e-02    1.145204082e-01
     2524250000    1.727657951e-02    1.155867577e-01
     2525000000    2.762951888e-03    1.157499030e-01
     2525750000   -1.141198073e-02    1.139557958e-01
     2526500000   -2.607930824e-02    1.111520752e-01
     2527250000   -3.949230537e-02    1.063207388e-01
     2528000000   -5.369318277e-02    1.001468375e-01
     2528750000   -6.614805758e-02    9.269971400e-02
     2529500000   -7.784565538e-02    8.326897770e-02
     2530250000   -8.847311139e-02    7.324584574e-02
     2531000000   -9.838093817e-02    6.187918410e-02
     2531750000   -1.065748557e-01    4.975643381e-02
     2532500000   -1.140885428e-01    3.623275831e-02
     2533250000   -1.194914505e-01    2.272379026e-02
     2534000000   -1.240396500e-01    7.748888806e-03
     2534750000   -1.256402135e-01   -6.916595157e-03
     2535500000   -1.271223575e-01   -2.215982787e-02
     2536250000   -1.266964823e-01   -3.792502731e-02
     2537000000   -1.234891117e-01   -5.301231518e-02
     2537750000   -1.191766113e-01   -6.778364629e-02
     2538500000   -1.131833643e-01   -8.256807178e-02
     2539250000   -1.056605652e-01   -9.635981172e-02
     2540000000   -9.643150866e-02   -1.096768975e-01
     2540750000   -8.562141657e-02   -1.223233044e-01
     2541500000   -7.389007509e-02   -1.328039914e-01
     2542250000   -6.018984690e-02   -1.426393688e-01
     2543000000   -4.526890814e-02   -1.513712406e-01
     2543750000   -3.057372756e-02   -1.582675874e-01
     2544500000   -1.396957040e-02   -1.631875485e-01
     2545250000    3.225625027e-03   -1.671677083e-01
     2546000000    2.057207190e-02   -1.693446785e-01
     2546750000    3.876323625e-02   -1.691648811e-01
     2547500000    5.670990050e-02   -1.669184566e-01
     2548250000    7.503642887e-02   -1.637824625e-01
     2549000000    9.288933128e-02   -1.584863514e-01
     2549750000    1.108298674e-01   -1.501960456e-01
     2550500000    1.266952008e-01   -1.404489726e-01
     2551250000    1.437586546e-01   -1.299510151e-01
     2552000000    1.580216438e-01   -1.171068475e-01
     2552750000    1.718710810e-01   -1.017972752e-01
     2553500000    1.848632693e-01   -8.674844354e-02
     2554250000    1.968716681e-01   -6.912688911e-02
     2555000000    2.058605403e-01   -5.028548464e-02
     2555750000    2.133546621e-01   -2.944936417e-02
     2556500000    2.197177410e-01   -9.124374017e-03
     2557250000    2.238421291e-01    1.140755322e-02
     2558000000    2.246292382e-01    3.483632579e-02
     2558750000    2.267019749e-01    5.653141439e-02
     2559500000    2.215894163e-01    8.071455359e-02
     2560250000    2.184652984e-01    1.030077934e-01
     2561000000    2.098038048e-01    1.256992072e-01
     2561750000    2.015120536e-01    1.484014094e-01
     2562500000    1.894987226e-01    1.692245603e-01
     2563250000    1.779370457e-01    1.891906559e-01
     2564000000    1.600056738e-01    2.089633048e-01
     2564750000    1.434988379e-01    2.273812145e-01
     2565500000    1.220252961e-01    2.435225695e-01
     2566250000    1.045788750e-01    2.599689662e-01
     2567000000    7.957287878e-02    2.725966275e-01
     2567750000    5.526658893e-02    2.830244601e-01
     2568500000    3.068826348e-02    2.922779918e-01
     2569250000    6.408425514e-03    3.005403876e-01
     2570000000   -2.241469175e-02    3.039002717e-01
     2570750000   -4.909097776e-02    3.054166138e-01
     2571500000   -7.723429799e-02    3.043717742e-01
     2572250000   -1.050486490e-01    3.007915616e-01
     2573000000   -1.333516389e-01    2.944464087e-01
     2573750000   -1.610425115e-01    2.855841815e-01
     2574500000   -1.873703301e-01    2.741040885e-01
     2575250000   -2.165142149e-01    2.575672269e-01
     2576000000   -2.418644726e-01    2.410953641e-01
     2576750000   -2.645024061e-01    2.219262123e-01
     2577500000   -2.860563099e-01    2.006004006e-01
     2578250000   -3.058891892e-01    1.771529764e-01
     2579000000   -3.241254687e-01    1.516105682e-01
     2579750000   -3.395559788e-01    1.251665503e-01
     2580500000   -3.521617055e-01    9.611111134e-02
     2581250000   -3.630819023e-01    6.493401527e-02
     2582000000   -3.709746301e-01    3.313196823e-02
     2582750000   -3.765163422e-01    8.620202425e-04
     2583500000   -3.796216547e-01   -3.094136715e-02
     2584250000   -3.799155951e-01   -6.459745020e-02
     2585000000   -3.752157688e-01   -9.974556416e-02
     2585750000   -3.695625663e-01   -1.327751130e-01
     2586500000   -3.600481153e-01   -1.652987897e-01
     2587250000   -3.461914957e-01   -1.986025274e-01
     2588000000   -3.328253031e-01   -2.292977720e-01
     2588750000   -3.149892688e-01   -2.590759099e-01
     2589500000   -2.922948897e-01   -2.880794704e-01
     2590250000   -2.696831226e-01   -3.138522208e-01
     2591000000   -2.420911789e-01   -3.398188055e-01
     2591750000   -2.169506699e-01   -3.613111079e-01
     2592500000   -1.836816221e-01   -3.818637431e-01
     2593250000   -1.527123153e-01   -3.983677030e-01
     2594000000   -1.166691929e-01   -4.132968485e-01
     2594750000   -8.247262985e-02   -4.244471788e-01
     2595500000   -4.460531473e-02   -4.331962466e-01
     2596250000   -8.522407152e-03   -4.382262826e-01
     2597000000    2.977480181e-02   -4.395578206e-01
     2597750000    6.872833520e-02   -4.380013347e-01
     2598500000    1.055742428e-01   -4.343586564e-01
     2599250000    1.449026316e-01   -4.254944324e-01
     2600000000    1.829956770e-01   -4.130364358e-01
