! NanoVNA-App
! Date: 2026-05-22 17:56:43
! Start: 2.3GHz Stop: 0Hz Points: 401
! S-Parameter data: F S11
# Hz S RI R 50
!     Frequency           S11_Real           S11_Imag
     2300000000    7.493390888e-02   -3.873663247e-01
     2300750000    1.089945287e-01   -3.795225918e-01
     2301500000    1.436799020e-01   -3.675683439e-01
     2302250000    1.773656160e-01   -3.505863547e-01
     2303000000    2.077614814e-01   -3.347142935e-01
     2303750000    2.385114133e-01   -3.109382391e-01
     2304500000    2.654378116e-01   -2.882912457e-01
     2305250000    2.900822759e-01   -2.625302672e-01
     2306000000    3.134693503e-01   -2.349821776e-01
     2306750000    3.329473734e-01   -2.046086490e-01
     2307500000    3.503583670e-01   -1.736347377e-01
     2308250000    3.637776971e-01   -1.403516233e-01
     2309000000    3.752062321e-01   -1.060939804e-01
     2309750000    3.828091919e-01   -7.179882377e-02
     2310500000    3.867873549e-01   -3.507072106e-02
     2311250000    3.884359896e-01    3.423805465e-04
     2312000000    3.855647445e-01    3.625382483e-02
     2312750000    3.798038960e-01    7.176853716e-02
     2313500000    3.710252643e-01    1.065492108e-01
     2314250000    3.597299159e-01    1.387773603e-01
     2315000000    3.448486924e-01    1.722641736e-01
     2315750000    3.274233341e-01    2.028429210e-01
     2316500000    3.053121865e-01    2.323553860e-01
     2317250000    2.825074494e-01    2.591686845e-01
     2318000000    2.592020035e-01    2.837116122e-01
     2318750000    2.274087369e-01    3.068157434e-01
     2319500000    2.027817219e-01    3.255423307e-01
     2320250000    1.693685055e-01    3.424371183e-01
     2321000000    1.377110481e-01    3.569163978e-01
     2321750000    1.062323004e-01    3.675140738e-01
     2322500000    7.016071677e-02    3.754073679e-01
     2323250000    3.465217352e-02    3.786323369e-01
     2324000000   -4.881332279e-04    3.809583187e-01
     2324750000   -3.166269884e-02    3.800880313e-01
     2325500000   -6.960891932e-02    3.741353452e-01
     2326250000   -1.064272225e-01    3.637616932e-01
     2327000000   -1.373220384e-01    3.546032608e-01
     2327750000   -1.681920886e-01    3.409762681e-01
     2328500000   -2.007796764e-01    3.194292784e-01
     2329250000   -2.284142673e-01    3.035705388e-01
     2330000000   -2.555284202e-01    2.801281214e-01
     2330750000   -2.801015973e-01    2.551445663e-01
     2331500000   -3.021090627e-01    2.280210555e-01
     2332250000   -3.220664561e-01    2.008869499e-01
     2333000000   -3.389876783e-01    1.693189591e-01
     2333750000   -3.527131081e-01    1.387396157e-01
     2334500000   -3.638095260e-01    1.040015668e-01
     2335250000   -3.723998666e-01    7.170650363e-02
     2336000000   -3.769833446e-01    3.793602809e-02
     2336750000   -3.787968159e-01    3.603060730e-03
     2337500000   -3.771072030e-01   -3.165136278e-02
     2338250000   -3.735288084e-01   -6.400884688e-02
     2339000000   -3.649357259e-01   -9.826770425e-02
     2339750000   -3.538550735e-01   -1.303626299e-01
     2340500000   -3.418815136e-01   -1.608379334e-01
     2341250000   -3.239126205e-01   -1.911115050e-01
     2342000000   -3.063364625e-01   -2.181579471e-01
     2342750000   -2.815672755e-01   -2.455177605e-01
     2343500000   -2.606930137e-01   -2.688176036e-01
     2344250000   -2.320304960e-01   -2.912547886e-01
     2345000000   -2.046188414e-01   -3.096538484e-01
     2345750000   -1.746149659e-01   -3.264296353e-01
     2346500000   -1.443262994e-01   -3.405216336e-01
     2347250000   -1.123720631e-01   -3.514800668e-01
     2348000000   -7.829927653e-02   -3.589376509e-01
     2348750000   -4.414419085e-02   -3.638854623e-01
     2349500000   -1.338572707e-02   -3.671537936e-01
     2350250000    2.306184545e-02   -3.648554981e-01
     2351000000    5.620126054e-02   -3.602151871e-01
     2351750000    8.955299109e-02   -3.520550430e-01
     2352500000    1.200850233e-01   -3.421241343e-01
     2353250000    1.521514952e-01   -3.292496502e-01
     2354000000    1.836301237e-01   -3.098835945e-01
     2354750000    2.091516554e-01   -2.953138351e-01
     2355500000    2.367174625e-01   -2.721814215e-01
     2356250000    2.607704699e-01   -2.494487911e-01
     2357000000    2.814694941e-01   -2.245388031e-01
     2357750000    3.012225628e-01   -1.970081627e-01
     2358500000    3.186448514e-01   -1.684858501e-01
     2359250000    3.322433531e-01   -1.375695616e-01
     2360000000    3.433144391e-01   -1.072016582e-01
     2360750000    3.517344594e-01   -7.517553866e-02
     2361500000    3.563394248e-01   -4.213381559e-02
     2362250000    3.584012687e-01   -9.275548160e-03
     2363000000    3.576019406e-01    2.384877391e-02
     2363750000    3.533937931e-01    5.622917414e-02
     2364500000    3.469396234e-01    8.727192134e-02
     2365250000    3.370144665e-01    1.191270798e-01
     2366000000    3.234298229e-01    1.497693062e-01
     2366750000    3.079606295e-01    1.783638448e-01
     2367500000    2.901691794e-01    2.056548893e-01
     2368250000    2.694402039e-01    2.308679074e-01
     2369000000    2.474580854e-01    2.542051673e-01
     2369750000    2.218715250e-01    2.758305669e-01
     2370500000    1.944132298e-01    2.947430015e-01
     2371250000    1.674181968e-01    3.112201095e-01
     2372000000    1.380239427e-01    3.245181441e-01
     2372750000    1.072451770e-01    3.360714614e-01
     2373500000    7.586018741e-02    3.437008262e-01
     2374250000    4.287991300e-02    3.483436704e-01
     2375000000    1.191226207e-02    3.515508175e-01
     2375750000   -1.897607557e-02    3.508333564e-01
     2376500000   -5.376227945e-02    3.451514244e-01
     2377250000   -8.442811668e-02    3.400101364e-01
     2378000000   -1.141417995e-01    3.307975233e-01
     2378750000   -1.459135562e-01    3.167244792e-01
     2379500000   -1.738507003e-01    3.016462326e-01
     2380250000   -1.993650645e-01    2.857598066e-01
     2381000000   -2.254990786e-01    2.642922997e-01
     2381750000   -2.480994612e-01    2.435484380e-01
     2382500000   -2.679254115e-01    2.208874822e-01
     2383250000   -2.877969146e-01    1.913598031e-01
     2384000000   -3.035422564e-01    1.648238450e-01
     2384750000   -3.163875937e-01    1.362062395e-01
     2385500000   -3.281202614e-01    1.077035740e-01
     2386250000   -3.355488777e-01    7.629322261e-02
     2387000000   -3.400677741e-01    4.268667847e-02
     2387750000   -3.429380953e-01    1.345911250e-02
     2388500000   -3.422415257e-01   -1.904365607e-02
     2389250000   -3.365803659e-01   -5.188804865e-02
     2390000000   -3.318518996e-01   -8.115581423e-02
     2390750000   -3.222549260e-01   -1.122098640e-01
     2391500000   -3.113583624e-01   -1.411992610e-01
     2392250000   -2.958754599e-01   -1.683355719e-01
     2393000000   -2.792958617e-01   -1.952539235e-01
     2393750000   -2.618146837e-01   -2.197635323e-01
     2394500000   -2.384397238e-01   -2.423040420e-01
     2395250000   -2.156620026e-01   -2.635454535e-01
     2396000000   -1.897574514e-01   -2.816793621e-01
     2396750000   -1.637207270e-01   -2.978244722e-01
     2397500000   -1.365397722e-01   -3.105883598e-01
     2398250000   -1.072340533e-01   -3.212763369e-01
     2399000000   -7.738440484e-02   -3.292328715e-01
     2399750000   -4.680787399e-02   -3.343062699e-01
     2400500000   -1.622853801e-02   -3.370465338e-01
     2401250000    1.495770551e-02   -3.358663619e-01
     2402000000    4.536793381e-02   -3.321654499e-01
     2402750000    7.507023215e-02   -3.259716928e-01
     2403500000    1.048143581e-01   -3.165746331e-01
     2404250000    1.321179271e-01   -3.056137860e-01
     2405000000    1.604027003e-01   -2.907219529e-01
     2405750000    1.857385337e-01   -2.746164799e-01
     2406500000    2.097935230e-01   -2.559290528e-01
     2407250000    2.319973260e-01   -2.342894375e-01
     2408000000    2.517740428e-01   -2.117248923e-01
     2408750000    2.700002491e-01   -1.881050020e-01
     2409500000    2.849318683e-01   -1.610621065e-01
     2410250000    2.981958687e-01   -1.348611265e-01
     2411000000    3.083934188e-01   -1.057753563e-01
     2411750000    3.161906004e-01   -7.639156282e-02
     2412500000    3.214195073e-01   -4.836976528e-02
     2413250000    3.238766789e-01   -1.807594486e-02
     2414000000    3.225883245e-01    1.253896672e-02
     2414750000    3.194968998e-01    4.254969209e-02
     2415500000    3.132159710e-01    7.132203877e-02
     2416250000    3.046766520e-01    9.967958927e-02
     2417000000    2.938140035e-01    1.272824407e-01
     2417750000    2.799037993e-01    1.540601104e-01
     2418500000    2.633121610e-01    1.789491922e-01
     2419250000    2.459630966e-01    2.021486163e-01
     2420000000    2.256266624e-01    2.232863009e-01
     2420750000    2.028195560e-01    2.428092211e-01
     2421500000    1.796725690e-01    2.600846887e-01
     2422250000    1.538842171e-01    2.752788663e-01
     2423000000    1.277713180e-01    2.881412208e-01
     2423750000    1.001365408e-01    2.979542613e-01
     2424500000    7.230794430e-02    3.055505157e-01
     2425250000    4.348472878e-02    3.104607463e-01
     2426000000    1.413967088e-02    3.141229451e-01
     2426750000   -1.366055850e-02    3.139187694e-01
     2427500000   -4.386452213e-02    3.088712096e-01
     2428250000   -7.184472680e-02    3.031953871e-01
     2429000000   -9.945090860e-02    2.954748571e-01
     2429750000   -1.260649413e-01    2.847302854e-01
     2430500000   -1.513150483e-01    2.711291313e-01
     2431250000   -1.754997224e-01    2.562766671e-01
     2432000000   -1.980381757e-01    2.397901863e-01
     2432750000   -2.191746980e-01    2.193324119e-01
     2433500000   -2.380935699e-01    1.973873824e-01
     2434250000   -2.545222938e-01    1.759980619e-01
     2435000000   -2.691006362e-01    1.510909945e-01
     2435750000   -2.814111114e-01    1.257975250e-01
     2436500000   -2.911525667e-01    9.935226291e-02
     2437250000   -2.986918092e-01    7.277095318e-02
     2438000000   -3.023430407e-01    4.420124739e-02
     2438750000   -3.048374951e-01    1.681160741e-02
     2439500000   -3.046690524e-01   -1.065807976e-02
     2440250000   -3.018161058e-01   -3.864197806e-02
     2441000000   -2.955568135e-01   -6.613196433e-02
     2441750000   -2.869210541e-01   -9.230045229e-02
     2442500000   -2.777730525e-01   -1.176247895e-01
     2443250000   -2.649300992e-01   -1.420048773e-01
     2444000000   -2.487624884e-01   -1.654795706e-01
     2444750000   -2.333363891e-01   -1.872829497e-01
     2445500000   -2.144732475e-01   -2.068240643e-01
     2446250000   -1.935228556e-01   -2.245553434e-01
     2447000000   -1.719705611e-01   -2.405837327e-01
     2447750000   -1.487692893e-01   -2.547460794e-01
     2448500000   -1.244655922e-01   -2.664181888e-01
     2449250000   -9.954271466e-02   -2.761645615e-01
     2450000000   -7.360348105e-02   -2.828072011e-01
     2450750000   -4.739522189e-02   -2.870989740e-01
     2451500000   -2.061612532e-02   -2.889999747e-01
     2452250000    5.616553593e-03   -2.884159088e-01
     2453000000    3.172372654e-02   -2.854667604e-01
     2453750000    5.771758035e-02   -2.791494131e-01
     2454500000    8.264029771e-02   -2.714898288e-01
     2455250000    1.065721065e-01   -2.611488998e-01
     2456000000    1.302673221e-01   -2.484459728e-01
     2456750000    1.520174891e-01   -2.346228212e-01
     2457500000    1.720168144e-01   -2.185102403e-01
     2458250000    1.907557547e-01   -2.003876418e-01
     2459000000    2.079924047e-01   -1.810057014e-01
     2459750000    2.227796465e-01   -1.591124982e-01
     2460500000    2.354605198e-01   -1.378469616e-01
     2461250000    2.463175803e-01   -1.150330082e-01
     2462000000    2.552668452e-01   -9.045445174e-02
     2462750000    2.613934875e-01   -6.570141762e-02
     2463500000    2.655898035e-01   -4.209387675e-02
     2464250000    2.668542266e-01   -1.660781540e-02
     2465000000    2.656261027e-01    8.634080179e-03
     2465750000    2.629203498e-01    3.339355811e-02
     2466500000    2.578375936e-01    5.651922897e-02
     2467250000    2.495146841e-01    8.032552898e-02
     2468000000    2.397951484e-01    1.022314802e-01
     2468750000    2.270403355e-01    1.232545450e-01
     2469500000    2.142576873e-01    1.429851353e-01
     2470250000    1.978707612e-01    1.615132987e-01
     2471000000    1.806383431e-01    1.782078147e-01
     2471750000    1.616183668e-01    1.934168935e-01
     2472500000    1.428065896e-01    2.062488794e-01
     2473250000    1.207783595e-01    2.174477428e-01
     2474000000    9.830475599e-02    2.261018604e-01
     2474750000    7.626933604e-02    2.338593304e-01
     2475500000    5.326626822e-02    2.381329387e-01
     2476250000    2.936124243e-02    2.401962131e-01
     2477000000    5.633065011e-03    2.407416999e-01
     2477750000   -1.755274832e-02    2.390946448e-01
     2478500000   -4.021468014e-02    2.349939793e-01
     2479250000   -6.273128837e-02    2.287491858e-01
     2480000000   -8.392085135e-02    2.204529345e-01
     2480750000   -1.050996855e-01    2.104204297e-01
     2481500000   -1.244165748e-01    1.984305680e-01
     2482250000   -1.430737674e-01    1.844118387e-01
     2483000000   -1.594657749e-01    1.694834381e-01
     2483750000   -1.745719165e-01    1.525695324e-01
     2484500000   -1.880206466e-01    1.344531327e-01
     2485250000   -1.994460076e-01    1.151642203e-01
     2486000000   -2.086537182e-01    9.500340372e-02
     2486750000   -2.163232863e-01    7.446249574e-02
     2487500000   -2.211879343e-01    5.353365466e-02
     2488250000   -2.244269550e-01    3.128107637e-02
     2489000000   -2.251567245e-01    9.863139130e-03
     2489750000   -2.239701450e-01   -1.251773816e-02
     2490500000   -2.208218575e-01   -3.392750025e-02
     2491250000   -2.153264284e-01   -5.475231633e-02
     2492000000   -2.082382292e-01   -7.545468211e-02
     2492750000   -1.990076452e-01   -9.508892894e-02
     2493500000   -1.875739098e-01   -1.133431047e-01
     2494250000   -1.751070470e-01   -1.306023896e-01
     2495000000   -1.606847197e-01   -1.467651278e-01
     2495750000   -1.450905651e-01   -1.610039324e-01
     2496500000   -1.282301843e-01   -1.737021804e-01
     2497250000   -1.111455336e-01   -1.850717664e-01
     2498000000   -9.176643193e-02   -1.930344403e-01
     2498750000   -7.088654488e-02   -2.010019869e-01
     2499500000   -5.159505829e-02   -2.061040998e-01
     2500250000   -3.014335409e-02   -2.085136771e-01
     2501000000   -9.236840531e-03   -2.103653997e-01
     2501750000    1.092677563e-02   -2.095280588e-01
     2502500000    3.179891035e-02   -2.061510384e-01
     2503250000    5.244567245e-02   -2.019069344e-01
     2504000000    7.187433541e-02   -1.947743595e-01
     2504750000    9.040286392e-02   -1.858343631e-01
     2505500000    1.079358831e-01   -1.759457290e-01
     2506250000    1.244426593e-01   -1.643606126e-01
     2507000000    1.408554316e-01   -1.503015459e-01
     2507750000    1.543791592e-01   -1.355789304e-01
     2508500000    1.661811322e-01   -1.196964085e-01
     2509250000    1.777341813e-01   -1.021058783e-01
     2510000000    1.856478453e-01   -8.478838205e-02
     2510750000    1.931332648e-01   -6.490606815e-02
     2511500000    1.978719980e-01   -4.599028453e-02
     2512250000    2.014910281e-01   -2.655144967e-02
     2513000000    2.024715096e-01   -6.665836554e-03
     2513750000    2.013549507e-01    1.312157884e-02
     2514500000    1.985414028e-01    3.219557554e-02
     2515250000    1.933546811e-01    5.189041048e-02
     2516000000    1.871628016e-01    7.051582634e-02
     2516750000    1.787148416e-01    8.783176541e-02
     2517500000    1.681800485e-01    1.051745862e-01
     2518250000    1.565066576e-01    1.207560599e-01
     2519000000    1.431362331e-01    1.347947866e-01
     2519750000    1.281744391e-01    1.477362812e-01
     2520500000    1.128806099e-01    1.588191837e-01
     2521250000    9.565929323e-02    1.684233844e-01
     2522000000    7.758583128e-02    1.762085408e-01
     2522750000    5.913430080e-02    1.818485409e-01
     2523500000    3.988469392e-02    1.863200963e-01
     2524250000    2.025238797e-02    1.880119145e-01
     2525000000    4.957098281e-04    1.878146827e-01
     2525750000   -1.883323677e-02    1.866656244e-01
     2526500000   -3.849745169e-02    1.832058430e-01
     2527250000   -5.740130693e-02    1.770516038e-01
     2528000000   -7.576761395e-02    1.692908853e-01
     2528750000   -9.302579612e-02    1.603373140e-01
     2529500000   -1.096169353e-01    1.491315812e-01
     2530250000   -1.252193004e-01    1.368746012e-01
     2531000000   -1.389582604e-01    1.229023710e-01
     2531750000   -1.519172788e-01    1.074968055e-01
     2532500000   -1.626918763e-01    9.116624296e-02
     2533250000   -1.721839458e-01    7.355130464e-02
     2534000000   -1.799645275e-01    5.508415028e-02
     2534750000   -1.854718626e-01    3.659882024e-02
     2535500000   -1.888309717e-01    1.677211002e-02
     2536250000   -1.907261908e-01   -3.233522875e-03
     2537000000   -1.904316396e-01   -2.257980034e-02
     2537750000   -1.877176017e-01   -4.195654392e-02
     2538500000   -1.832756102e-01   -6.150149181e-02
     2539250000   -1.769890040e-01   -7.999323308e-02
     2540000000   -1.690254956e-01   -9.842151403e-02
     2540750000   -1.590279788e-01   -1.156448647e-01
     2541500000   -1.471552402e-01   -1.317006499e-01
     2542250000   -1.335027516e-01   -1.467564106e-01
     2543000000   -1.183959246e-01   -1.597457975e-01
     2543750000   -1.028229073e-01   -1.719284654e-01
     2544500000   -8.461995423e-02   -1.822765023e-01
     2545250000   -6.653242558e-02   -1.907233745e-01
     2546000000   -4.695502296e-02   -1.971476078e-01
     2546750000   -2.709443308e-02   -2.022206634e-01
     2547500000   -6.895209197e-03   -2.040443420e-01
     2548250000    1.410523336e-02   -2.049359232e-01
     2549000000    3.441695869e-02   -2.035704553e-01
     2549750000    5.630409718e-02   -1.995141655e-01
     2550500000    7.616644353e-02   -1.924608052e-01
     2551250000    9.627240151e-02   -1.856131405e-01
     2552000000    1.148032174e-01   -1.759538054e-01
     2552750000    1.329093724e-01   -1.642311811e-01
     2553500000    1.500251591e-01   -1.498254240e-01
     2554250000    1.659737676e-01   -1.345507205e-01
     2555000000    1.794857979e-01   -1.185199022e-01
     2555750000    1.921833605e-01   -9.933050722e-02
     2556500000    2.024425864e-01   -8.010822535e-02
     2557250000    2.108320892e-01   -6.039944291e-02
     2558000000    2.172792107e-01   -3.796986490e-02
     2558750000    2.206295282e-01   -1.583263278e-02
     2559500000    2.240993679e-01    6.585379131e-03
     2560250000    2.225945741e-01    2.970832773e-02
     2561000000    2.210194916e-01    5.270710215e-02
     2561750000    2.166443020e-01    7.584717870e-02
     2562500000    2.091575861e-01    9.773200750e-02
     2563250000    1.982335299e-01    1.192526668e-01
     2564000000    1.885113716e-01    1.408734620e-01
     2564750000    1.748174280e-01    1.606047153e-01
     2565500000    1.592517048e-01    1.794695854e-01
     2566250000    1.407750696e-01    1.964236945e-01
     2567000000    1.224524826e-01    2.124992311e-01
     2567750000    1.033404022e-01    2.271680385e-01
     2568500000    8.059675246e-02    2.386532575e-01
     2569250000    5.717347190e-02    2.482827902e-01
     2570000000    3.292740881e-02    2.558671236e-01
     2570750000    8.515210822e-03    2.608011067e-01
     2571500000   -1.673313417e-02    2.632561624e-01
     2572250000   -4.211007431e-02    2.638155222e-01
     2573000000   -6.824564189e-02    2.612884939e-01
     2573750000   -9.389284253e-02    2.560095191e-01
     2574500000   -1.194405109e-01    2.492335141e-01
     2575250000   -1.433526576e-01    2.391298413e-01
     2576000000   -1.680367589e-01    2.266366035e-01
     2576750000   -1.905064434e-01    2.116687000e-01
     2577500000   -2.112695277e-01    1.943818480e-01
     2578250000   -2.313086987e-01    1.758231819e-01
     2579000000   -2.494581342e-01    1.544948518e-01
     2579750000   -2.655998170e-01    1.312845647e-01
     2580500000   -2.798290253e-01    1.070382670e-01
     2581250000   -2.915490866e-01    8.053027093e-02
     2582000000   -3.003220260e-01    5.323657766e-02
     2582750000   -3.071557879e-01    2.538574487e-02
     2583500000   -3.107448816e-01   -4.369653761e-03
     2584250000   -3.120079935e-01   -3.376370296e-02
     2585000000   -3.111834526e-01   -6.273017079e-02
     2585750000   -3.064322472e-01   -9.324322641e-02
     2586500000   -2.996731699e-01   -1.221301332e-01
     2587250000   -2.886961102e-01   -1.514023840e-01
              0    5.015606061e-02    1.909641474e-01
              0    4.947060719e-02    1.910723448e-01
              0    4.924717173e-02    1.909345537e-01
              0    4.907373339e-02    1.911078840e-01
              0    4.797767475e-02    1.912709326e-01
              0    4.821980000e-02    1.915123612e-01
              0    4.769813642e-02    1.915778071e-01
              0    4.801601917e-02    1.913425475e-01
              0    4.663107917e-02    1.917865127e-01
              0    4.652456939e-02    1.918290555e-01
              0    4.599079490e-02    1.918368340e-01
              0    4.567349330e-02    1.919942349e-01
              0    4.581525922e-02    1.919689775e-01
              0    4.508886859e-02    1.919558197e-01
              0    4.441249371e-02    1.922230721e-01
              0    4.443092272e-02    1.922362745e-01
              0    4.443095252e-02    1.922363043e-01
