! NanoVNA-App
! Date: 2026-05-22 17:56:12
! Start: 4.8GHz Stop: 6GHz Points: 401
! S-Parameter data: F S11
# Hz S RI R 50
!     Frequency           S11_Real           S11_Imag
     4800000000    2.535512745e-01   -1.147867069e-01
     4803000000    2.795863450e-01   -1.900521293e-02
     4806000000    2.684229314e-01    8.001559973e-02
     4809000000    2.255609930e-01    1.675192267e-01
     4812000000    1.524469554e-01    2.376660258e-01
     4815000000    6.155169755e-02    2.747583687e-01
     4818000000   -3.707299009e-02    2.791780829e-01
     4821000000   -1.308075190e-01    2.482376099e-01
     4824000000   -2.056248933e-01    1.858438402e-01
     4827000000   -2.581352890e-01    1.008803546e-01
     4830000000   -2.742220163e-01    5.083387252e-03
     4833000000   -2.581959367e-01   -9.271749854e-02
     4836000000   -2.075419724e-01   -1.761953682e-01
     4839000000   -1.318787932e-01   -2.371535450e-01
     4842000000   -3.902231157e-02   -2.675877512e-01
     4845000000    5.638267100e-02   -2.638959289e-01
     4848000000    1.445230842e-01   -2.264377475e-01
     4851000000    2.146780491e-01   -1.618163586e-01
     4854000000    2.544286251e-01   -7.597877830e-02
     4857000000    2.652944624e-01    1.676314324e-02
     4860000000    2.398534417e-01    1.057452038e-01
     4863000000    1.845798790e-01    1.807691455e-01
     4866000000    1.094730794e-01    2.324683666e-01
     4869000000    1.836500876e-02    2.501763105e-01
     4872000000   -7.186531276e-02    2.402653545e-01
     4875000000   -1.470461190e-01    1.938709915e-01
     4878000000   -2.068130374e-01    1.286441386e-01
     4881000000   -2.405607253e-01    4.765958339e-02
     4884000000   -2.364749014e-01   -3.767068684e-02
     4887000000   -2.056804746e-01   -1.203083694e-01
     4890000000   -1.475304812e-01   -1.811209023e-01
     4893000000   -7.379072160e-02   -2.190813720e-01
     4896000000    9.054971859e-03   -2.260431200e-01
     4899000000    8.895502239e-02   -2.072776258e-01
     4902000000    1.569701582e-01   -1.601997018e-01
     4905000000    2.010893375e-01   -9.234397858e-02
     4908000000    2.197867185e-01   -1.596482284e-02
     4911000000    2.104423046e-01    6.205974147e-02
     4914000000    1.730007827e-01    1.294771731e-01
     4917000000    1.156432107e-01    1.805963665e-01
     4920000000    4.410871863e-02    2.041025758e-01
     4923000000   -2.905085497e-02    2.051304877e-01
     4926000000   -9.607142210e-02    1.760268062e-01
     4929000000   -1.512975395e-01    1.309581250e-01
     4932000000   -1.772166342e-01    6.716067344e-02
     4935000000   -1.926624924e-01   -2.296860330e-03
     4938000000   -1.681123972e-01   -6.144919991e-02
     4941000000   -1.385264546e-01   -1.229443997e-01
     4944000000   -8.234784752e-02   -1.477866471e-01
     4947000000   -2.405986190e-02   -1.722677499e-01
     4950000000    3.538219631e-02   -1.534119993e-01
     4953000000    8.738856018e-02   -1.293837279e-01
     4956000000    1.272650957e-01   -8.824278414e-02
     4959000000    1.438332349e-01   -3.594131023e-02
     4962000000    1.438406855e-01    1.755530015e-02
     4965000000    1.233100221e-01    6.649452448e-02
     4968000000    8.787806332e-02    1.026457548e-01
     4971000000    4.544226080e-02    1.236318201e-01
     4974000000   -1.627368736e-03    1.255932003e-01
     4977000000   -4.690266773e-02    1.137127355e-01
     4980000000   -7.850105315e-02    8.573715389e-02
     4983000000   -1.040097550e-01    5.170238763e-02
     4986000000   -1.040267646e-01    1.383251324e-02
     4989000000   -9.544318914e-02   -2.206569165e-02
     4992000000   -8.168490976e-02   -5.901097879e-02
     4995000000   -5.078391731e-02   -7.046967745e-02
     4998000000   -1.934101991e-02   -8.062023669e-02
     5001000000    8.712652139e-03   -7.160215080e-02
     5004000000    2.809962071e-02   -5.191823840e-02
     5007000000    4.795320332e-02   -3.491292149e-02
     5010000000    5.527751148e-02   -1.045068819e-02
     5013000000    4.663705826e-02    1.007834449e-02
     5016000000    3.629320860e-02    2.673291415e-02
     5019000000    1.681864820e-02    3.067638539e-02
     5022000000   -1.711694873e-03    3.314743191e-02
     5025000000   -1.397480536e-02    2.441145293e-02
     5028000000   -2.194667608e-02    1.024609711e-02
     5031000000   -2.314944752e-02   -4.580882844e-03
     5034000000   -1.792628504e-02   -1.722293533e-02
     5037000000   -4.255964421e-03   -2.585890889e-02
     5040000000    1.324908994e-02   -2.829425596e-02
     5043000000    2.810636535e-02   -2.356105670e-02
     5046000000    4.031077772e-02   -8.707587607e-03
     5049000000    4.577150568e-02    9.512746707e-03
     5052000000    4.394319654e-02    2.727125771e-02
     5055000000    2.777125873e-02    5.219342932e-02
     5058000000    7.983297110e-03    6.433091313e-02
     5061000000   -2.013886347e-02    6.834610552e-02
     5064000000   -4.574603587e-02    6.179117039e-02
     5067000000   -7.426069677e-02    4.212262854e-02
     5070000000   -9.122904390e-02    1.299685705e-02
     5073000000   -9.855221957e-02   -2.130021155e-02
     5076000000   -9.171837568e-02   -5.788093433e-02
     5079000000   -6.804785877e-02   -9.063090384e-02
     5082000000   -3.722392395e-02   -1.147668362e-01
     5085000000    7.192788180e-03   -1.263060272e-01
     5088000000    5.374509469e-02   -1.186819896e-01
     5091000000    9.445045143e-02   -9.779678285e-02
     5094000000    1.274097860e-01   -5.985962972e-02
     5097000000    1.457979679e-01   -1.286590286e-02
     5100000000    1.444629878e-01    4.058798403e-02
     5103000000    1.259213984e-01    9.133775532e-02
     5106000000    8.757178485e-02    1.335065365e-01
     5109000000    3.157157078e-02    1.609046906e-01
     5112000000   -2.180926502e-02    1.714402139e-01
     5115000000   -8.543838561e-02    1.517182291e-01
     5118000000   -1.337541193e-01    1.230373681e-01
     5121000000   -1.676964462e-01    6.145567819e-02
     5124000000   -1.889109313e-01    7.301531266e-03
     5127000000   -1.743291467e-01   -6.399030983e-02
     5130000000   -1.479158998e-01   -1.228443086e-01
     5133000000   -9.132687747e-02   -1.686901003e-01
     5136000000   -2.656386979e-02   -1.928527951e-01
     5139000000    4.483208805e-02   -1.931578517e-01
     5142000000    1.115563288e-01   -1.686572582e-01
     5145000000    1.674888879e-01   -1.166139916e-01
     5148000000    2.025828809e-01   -5.408621207e-02
     5151000000    2.102834880e-01    2.136806399e-02
     5154000000    1.950043440e-01    9.409682453e-02
     5157000000    1.497692615e-01    1.582442075e-01
     5160000000    8.633006364e-02    2.022769600e-01
     5163000000    1.062452141e-02    2.208334357e-01
     5166000000   -6.784039736e-02    2.100482434e-01
     5169000000   -1.384093761e-01    1.732786596e-01
     5172000000   -1.895439178e-01    1.114251316e-01
     5175000000   -2.161061168e-01    3.608520329e-02
     5178000000   -2.207245827e-01   -4.499872774e-02
     5181000000   -1.836219728e-01   -1.165120602e-01
     5184000000   -1.368113905e-01   -1.852121204e-01
     5187000000   -5.733483285e-02   -2.128926069e-01
     5190000000    2.456283942e-02   -2.262559980e-01
     5193000000    1.008805707e-01   -2.009210736e-01
     5196000000    1.759336442e-01   -1.599994600e-01
     5199000000    2.093742937e-01   -8.271417022e-02
     5202000000    2.389551103e-01   -2.425580751e-03
     5205000000    2.250271887e-01    8.190599084e-02
     5208000000    1.767948568e-01    1.507723629e-01
     5211000000    1.142375395e-01    2.104820460e-01
     5214000000    3.039035946e-02    2.302771807e-01
     5217000000   -5.495253205e-02    2.285937369e-01
     5220000000   -1.313517690e-01    1.909691840e-01
     5223000000   -1.931975633e-01    1.309132725e-01
     5226000000   -2.297132611e-01    5.179097876e-02
     5229000000   -2.353756875e-01   -3.607386351e-02
     5232000000   -2.044068724e-01   -1.144050807e-01
     5235000000   -1.536612809e-01   -1.842512190e-01
     5238000000   -7.834059000e-02   -2.263004929e-01
     5241000000    7.346238941e-03   -2.429061234e-01
     5244000000    9.366094321e-02   -2.234314829e-01
     5247000000    1.681216806e-01   -1.764397174e-01
     5250000000    2.114198804e-01   -1.032404304e-01
     5253000000    2.361005098e-01   -2.021478862e-02
     5256000000    2.320543230e-01    7.022343576e-02
     5259000000    1.922492236e-01    1.506595910e-01
     5262000000    1.236378998e-01    1.957101524e-01
     5265000000    4.165519774e-02    2.364189476e-01
     5268000000   -4.808249697e-02    2.388188988e-01
     5271000000   -1.236267388e-01    2.005256712e-01
     5274000000   -1.747415364e-01    1.421380788e-01
     5277000000   -2.282354832e-01    6.629029661e-02
     5280000000   -2.276875526e-01   -1.287241932e-02
     5283000000   -2.126463205e-01   -1.057424992e-01
     5286000000   -1.586612314e-01   -1.630633473e-01
     5289000000   -8.435036987e-02   -2.247272134e-01
     5292000000   -5.695136730e-03   -2.274808884e-01
     5295000000    7.956758887e-02   -2.155011594e-01
     5298000000    1.490817815e-01   -1.713149548e-01
     5301000000    1.999584734e-01   -1.043331698e-01
     5304000000    2.224133760e-01   -2.470473759e-02
     5307000000    2.152650803e-01    5.934252962e-02
     5310000000    1.797125638e-01    1.327591240e-01
     5313000000    1.170258299e-01    1.851996630e-01
     5316000000    4.288409278e-02    2.147734165e-01
     5319000000   -3.705810755e-02    2.152303904e-01
     5322000000   -1.123795211e-01    1.856346726e-01
     5325000000   -1.699702442e-01    1.321547031e-01
     5328000000   -2.046626359e-01    6.090707704e-02
     5331000000   -2.130123675e-01   -2.453614771e-02
     5334000000   -1.870735586e-01   -1.008233875e-01
     5337000000   -1.337133199e-01   -1.584366113e-01
     5340000000   -6.674946100e-02   -1.941769868e-01
     5343000000    9.086707607e-03   -2.061537057e-01
     5346000000    8.467027545e-02   -1.890686750e-01
     5349000000    1.430467516e-01   -1.447183788e-01
     5352000000    1.836732179e-01   -8.180300891e-02
     5355000000    2.028841227e-01   -8.755264804e-03
     5358000000    1.933744252e-01    7.635601610e-02
     5361000000    1.512834430e-01    1.198221371e-01
     5364000000    9.133188426e-02    1.805005372e-01
     5367000000    1.562966220e-02    2.029041350e-01
     5370000000   -2.941100672e-02    1.712439358e-01
     5373000000   -1.369856745e-01    1.536707729e-01
     5376000000   -1.716893613e-01    9.867007285e-02
     5379000000   -1.826808751e-01    3.838121518e-02
     5382000000   -1.882323027e-01   -3.990298882e-02
     5385000000   -1.542974561e-01   -1.035897806e-01
     5388000000   -1.046964601e-01   -1.600976884e-01
     5391000000   -4.804176465e-02   -1.748308390e-01
     5394000000    3.828582913e-02   -1.898535192e-01
     5397000000    9.432055056e-02   -1.567810476e-01
     5400000000    1.453183442e-01   -1.086621732e-01
     5403000000    1.787031591e-01   -4.537494853e-02
     5406000000    1.764283031e-01    1.431824360e-02
     5409000000    1.557457745e-01    7.845690101e-02
     5412000000    1.142841354e-01    1.338608414e-01
     5415000000    4.916413128e-02    1.725803912e-01
     5418000000   -4.810428713e-03    1.691914201e-01
     5421000000   -8.078448474e-02    1.563683599e-01
     5424000000   -1.247681677e-01    1.163297147e-01
     5427000000   -1.697291285e-01    5.054768920e-02
     5430000000   -1.607289165e-01    3.134605475e-03
     5433000000   -1.511570811e-01   -7.135030627e-02
     5436000000   -1.097219810e-01   -1.272641867e-01
     5439000000   -5.716908723e-02   -1.518268436e-01
     5442000000    8.824713528e-03   -1.644825339e-01
     5445000000    6.323043257e-02   -1.459185034e-01
     5448000000    1.200776771e-01   -1.105908081e-01
     5451000000    1.492447704e-01   -5.838045478e-02
     5454000000    1.567069292e-01   -7.621960831e-04
     5457000000    1.507776827e-01    7.607745379e-02
     5460000000    1.109534875e-01    1.223047450e-01
     5463000000    6.026452035e-02    1.472120583e-01
     5466000000   -1.407120936e-02    1.692982316e-01
     5469000000   -7.029194385e-02    1.478370428e-01
     5472000000   -1.275514960e-01    1.084045693e-01
     5475000000   -1.563973129e-01    5.424368754e-02
     5478000000   -1.585969031e-01    1.725818613e-03
     5481000000   -1.532711536e-01   -7.549726963e-02
     5484000000   -1.113623157e-01   -1.317694187e-01
     5487000000   -5.628944188e-02   -1.656898707e-01
     5490000000    1.656457596e-02   -1.821143478e-01
     5493000000    6.851685792e-02   -1.622013450e-01
     5496000000    1.498126984e-01   -1.240405440e-01
     5499000000    1.673240960e-01   -6.951363385e-02
     5502000000    1.850404590e-01   -3.608534578e-03
     5505000000    1.800130606e-01    8.363692462e-02
     5508000000    1.384539604e-01    1.443538368e-01
     5511000000    7.613588125e-02    1.863492280e-01
     5514000000   -7.325159851e-03    2.115001082e-01
     5517000000   -7.791388780e-02    1.941432655e-01
     5520000000   -1.458859444e-01    1.525022835e-01
     5523000000   -1.951914728e-01    9.122602642e-02
     5526000000   -2.256120741e-01    7.373019587e-03
     5529000000   -2.107514441e-01   -6.137162820e-02
     5532000000   -1.750906110e-01   -1.539895982e-01
     5535000000   -1.113287583e-01   -2.102889717e-01
     5538000000   -3.416693211e-02   -2.347774804e-01
     5541000000    6.374240667e-02   -2.376788259e-01
     5544000000    1.423988193e-01   -2.042469233e-01
     5547000000    2.052256465e-01   -1.444158256e-01
     5550000000    2.494068444e-01   -5.553618446e-02
     5553000000    2.541289926e-01    2.396002784e-02
     5556000000    2.311311215e-01    1.411121935e-01
     5559000000    1.755026281e-01    1.920402944e-01
     5562000000    8.599814773e-02    2.544207871e-01
     5565000000   -7.471689023e-03    2.689624131e-01
     5568000000   -1.066561416e-01    2.517736256e-01
     5571000000   -1.904479414e-01    2.016854137e-01
     5574000000   -2.651570737e-01    1.103490368e-01
     5577000000   -2.849597931e-01    1.914528199e-02
     5580000000   -2.775669098e-01   -9.862218052e-02
     5583000000   -2.339791656e-01   -1.730906963e-01
     5586000000   -1.504404694e-01   -2.556367218e-01
     5589000000   -5.505412817e-02   -2.928655446e-01
     5592000000    5.412677303e-02   -2.932814956e-01
     5595000000    1.537103355e-01   -2.590480149e-01
     5598000000    2.495121807e-01   -1.815869063e-01
     5601000000    2.922105193e-01   -9.326703101e-02
     5604000000    3.079871833e-01    2.006906457e-02
     5607000000    2.816441953e-01    1.294393986e-01
     5610000000    2.241169214e-01    2.160443068e-01
     5613000000    1.186025813e-01    2.913808227e-01
     5616000000    2.585272118e-02    3.100465238e-01
     5619000000   -1.033754647e-01    2.962434888e-01
     5622000000   -1.867619157e-01    2.502198517e-01
     5625000000   -2.703732550e-01    1.618406177e-01
     5628000000   -3.101813793e-01    5.693380162e-02
     5631000000   -3.094360530e-01   -6.415786594e-02
     5634000000   -2.656176388e-01   -1.716365367e-01
     5637000000   -2.080245465e-01   -2.361555547e-01
     5640000000   -8.854228258e-02   -2.984068394e-01
     5643000000    2.430606075e-02   -3.099117875e-01
     5646000000    1.248603761e-01   -2.858630717e-01
     5649000000    2.249063104e-01   -2.064458728e-01
     5652000000    2.728765309e-01   -1.410437971e-01
     5655000000    3.031991422e-01   -1.034671441e-02
     5658000000    2.879819572e-01    9.349177778e-02
     5661000000    2.237025499e-01    2.044073194e-01
     5664000000    1.530053169e-01    2.610167265e-01
     5667000000    3.326002881e-02    2.993716300e-01
     5670000000   -5.596116558e-02    2.976346314e-01
     5673000000   -1.659737080e-01    2.457797229e-01
     5676000000   -2.434974611e-01    1.683086157e-01
     5679000000   -2.822001874e-01    8.292292804e-02
     5682000000   -2.888781726e-01   -2.985577472e-02
     5685000000   -2.575706244e-01   -1.283375621e-01
     5688000000   -1.893298477e-01   -2.133666724e-01
     5691000000   -1.046266705e-01   -2.634275556e-01
     5694000000   -9.435438551e-03   -2.850425243e-01
     5697000000    9.714441746e-02   -2.645457089e-01
     5700000000    1.954996735e-01   -1.925842762e-01
     5703000000    2.440343201e-01   -1.367070526e-01
     5706000000    2.712741494e-01   -2.412120625e-02
     5709000000    2.546467781e-01    7.770786434e-02
     5712000000    2.305593640e-01    1.455986351e-01
     5715000000    1.370154172e-01    2.217075974e-01
     5718000000    5.346160382e-02    2.527424693e-01
     5721000000   -4.400097206e-02    2.498623282e-01
     5724000000   -1.357421428e-01    2.090426236e-01
     5727000000   -1.959846914e-01    1.668098867e-01
     5730000000   -2.359537780e-01    6.325896829e-02
     5733000000   -2.456289530e-01   -1.869879849e-02
     5736000000   -2.244341522e-01   -1.019024551e-01
     5739000000   -1.638386548e-01   -1.725587994e-01
     5742000000   -8.267394453e-02   -2.177958935e-01
     5745000000   -1.833794825e-02   -2.401153147e-01
     5748000000    8.074995875e-02   -2.115458548e-01
     5751000000    1.520066857e-01   -1.678608358e-01
     5754000000    1.989777535e-01   -1.070576459e-01
     5757000000    2.173447609e-01   -2.225043997e-02
     5760000000    2.193087190e-01    4.914271832e-02
     5763000000    1.641792804e-01    1.278003752e-01
     5766000000    1.261272281e-01    1.761555225e-01
     5769000000    2.694229595e-02    1.953924149e-01
     5772000000   -2.977790497e-02    2.068314552e-01
     5775000000   -1.036227942e-01    1.774576753e-01
     5778000000   -1.539877802e-01    9.840074182e-02
     5781000000   -1.865805835e-01    5.131588131e-02
     5784000000   -1.829138994e-01   -2.689724974e-02
     5787000000   -1.685157120e-01   -8.459913731e-02
     5790000000   -1.159290895e-01   -1.407598257e-01
     5793000000   -5.583883077e-02   -1.700833738e-01
     5796000000    7.546753623e-03   -1.790284067e-01
     5799000000    7.610709220e-02   -1.553216577e-01
     5802000000    1.229660064e-01   -1.190401539e-01
     5805000000    1.539803892e-01   -5.628369004e-02
     5808000000    1.576427668e-01    8.119281381e-03
     5811000000    1.494312286e-01    6.061929092e-02
     5814000000    1.040995196e-01    1.101332381e-01
     5817000000    5.892938748e-02    1.417372227e-01
     5820000000    2.607998205e-03    1.521254182e-01
     5823000000   -5.571358651e-02    1.450377256e-01
     5826000000   -1.023782045e-01    1.029145792e-01
     5829000000   -1.306418926e-01    5.344965309e-02
     5832000000   -1.393048912e-01   -1.448565628e-03
     5835000000   -1.340586245e-01   -5.160395801e-02
     5838000000   -1.017583683e-01   -1.006972194e-01
     5841000000   -5.202925950e-02   -1.285244226e-01
     5844000000    1.244549290e-03   -1.375624686e-01
     5847000000    5.219993368e-02   -1.261052489e-01
     5850000000    9.480419010e-02   -1.036058664e-01
     5853000000    1.221803725e-01   -4.947514832e-02
     5856000000    1.372963935e-01   -8.837907575e-03
     5859000000    1.206091866e-01    4.556918517e-02
     5862000000    9.655730426e-02    8.807687461e-02
     5865000000    4.980093241e-02    1.153610274e-01
     5868000000    4.993350245e-03    1.288650185e-01
     5871000000   -5.008146912e-02    1.107128337e-01
     5874000000   -9.164410084e-02    8.942637593e-02
     5877000000   -1.194821447e-01    4.635043815e-02
     5880000000   -1.275555938e-01   -3.737375606e-03
     5883000000   -1.240596622e-01   -4.904133081e-02
     5886000000   -8.818542957e-02   -9.057654440e-02
     5889000000   -6.055350229e-02   -1.220811829e-01
     5892000000   -5.028246436e-03   -1.311677694e-01
     5895000000    3.866693005e-02   -1.299711168e-01
     5898000000    8.538863063e-02   -9.626166523e-02
     5901000000    1.105258539e-01   -4.026253149e-02
     5904000000    1.396726817e-01   -1.621026359e-02
     5907000000    1.242473125e-01    4.616280645e-02
     5910000000    9.000915289e-02    9.006169438e-02
     5913000000    6.193419546e-02    1.245295852e-01
     5916000000   -5.465110298e-03    1.225212067e-01
     5919000000   -4.225678369e-02    1.373333186e-01
     5922000000   -8.979257941e-02    1.140748560e-01
     5925000000   -1.182204485e-01    5.288087577e-02
     5928000000   -1.353046894e-01    1.090047229e-02
     5931000000   -1.240459755e-01   -4.164028540e-02
     5934000000   -1.034135148e-01   -8.745384961e-02
     5937000000   -5.757742003e-02   -1.202425584e-01
     5940000000   -4.878362641e-03   -1.294960678e-01
     5943000000    3.831630573e-02   -1.362792701e-01
     5946000000    8.623345196e-02   -1.152009293e-01
     5949000000    1.236868575e-01   -7.039153576e-02
     5952000000    1.401679516e-01   -2.057724260e-02
     5955000000    1.348049641e-01    3.941559047e-02
     5958000000    1.158139482e-01    8.724735677e-02
     5961000000    8.391653746e-02    1.274712682e-01
     5964000000    1.569647714e-02    1.399523616e-01
     5967000000   -2.970443293e-02    1.493303776e-01
     5970000000   -8.886028826e-02    1.222192645e-01
     5973000000   -1.258233637e-01    7.004525512e-02
     5976000000   -1.614333242e-01    3.834811598e-02
     5979000000   -1.576557308e-01   -2.888501994e-02
     5982000000   -1.377398223e-01   -8.552193642e-02
     5985000000   -9.776566178e-02   -1.326859295e-01
     5988000000   -3.971621394e-02   -1.557335854e-01
     5991000000    2.455102094e-02   -1.597806215e-01
     5994000000    7.770441473e-02   -1.534753740e-01
     5997000000    1.310842186e-01   -1.116433516e-01
     6000000000    1.581326872e-01   -5.431683362e-02
