! NanoVNA-App
! Date: 2026-05-22 17:53:05
! Start: 2.3GHz Stop: 2.6GHz Points: 401
! S-Parameter data: F S11
# Hz S RI R 50
!     Frequency           S11_Real           S11_Imag
     2300000000    3.752161562e-02   -2.978741825e-01
     2300750000    6.555079669e-02   -2.933658659e-01
     2301500000    9.443221986e-02   -2.850395739e-01
     2302250000    1.207497194e-01   -2.744990289e-01
     2303000000    1.479226202e-01   -2.613175511e-01
     2303750000    1.715135872e-01   -2.461245656e-01
     2304500000    1.939697564e-01   -2.295335382e-01
     2305250000    2.149033695e-01   -2.086362243e-01
     2306000000    2.344356179e-01   -1.868338138e-01
     2306750000    2.512407899e-01   -1.650218368e-01
     2307500000    2.656182051e-01   -1.397925019e-01
     2308250000    2.772891521e-01   -1.135813296e-01
     2309000000    2.876093388e-01   -8.840490878e-02
     2309750000    2.946772575e-01   -6.025836244e-02
     2310500000    2.983813584e-01   -3.166688979e-02
     2311250000    2.996713221e-01   -2.327238210e-03
     2312000000    2.994808257e-01    2.371156216e-02
     2312750000    2.942076325e-01    5.344706774e-02
     2313500000    2.907529771e-01    7.915716618e-02
     2314250000    2.815670967e-01    1.064583510e-01
     2315000000    2.697195113e-01    1.328093857e-01
     2315750000    2.554881871e-01    1.582960784e-01
     2316500000    2.379128039e-01    1.817355007e-01
     2317250000    2.198836803e-01    2.030036300e-01
     2318000000    2.019507289e-01    2.231293619e-01
     2318750000    1.769584119e-01    2.411608398e-01
     2319500000    1.538151801e-01    2.563744485e-01
     2320250000    1.291055232e-01    2.694283128e-01
     2321000000    1.026646644e-01    2.806999385e-01
     2321750000    7.392213494e-02    2.882488072e-01
     2322500000    4.582216591e-02    2.942729592e-01
     2323250000    1.836429164e-02    2.967912257e-01
     2324000000   -1.097263582e-02    2.975364923e-01
     2324750000   -4.059390351e-02    2.942955792e-01
     2325500000   -7.020557672e-02    2.881214321e-01
     2326250000   -9.775397182e-02    2.823747993e-01
     2327000000   -1.260569543e-01    2.698593140e-01
     2327750000   -1.502783298e-01    2.598673999e-01
     2328500000   -1.763977408e-01    2.403935492e-01
     2329250000   -1.995721012e-01    2.258354872e-01
     2330000000   -2.201091051e-01    2.092870921e-01
     2330750000   -2.404451966e-01    1.833887845e-01
     2331500000   -2.573609948e-01    1.591774374e-01
     2332250000   -2.727926970e-01    1.399459690e-01
     2333000000   -2.849991024e-01    1.098152176e-01
     2333750000   -2.951110005e-01    8.442299068e-02
     2334500000   -3.022489250e-01    5.588062480e-02
     2335250000   -3.076507449e-01    2.845005691e-02
     2336000000   -3.096269369e-01   -7.295195828e-04
     2336750000   -3.091242313e-01   -2.905574255e-02
     2337500000   -3.055738509e-01   -5.835746229e-02
     2338250000   -2.988947928e-01   -8.675035834e-02
     2339000000   -2.900351584e-01   -1.142958328e-01
     2339750000   -2.782203257e-01   -1.408054084e-01
     2340500000   -2.654182613e-01   -1.659270972e-01
     2341250000   -2.470475733e-01   -1.908377707e-01
     2342000000   -2.300495058e-01   -2.124628574e-01
     2342750000   -2.080899030e-01   -2.331864834e-01
     2343500000   -1.844073087e-01   -2.518665493e-01
     2344250000   -1.617781073e-01   -2.678375244e-01
     2345000000   -1.349087358e-01   -2.813363373e-01
     2345750000   -1.082752496e-01   -2.929071486e-01
     2346500000   -7.860188186e-02   -3.022363484e-01
     2347250000   -5.130044743e-02   -3.088997900e-01
     2348000000   -1.940063015e-02   -3.114588857e-01
     2348750000    1.037329342e-02   -3.129818141e-01
     2349500000    4.125440866e-02   -3.103226423e-01
     2350250000    6.920693815e-02   -3.077529967e-01
     2351000000    1.003216505e-01   -2.973945141e-01
     2351750000    1.281749308e-01   -2.877739072e-01
     2352500000    1.544327587e-01   -2.758681476e-01
     2353250000    1.815633774e-01   -2.606675923e-01
     2354000000    2.069174200e-01   -2.410076559e-01
     2354750000    2.288950682e-01   -2.242345512e-01
     2355500000    2.503179908e-01   -2.034972459e-01
     2356250000    2.694430351e-01   -1.766165048e-01
     2357000000    2.854651213e-01   -1.490374953e-01
     2357750000    3.004176319e-01   -1.243360341e-01
     2358500000    3.128795922e-01   -9.888608754e-02
     2359250000    3.198358715e-01   -6.456357986e-02
     2360000000    3.272130489e-01   -3.803485632e-02
     2360750000    3.304581642e-01   -6.569249090e-03
     2361500000    3.316026032e-01    2.145560272e-02
     2362250000    3.273926675e-01    5.548893288e-02
     2363000000    3.230208755e-01    8.487293869e-02
     2363750000    3.149891794e-01    1.142774820e-01
     2364500000    3.043475747e-01    1.427583545e-01
     2365250000    2.896366119e-01    1.711160690e-01
     2366000000    2.749746442e-01    1.965966970e-01
     2366750000    2.557348311e-01    2.212813795e-01
     2367500000    2.341197580e-01    2.449691445e-01
     2368250000    2.112123519e-01    2.647446692e-01
     2369000000    1.858403832e-01    2.838067412e-01
     2369750000    1.598148942e-01    3.005919755e-01
     2370500000    1.295783520e-01    3.143406808e-01
     2371250000    1.017572209e-01    3.257673085e-01
     2372000000    7.072759420e-02    3.337716758e-01
     2372750000    3.875799850e-02    3.398271501e-01
     2373500000    8.518330753e-03    3.431905806e-01
     2374250000   -2.482692339e-02    3.422114253e-01
     2375000000   -5.771897733e-02    3.386467695e-01
     2375750000   -8.768250048e-02    3.332034647e-01
     2376500000   -1.187184080e-01    3.243540823e-01
     2377250000   -1.514029801e-01    3.109282851e-01
     2378000000   -1.784777939e-01    2.987081409e-01
     2378750000   -2.062837034e-01    2.812327743e-01
     2379500000   -2.333512753e-01    2.591601312e-01
     2380250000   -2.562676668e-01    2.396676838e-01
     2381000000   -2.784970105e-01    2.161995173e-01
     2381750000   -2.981374264e-01    1.885662377e-01
     2382500000   -3.146979809e-01    1.623107046e-01
     2383250000   -3.297780454e-01    1.303195357e-01
     2384000000   -3.413378596e-01    1.017176658e-01
     2384750000   -3.493473232e-01    6.990705431e-02
     2385500000   -3.565384150e-01    3.884930536e-02
     2386250000   -3.600075841e-01    7.615844719e-03
     2387000000   -3.576782048e-01   -2.907668985e-02
     2387750000   -3.545026183e-01   -6.171647087e-02
     2388500000   -3.513049781e-01   -9.119153023e-02
     2389250000   -3.394311965e-01   -1.248923764e-01
     2390000000   -3.260386288e-01   -1.574381143e-01
     2390750000   -3.126507998e-01   -1.870489568e-01
     2391500000   -2.948449552e-01   -2.153229266e-01
     2392250000   -2.756221294e-01   -2.410547882e-01
     2393000000   -2.505523860e-01   -2.672329545e-01
     2393750000   -2.261137813e-01   -2.902776301e-01
     2394500000   -2.014519423e-01   -3.093396127e-01
     2395250000   -1.719155908e-01   -3.281458020e-01
     2396000000   -1.407435983e-01   -3.431878388e-01
     2396750000   -1.081591249e-01   -3.555347919e-01
     2397500000   -7.755034417e-02   -3.653986454e-01
     2398250000   -4.394307733e-02   -3.717432320e-01
     2399000000   -9.452978149e-03   -3.747791946e-01
     2399750000    2.548147179e-02   -3.750193417e-01
     2400500000    5.988279730e-02   -3.721035123e-01
     2401250000    9.373977035e-02   -3.655000031e-01
     2402000000    1.255757511e-01   -3.564826548e-01
     2402750000    1.578383595e-01   -3.447336257e-01
     2403500000    1.892399043e-01   -3.295913339e-01
     2404250000    2.190456241e-01   -3.108214438e-01
     2405000000    2.474368066e-01   -2.892006338e-01
     2405750000    2.732689083e-01   -2.674096525e-01
     2406500000    2.968973815e-01   -2.435917556e-01
     2407250000    3.186408281e-01   -2.141386569e-01
     2408000000    3.378244638e-01   -1.845987290e-01
     2408750000    3.537469804e-01   -1.542055458e-01
     2409500000    3.670430481e-01   -1.206510365e-01
     2410250000    3.773342073e-01   -8.666128665e-02
     2411000000    3.851045370e-01   -5.345350131e-02
     2411750000    3.892405629e-01   -1.888787746e-02
     2412500000    3.905133009e-01    1.721304469e-02
     2413250000    3.874441087e-01    5.252284557e-02
     2414000000    3.821951747e-01    8.716908842e-02
     2414750000    3.736506402e-01    1.224237606e-01
     2415500000    3.615721762e-01    1.557805389e-01
     2416250000    3.463495076e-01    1.879899800e-01
     2417000000    3.282038569e-01    2.193551362e-01
     2417750000    3.080703318e-01    2.480806857e-01
     2418500000    2.847953439e-01    2.759265006e-01
     2419250000    2.587870657e-01    3.012229800e-01
     2420000000    2.313216180e-01    3.233692050e-01
     2420750000    1.999027431e-01    3.438333571e-01
     2421500000    1.699425727e-01    3.614567518e-01
     2422250000    1.366852075e-01    3.760574758e-01
     2423000000    1.021788195e-01    3.878642023e-01
     2423750000    6.780086458e-02    3.969188333e-01
     2424500000    3.121041693e-02    4.014157355e-01
     2425250000   -4.369045608e-03    4.034754336e-01
     2426000000   -4.154547676e-02    4.032973945e-01
     2426750000   -7.791224122e-02    3.982095122e-01
     2427500000   -1.131297722e-01    3.901085854e-01
     2428250000   -1.481678188e-01    3.793718219e-01
     2429000000   -1.818297654e-01    3.654109538e-01
     2429750000   -2.132327557e-01    3.499322832e-01
     2430500000   -2.444790304e-01    3.275888860e-01
     2431250000   -2.725615799e-01    3.063311875e-01
     2432000000   -2.994213998e-01    2.810269892e-01
     2432750000   -3.232786953e-01    2.558884621e-01
     2433500000   -3.452459276e-01    2.240130007e-01
     2434250000   -3.639443517e-01    1.922256052e-01
     2435000000   -3.796649575e-01    1.610231549e-01
     2435750000   -3.934994042e-01    1.280094981e-01
     2436500000   -4.026397765e-01    8.907306939e-02
     2437250000   -4.102715850e-01    5.629565194e-02
     2438000000   -4.130004644e-01    1.855162345e-02
     2438750000   -4.135974646e-01   -1.658087596e-02
     2439500000   -4.085871875e-01   -5.655640736e-02
     2440250000   -4.041266739e-01   -8.948242664e-02
     2441000000   -3.954654634e-01   -1.236731783e-01
     2441750000   -3.812301159e-01   -1.590003073e-01
     2442500000   -3.638798892e-01   -1.938929409e-01
     2443250000   -3.485943675e-01   -2.231204659e-01
     2444000000   -3.268097639e-01   -2.526114285e-01
     2444750000   -3.001367152e-01   -2.821023166e-01
     2445500000   -2.752794027e-01   -3.066308200e-01
     2446250000   -2.473397702e-01   -3.289122880e-01
     2447000000   -2.164213061e-01   -3.492885828e-01
     2447750000   -1.840080172e-01   -3.668895066e-01
     2448500000   -1.515237242e-01   -3.814854324e-01
     2449250000   -1.164320335e-01   -3.927458227e-01
     2450000000   -7.976154983e-02   -4.009065032e-01
     2450750000   -4.571932182e-02   -4.058645368e-01
     2451500000   -8.326579817e-03   -4.069271982e-01
     2452250000    2.822323702e-02   -4.052962363e-01
     2453000000    6.398450583e-02   -4.004683495e-01
     2453750000    9.914372116e-02   -3.921543658e-01
     2454500000    1.333764046e-01   -3.812754452e-01
     2455250000    1.663173735e-01   -3.667050302e-01
     2456000000    1.986845136e-01   -3.497805595e-01
     2456750000    2.291830331e-01   -3.300196230e-01
     2457500000    2.569876313e-01   -3.073580563e-01
     2458250000    2.831565738e-01   -2.820078433e-01
     2459000000    3.072026968e-01   -2.552189827e-01
     2459750000    3.282777965e-01   -2.256024182e-01
     2460500000    3.469250798e-01   -1.948525459e-01
     2461250000    3.620721996e-01   -1.640438586e-01
     2462000000    3.751651645e-01   -1.282429099e-01
     2462750000    3.845581412e-01   -9.580867738e-02
     2463500000    3.909300864e-01   -6.038565189e-02
     2464250000    3.942120373e-01   -2.310239524e-02
     2465000000    3.948257864e-01    9.930784814e-03
     2465750000    3.911902010e-01    4.810223728e-02
     2466500000    3.847176135e-01    8.300575614e-02
     2467250000    3.762471676e-01    1.142172292e-01
     2468000000    3.625223935e-01    1.488528103e-01
     2468750000    3.485663235e-01    1.791712642e-01
     2469500000    3.299054503e-01    2.097911984e-01
     2470250000    3.093673587e-01    2.377215028e-01
     2471000000    2.854068279e-01    2.644270062e-01
     2471750000    2.622838020e-01    2.866980433e-01
     2472500000    2.334887087e-01    3.089603484e-01
     2473250000    2.045544237e-01    3.278920054e-01
     2474000000    1.734618247e-01    3.435506821e-01
     2474750000    1.429564506e-01    3.566112518e-01
     2475500000    1.088480204e-01    3.668330014e-01
     2476250000    7.580960542e-02    3.738671839e-01
     2477000000    4.273271561e-02    3.777957261e-01
     2477750000    6.674243603e-03    3.782182038e-01
     2478500000   -2.616764046e-02    3.767015934e-01
     2479250000   -5.900742114e-02    3.715689778e-01
     2480000000   -9.233627468e-02    3.634991050e-01
     2480750000   -1.250674427e-01    3.522058725e-01
     2481500000   -1.557023823e-01    3.384808004e-01
     2482250000   -1.845107526e-01    3.222719133e-01
     2483000000   -2.120357007e-01    3.037209511e-01
     2483750000   -2.374637127e-01    2.824192941e-01
     2484500000   -2.614350915e-01    2.582474947e-01
     2485250000   -2.822389603e-01    2.332841605e-01
     2486000000   -3.012887537e-01    2.063153982e-01
     2486750000   -3.168915808e-01    1.780087352e-01
     2487500000   -3.299373388e-01    1.486415267e-01
     2488250000   -3.406060934e-01    1.175859272e-01
     2489000000   -3.481106758e-01    8.563721925e-02
     2489750000   -3.530737162e-01    5.340119451e-02
     2490500000   -3.543500602e-01    2.131024003e-02
     2491250000   -3.530007303e-01   -1.037149969e-02
     2492000000   -3.490477502e-01   -4.239810631e-02
     2492750000   -3.414436579e-01   -7.397434115e-02
     2493500000   -3.317929208e-01   -1.028789878e-01
     2494250000   -3.192483783e-01   -1.325109005e-01
     2495000000   -3.037859201e-01   -1.608926356e-01
     2495750000   -2.870699465e-01   -1.863381565e-01
     2496500000   -2.671943903e-01   -2.113182098e-01
     2497250000   -2.450364232e-01   -2.342191190e-01
     2498000000   -2.226123214e-01   -2.528784275e-01
     2498750000   -1.963680685e-01   -2.719688714e-01
     2499500000   -1.712692380e-01   -2.866266370e-01
     2500250000   -1.423597038e-01   -2.994491458e-01
     2501000000   -1.131109744e-01   -3.095782697e-01
     2501750000   -8.527407795e-02   -3.164109588e-01
     2502500000   -5.466993153e-02   -3.210692406e-01
     2503250000   -2.486052178e-02   -3.233414888e-01
     2504000000    4.932736047e-03   -3.221633434e-01
     2504750000    3.506074846e-02   -3.185395598e-01
     2505500000    6.432291865e-02   -3.119606078e-01
     2506250000    9.246592969e-02   -3.028299809e-01
     2507000000    1.198388040e-01   -2.908500731e-01
     2507750000    1.445192844e-01   -2.775981128e-01
     2508500000    1.688229442e-01   -2.618038654e-01
     2509250000    1.924353689e-01   -2.428695858e-01
     2510000000    2.116913646e-01   -2.241203487e-01
     2510750000    2.307063788e-01   -2.016879916e-01
     2511500000    2.463214397e-01   -1.794996262e-01
     2512250000    2.609899938e-01   -1.542561650e-01
     2513000000    2.725512981e-01   -1.291030049e-01
     2513750000    2.810247540e-01   -1.031098291e-01
     2514500000    2.878138721e-01   -7.663720846e-02
     2515250000    2.917883098e-01   -4.850515723e-02
     2516000000    2.929341495e-01   -2.197794430e-02
     2516750000    2.913503051e-01    4.755567759e-03
     2517500000    2.874989510e-01    3.190887719e-02
     2518250000    2.811209559e-01    5.812809989e-02
     2519000000    2.721945345e-01    8.288437873e-02
     2519750000    2.610372901e-01    1.073560938e-01
     2520500000    2.482059449e-01    1.296908855e-01
     2521250000    2.326727659e-01    1.506646574e-01
     2522000000    2.154968083e-01    1.705463380e-01
     2522750000    1.971224695e-01    1.878954917e-01
     2523500000    1.765121371e-01    2.036091089e-01
     2524250000    1.545767039e-01    2.168469280e-01
     2525000000    1.321709007e-01    2.280402333e-01
     2525750000    1.091896519e-01    2.375661880e-01
     2526500000    8.478138596e-02    2.443788350e-01
     2527250000    5.996321514e-02    2.485718578e-01
     2528000000    3.517068550e-02    2.506496012e-01
     2528750000    1.123297494e-02    2.502966821e-01
     2529500000   -1.379571855e-02    2.473339289e-01
     2530250000   -3.704451770e-02    2.422866821e-01
     2531000000   -6.054146960e-02    2.353482544e-01
     2531750000   -8.211780339e-02    2.257340550e-01
     2532500000   -1.033523604e-01    2.142673433e-01
     2533250000   -1.231265515e-01    2.010594010e-01
     2534000000   -1.411243081e-01    1.853570193e-01
     2534750000   -1.572530717e-01    1.688468754e-01
     2535500000   -1.719525754e-01    1.508080363e-01
     2536250000   -1.842295378e-01    1.314037591e-01
     2537000000   -1.945059747e-01    1.112038195e-01
     2537750000   -2.028901726e-01    9.045795351e-02
     2538500000   -2.095100880e-01    6.848359108e-02
     2539250000   -2.128709108e-01    4.682398215e-02
     2540000000   -2.146630436e-01    2.431215532e-02
     2540750000   -2.141191661e-01    2.237962093e-03
     2541500000   -2.111730874e-01   -1.925724000e-02
     2542250000   -2.063778639e-01   -4.095699638e-02
     2543000000   -1.993196011e-01   -6.166047230e-02
     2543750000   -1.907140762e-01   -8.076816797e-02
     2544500000   -1.797503233e-01   -9.910100698e-02
     2545250000   -1.669871062e-01   -1.164655238e-01
     2546000000   -1.528550386e-01   -1.315660030e-01
     2546750000   -1.369345337e-01   -1.459422410e-01
     2547500000   -1.195866168e-01   -1.579634994e-01
     2548250000   -1.012325585e-01   -1.684431434e-01
     2549000000   -8.265975863e-02   -1.771675497e-01
     2549750000   -6.177534908e-02   -1.835393161e-01
     2550500000   -4.209462181e-02   -1.876965910e-01
     2551250000   -2.055700682e-02   -1.898877621e-01
     2552000000   -6.521508330e-04   -1.900639981e-01
     2552750000    2.064265311e-02   -1.881718189e-01
     2553500000    4.144326225e-02   -1.837417781e-01
     2554250000    6.171384081e-02   -1.775663942e-01
     2555000000    8.001044393e-02   -1.695709676e-01
     2555750000    9.886014462e-02   -1.594512463e-01
     2556500000    1.154815480e-01   -1.471050084e-01
     2557250000    1.306995749e-01   -1.339677870e-01
     2558000000    1.451388448e-01   -1.189067736e-01
     2558750000    1.572697610e-01   -1.023460031e-01
     2559500000    1.681917757e-01   -8.386202157e-02
     2560250000    1.770838648e-01   -6.510909647e-02
     2561000000    1.835065931e-01   -4.509994015e-02
     2561750000    1.878065914e-01   -2.444929816e-02
     2562500000    1.901694387e-01   -3.597577801e-03
     2563250000    1.894856542e-01    1.717932709e-02
     2564000000    1.880079210e-01    3.890666366e-02
     2564750000    1.833511740e-01    5.995163694e-02
     2565500000    1.764705628e-01    8.142237365e-02
     2566250000    1.681894362e-01    1.017357558e-01
     2567000000    1.576092392e-01    1.210809126e-01
     2567750000    1.448142976e-01    1.395000517e-01
     2568500000    1.307271421e-01    1.559922546e-01
     2569250000    1.142006591e-01    1.716457307e-01
     2570000000    9.646145254e-02    1.855428666e-01
     2570750000    7.782275975e-02    1.974051893e-01
     2571500000    5.750355497e-02    2.070480436e-01
     2572250000    3.661307693e-02    2.147622705e-01
     2573000000    1.402112748e-02    2.207303792e-01
     2573750000   -8.950321004e-03    2.244702578e-01
     2574500000   -3.155664727e-02    2.251191139e-01
     2575250000   -5.499851704e-02    2.238543481e-01
     2576000000   -7.831590623e-02    2.199162245e-01
     2576750000   -1.006570458e-01    2.134783715e-01
     2577500000   -1.228436381e-01    2.052598894e-01
     2578250000   -1.448240876e-01    1.944137663e-01
     2579000000   -1.649820656e-01    1.807871163e-01
     2579750000   -1.850104779e-01    1.655957103e-01
     2580500000   -2.022520304e-01    1.491960883e-01
     2581250000   -2.190208137e-01    1.293622255e-01
     2582000000   -2.334695756e-01    1.086396053e-01
     2582750000   -2.454222739e-01    8.595697582e-02
     2583500000   -2.563769519e-01    6.227958575e-02
     2584250000   -2.644119263e-01    3.773276880e-02
     2585000000   -2.696178854e-01    1.161424536e-02
     2585750000   -2.734901905e-01   -1.492508966e-02
     2586500000   -2.741849124e-01   -4.159402847e-02
     2587250000   -2.728622258e-01   -6.860110164e-02
     2588000000   -2.683340907e-01   -9.510321915e-02
     2588750000   -2.611355782e-01   -1.220810264e-01
     2589500000   -2.509064376e-01   -1.476439834e-01
     2590250000   -2.388717085e-01   -1.724701226e-01
     2591000000   -2.236232758e-01   -1.972168833e-01
     2591750000   -2.078939825e-01   -2.192182392e-01
     2592500000   -1.872431934e-01   -2.404306829e-01
     2593250000   -1.662154049e-01   -2.595967054e-01
     2594000000   -1.408104151e-01   -2.778349519e-01
     2594750000   -1.175642088e-01   -2.926463187e-01
     2595500000   -8.868118376e-02   -3.054656088e-01
     2596250000   -6.148072332e-02   -3.165714443e-01
     2597000000   -3.138644993e-02   -3.235994279e-01
     2597750000   -1.046276651e-03   -3.292146027e-01
     2598500000    2.890002541e-02   -3.328547776e-01
     2599250000    6.120301411e-02   -3.316192031e-01
     2600000000    9.259761870e-02   -3.287704587e-01
