! NanoVNA-App
! Date: 2026-05-22 17:51:54
! Start: 4.8GHz Stop: 6GHz Points: 401
! S-Parameter data: F S11
# Hz S RI R 50
!     Frequency           S11_Real           S11_Imag
     4800000000    2.536457777e-01   -1.351986080e-01
     4803000000    2.854384184e-01   -3.850195557e-02
     4806000000    2.793169916e-01    6.252370775e-02
     4809000000    2.384613454e-01    1.563426852e-01
     4812000000    1.652669162e-01    2.296132147e-01
     4815000000    7.326528430e-02    2.739917040e-01
     4818000000   -2.882780135e-02    2.812013626e-01
     4821000000   -1.262543947e-01    2.534509003e-01
     4824000000   -2.059825808e-01    1.919040233e-01
     4827000000   -2.604565322e-01    1.053805724e-01
     4830000000   -2.803776562e-01    6.997346412e-03
     4833000000   -2.626977265e-01   -9.303044528e-02
     4836000000   -2.134257853e-01   -1.810554266e-01
     4839000000   -1.360619515e-01   -2.455761135e-01
     4842000000   -3.949655220e-02   -2.772952020e-01
     4845000000    6.073430553e-02   -2.722162604e-01
     4848000000    1.527089626e-01   -2.320483327e-01
     4851000000    2.262174338e-01   -1.634208560e-01
     4854000000    2.674011290e-01   -7.252257317e-02
     4857000000    2.787958682e-01    2.696638182e-02
     4860000000    2.506287694e-01    1.218312234e-01
     4863000000    1.911356449e-01    2.018843591e-01
     4866000000    1.098382697e-01    2.584535182e-01
     4869000000    1.193705108e-02    2.708125114e-01
     4872000000   -8.532153070e-02    2.611675262e-01
     4875000000   -1.682352275e-01    2.103396803e-01
     4878000000   -2.327705622e-01    1.372924447e-01
     4881000000   -2.616604865e-01    4.699757323e-02
     4884000000   -2.635618448e-01   -4.855557904e-02
     4887000000   -2.245764285e-01   -1.356058270e-01
     4890000000   -1.604148597e-01   -2.016338259e-01
     4893000000   -7.882813364e-02   -2.493633777e-01
     4896000000    1.219922025e-02   -2.486676425e-01
     4899000000    1.027252525e-01   -2.336420715e-01
     4902000000    1.750196517e-01   -1.750271767e-01
     4905000000    2.236463726e-01   -1.000101715e-01
     4908000000    2.426268011e-01   -1.336088125e-02
     4911000000    2.313378900e-01    7.327049226e-02
     4914000000    1.867865473e-01    1.473197639e-01
     4917000000    1.225336120e-01    2.038045079e-01
     4920000000    4.217619076e-02    2.301518321e-01
     4923000000   -4.288711399e-02    2.318467945e-01
     4926000000   -1.187311262e-01    1.945287883e-01
     4929000000   -1.737890542e-01    1.391842365e-01
     4932000000   -2.135173231e-01    6.706446409e-02
     4935000000   -2.171867639e-01   -1.205700636e-02
     4938000000   -1.953789294e-01   -8.575943112e-02
     4941000000   -1.478363127e-01   -1.451351643e-01
     4944000000   -8.417750895e-02   -1.857387573e-01
     4947000000   -1.361850183e-02   -2.027696073e-01
     4950000000    5.953126773e-02   -1.850819290e-01
     4953000000    1.188632920e-01   -1.509035528e-01
     4956000000    1.573221087e-01   -9.675754607e-02
     4959000000    1.865978092e-01   -3.087148257e-02
     4962000000    1.751995087e-01    3.604789078e-02
     4965000000    1.485028565e-01    9.631641954e-02
     4968000000    1.022913381e-01    1.407299787e-01
     4971000000    4.336882383e-02    1.638183743e-01
     4974000000   -1.647805050e-02    1.655390263e-01
     4977000000   -7.500254363e-02    1.455217749e-01
     4980000000   -1.186404303e-01    1.082804874e-01
     4983000000   -1.463239640e-01    5.824548379e-02
     4986000000   -1.498500407e-01    2.896869322e-03
     4989000000   -1.385211945e-01   -5.203022435e-02
     4992000000   -1.032538339e-01   -8.900821954e-02
     4995000000   -6.465441734e-02   -1.196420044e-01
     4998000000   -1.654945128e-02   -1.259429455e-01
     5001000000    3.334970772e-02   -1.204552054e-01
     5004000000    6.986006349e-02   -9.684265405e-02
     5007000000    9.473332018e-02   -6.244691089e-02
     5010000000    1.005765572e-01   -2.295758016e-02
     5013000000    1.017637551e-01    2.011750452e-02
     5016000000    8.292850852e-02    5.519438908e-02
     5019000000    5.002697930e-02    6.521972269e-02
     5022000000    1.875823550e-02    8.215829730e-02
     5025000000   -1.621506363e-02    8.245083690e-02
     5028000000   -3.790228814e-02    6.057684124e-02
     5031000000   -6.165058166e-02    3.988164291e-02
     5034000000   -6.243274361e-02    1.068279520e-02
     5037000000   -6.063645706e-02   -1.643292978e-02
     5040000000   -4.213082045e-02   -3.807768598e-02
     5043000000   -2.048988454e-02   -4.955809191e-02
     5046000000    3.941593226e-03   -5.066381022e-02
     5049000000    2.614812739e-02   -4.437369481e-02
     5052000000    4.339132831e-02   -2.658583783e-02
     5055000000    4.875663295e-02   -3.749633208e-03
     5058000000    4.753461480e-02    1.802507602e-02
     5061000000    3.032779694e-02    3.661666065e-02
     5064000000    1.004440896e-02    4.754769430e-02
     5067000000   -1.139409468e-02    5.501115322e-02
     5070000000   -3.622225299e-02    3.860531375e-02
     5073000000   -5.409597978e-02    2.202713303e-02
     5076000000   -6.075871363e-02   -6.735733245e-03
     5079000000   -6.041251868e-02   -3.129251674e-02
     5082000000   -4.806836322e-02   -5.839687213e-02
     5085000000   -2.393418737e-02   -7.780457288e-02
     5088000000    1.000497863e-02   -8.438017219e-02
     5091000000    4.215209186e-02   -8.022154868e-02
     5094000000    7.176188380e-02   -5.917115137e-02
     5097000000    9.385221452e-02   -3.237714991e-02
     5100000000    1.034860685e-01    5.081146955e-03
     5103000000    9.553148597e-02    4.548536986e-02
     5106000000    7.356830686e-02    8.308517933e-02
     5109000000    4.300592840e-02    1.115545407e-01
     5112000000   -3.274805611e-03    1.220313907e-01
     5115000000   -4.777877405e-02    1.211874932e-01
     5118000000   -9.141936898e-02    9.704240412e-02
     5121000000   -1.265095025e-01    6.351161748e-02
     5124000000   -1.420978159e-01    1.219900884e-02
     5127000000   -1.443132013e-01   -3.922665492e-02
     5130000000   -1.181758866e-01   -9.060449898e-02
     5133000000   -9.004513174e-02   -1.342698336e-01
     5136000000   -3.231038153e-02   -1.555211097e-01
     5139000000    2.897387370e-02   -1.573481262e-01
     5142000000    8.535141498e-02   -1.444213986e-01
     5145000000    1.347107887e-01   -1.046051979e-01
     5148000000    1.668844819e-01   -5.216941237e-02
     5151000000    1.786012948e-01    1.157114841e-02
     5154000000    1.673891246e-01    7.415906340e-02
     5157000000    1.293872595e-01    1.307536513e-01
     5160000000    7.620813698e-02    1.726275086e-01
     5163000000    1.224112604e-02    1.927604824e-01
     5166000000   -5.822025985e-02    1.850378513e-01
     5169000000   -1.213600412e-01    1.548845917e-01
     5172000000   -1.699216813e-01    1.020685211e-01
     5175000000   -1.951183826e-01    3.356308490e-02
     5178000000   -2.048743963e-01   -4.023421928e-02
     5181000000   -1.751521826e-01   -1.082627624e-01
     5184000000   -1.228949353e-01   -1.621707082e-01
     5187000000   -5.817127600e-02   -2.038526833e-01
     5190000000    2.052993886e-02   -2.103714198e-01
     5193000000    9.369154274e-02   -1.919030845e-01
     5196000000    1.547347158e-01   -1.471527517e-01
     5199000000    2.013670206e-01   -8.141339570e-02
     5202000000    2.280376703e-01   -5.809725262e-03
     5205000000    2.107412517e-01    7.251366973e-02
     5208000000    1.699153185e-01    1.438609809e-01
     5211000000    1.077921242e-01    1.978027225e-01
     5214000000    2.922354080e-02    2.337042391e-01
     5217000000   -5.480403453e-02    2.284583896e-01
     5220000000   -1.269267350e-01    1.900062561e-01
     5223000000   -1.920100898e-01    1.353325397e-01
     5226000000   -2.235272676e-01    5.744525418e-02
     5229000000   -2.329168618e-01   -2.534689009e-02
     5232000000   -2.075304687e-01   -1.074126512e-01
     5235000000   -1.569613963e-01   -1.772569716e-01
     5238000000   -8.156353980e-02   -2.203660011e-01
     5241000000    4.070351366e-03   -2.389944196e-01
     5244000000    8.911795169e-02   -2.221110165e-01
     5247000000    1.578460634e-01   -1.755044311e-01
     5250000000    2.106999159e-01   -1.056048274e-01
     5253000000    2.367916107e-01   -2.391475998e-02
     5256000000    2.271479815e-01    6.159102917e-02
     5259000000    1.946562678e-01    1.476012319e-01
     5262000000    1.254662573e-01    2.001298666e-01
     5265000000    4.013507813e-02    2.468769848e-01
     5268000000   -4.475986958e-02    2.384950519e-01
     5271000000   -1.188726723e-01    2.025303245e-01
     5274000000   -1.982834041e-01    1.479492337e-01
     5277000000   -2.330455780e-01    7.062515616e-02
     5280000000   -2.495695651e-01   -2.313238755e-02
     5283000000   -2.232028544e-01   -1.098004654e-01
     5286000000   -1.680303812e-01   -1.718409508e-01
     5289000000   -9.248169512e-02   -2.271497697e-01
     5292000000   -2.905219328e-03   -2.446257472e-01
     5295000000    8.414304256e-02   -2.299346924e-01
     5298000000    1.629532725e-01   -1.863253415e-01
     5301000000    2.199930996e-01   -1.147107631e-01
     5304000000    2.461989969e-01   -2.838255465e-02
     5307000000    2.383334041e-01    5.758276209e-02
     5310000000    2.014989853e-01    1.379206181e-01
     5313000000    1.372503191e-01    1.997099072e-01
     5316000000    5.593769252e-02    2.334471345e-01
     5319000000   -3.550757840e-02    2.374354750e-01
     5322000000   -1.152925864e-01    2.060368657e-01
     5325000000   -1.824088544e-01    1.501179338e-01
     5328000000   -2.212596238e-01    7.055228204e-02
     5331000000   -2.323427945e-01   -1.370727550e-02
     5334000000   -2.103604078e-01   -9.936919808e-02
     5337000000   -1.607727259e-01   -1.663471907e-01
     5340000000   -8.912055194e-02   -2.128960937e-01
     5343000000   -5.725912284e-03   -2.259979993e-01
     5346000000    8.169122785e-02   -2.122086585e-01
     5349000000    1.480860561e-01   -1.673078686e-01
     5352000000    1.970533431e-01   -1.022162065e-01
     5355000000    2.188302428e-01   -2.388839424e-02
     5358000000    2.128089517e-01    5.746541545e-02
     5361000000    1.761085838e-01    1.484391391e-01
     5364000000    1.170645729e-01    1.814366579e-01
     5367000000    3.723370656e-02    2.191630751e-01
     5370000000   -2.796186879e-02    2.019992620e-01
     5373000000   -1.100085005e-01    1.775484532e-01
     5376000000   -1.888739765e-01    1.236037463e-01
     5379000000   -2.037498504e-01    5.085974187e-02
     5382000000   -1.983348876e-01   -1.018238068e-02
     5385000000   -1.798329651e-01   -1.014528126e-01
     5388000000   -1.295515597e-01   -1.583187729e-01
     5391000000   -6.338842958e-02   -2.005344033e-01
     5394000000    9.696097113e-03   -1.986116618e-01
     5397000000    8.997038752e-02   -1.788217872e-01
     5400000000    1.404687613e-01   -1.329328716e-01
     5403000000    1.865657419e-01   -6.396533549e-02
     5406000000    1.925077885e-01    3.485713620e-03
     5409000000    1.745988429e-01    7.561007142e-02
     5412000000    1.321826428e-01    1.303249598e-01
     5415000000    7.138980180e-02    1.773281693e-01
     5418000000   -5.108070327e-04    1.863385737e-01
     5421000000   -6.800255179e-02    1.720933020e-01
     5424000000   -1.344530433e-01    1.334981620e-01
     5427000000   -1.592021883e-01    8.352480084e-02
     5430000000   -1.878299713e-01   -6.442487938e-04
     5433000000   -1.718359441e-01   -6.085905060e-02
     5436000000   -1.342082918e-01   -1.174316406e-01
     5439000000   -8.905819803e-02   -1.463127434e-01
     5442000000   -1.845610677e-03   -1.837843508e-01
     5445000000    4.302725568e-02   -1.643986702e-01
     5448000000    1.236321330e-01   -1.304804981e-01
     5451000000    1.545329243e-01   -7.757387310e-02
     5454000000    1.711990088e-01   -1.165033318e-02
     5457000000    1.622865051e-01    5.465651304e-02
     5460000000    1.286081225e-01    1.175372377e-01
     5463000000    7.051686943e-02    1.669280082e-01
     5466000000    8.184729144e-03    1.785114557e-01
     5469000000   -5.049363524e-02    1.671470553e-01
     5472000000   -1.244423389e-01    1.346010268e-01
     5475000000   -1.576825231e-01    8.416740596e-02
     5478000000   -1.833474487e-01    9.669721127e-03
     5481000000   -1.694935113e-01   -4.694275931e-02
     5484000000   -1.386709511e-01   -1.119661033e-01
     5487000000   -8.173601329e-02   -1.627055556e-01
     5490000000   -2.066601254e-02   -1.750139594e-01
     5493000000    5.298513547e-02   -1.750875413e-01
     5496000000    1.193057746e-01   -1.444044560e-01
     5499000000    1.734166443e-01   -8.423673362e-02
     5502000000    1.866026074e-01   -1.998088136e-02
     5505000000    1.852022111e-01    6.133164093e-02
     5508000000    1.503387392e-01    1.013227478e-01
     5511000000    9.070562571e-02    1.769772172e-01
     5514000000    2.098713815e-02    1.981156766e-01
     5517000000   -5.372138694e-02    1.936317980e-01
     5520000000   -1.320845783e-01    1.592395455e-01
     5523000000   -1.725506037e-01    1.101653203e-01
     5526000000   -2.036568671e-01    3.868683055e-02
     5529000000   -2.115026265e-01   -6.115716696e-02
     5532000000   -1.782764643e-01   -1.098242924e-01
     5535000000   -1.173311099e-01   -1.910581738e-01
     5538000000   -5.263195559e-02   -2.102921754e-01
     5541000000    4.365453124e-02   -2.241165787e-01
     5544000000    1.214752197e-01   -1.953591406e-01
     5547000000    1.988904029e-01   -1.339127421e-01
     5550000000    2.234141082e-01   -6.485836953e-02
     5553000000    2.329536378e-01    2.310180664e-02
     5556000000    2.120264471e-01    1.154055148e-01
     5559000000    1.593258083e-01    1.845100522e-01
     5562000000    9.345235676e-02    2.196922600e-01
     5565000000   -1.656479575e-02    2.507637441e-01
     5568000000   -1.050042138e-01    2.310779840e-01
     5571000000   -1.929931045e-01    1.767871976e-01
     5574000000   -2.410817891e-01    1.048111692e-01
     5577000000   -2.659761012e-01    9.484608658e-03
     5580000000   -2.582948506e-01   -9.576998651e-02
     5583000000   -2.085999697e-01   -1.903841794e-01
     5586000000   -1.318087578e-01   -2.535481751e-01
     5589000000   -5.114328489e-02   -2.777517438e-01
     5592000000    7.635761052e-02   -2.830350697e-01
     5595000000    1.673124433e-01   -2.423928976e-01
     5598000000    2.375110388e-01   -1.714270413e-01
     5601000000    2.891052067e-01   -6.733902544e-02
     5604000000    2.948947251e-01    2.730201744e-02
     5607000000    2.637238204e-01    1.460668743e-01
     5610000000    1.998237222e-01    2.297367752e-01
     5613000000    1.004847139e-01    2.908581197e-01
     5616000000   -9.212232195e-03    3.087815344e-01
     5619000000   -1.111482829e-01    2.888842225e-01
     5622000000   -2.240999490e-01    2.215801477e-01
     5625000000   -2.846806943e-01    1.346074492e-01
     5628000000   -3.151422143e-01    2.578062005e-02
     5631000000   -3.038525283e-01   -8.699396998e-02
     5634000000   -2.579215765e-01   -1.812662333e-01
     5637000000   -1.620922536e-01   -2.723895609e-01
     5640000000   -9.049378335e-02   -3.023537099e-01
     5643000000    4.292065278e-02   -3.140079379e-01
     5646000000    1.531497687e-01   -2.768803835e-01
     5649000000    2.486252338e-01   -1.968859732e-01
     5652000000    3.026566803e-01   -9.711763263e-02
     5655000000    3.182078898e-01    5.681080278e-03
     5658000000    2.914381921e-01    1.222758591e-01
     5661000000    2.241159976e-01    2.223553807e-01
     5664000000    1.415843368e-01    2.830906212e-01
     5667000000    1.512636989e-02    3.125551641e-01
     5670000000   -8.249019086e-02    3.028416932e-01
     5673000000   -1.894373149e-01    2.448227108e-01
     5676000000   -2.623589933e-01    1.678863764e-01
     5679000000   -3.023470938e-01    5.225156993e-02
     5682000000   -3.039574921e-01   -5.550825596e-02
     5685000000   -2.671139240e-01   -1.504682451e-01
     5688000000   -1.809332520e-01   -2.424000949e-01
     5691000000   -8.866952360e-02   -2.901193798e-01
     5694000000    9.252875112e-03   -3.019238412e-01
     5697000000    1.304771900e-01   -2.659028471e-01
     5700000000    2.114510238e-01   -2.093466818e-01
     5703000000    2.695119679e-01   -1.207152680e-01
     5706000000    2.943523228e-01   -2.800022066e-02
     5709000000    2.668883801e-01    9.824075550e-02
     5712000000    2.266855091e-01    1.741506457e-01
     5715000000    1.407760084e-01    2.395771444e-01
     5718000000    5.932355300e-02    2.750807405e-01
     5721000000   -5.509564653e-02    2.664224505e-01
     5724000000   -1.462365985e-01    2.238378227e-01
     5727000000   -2.153337747e-01    1.566681117e-01
     5730000000   -2.525004148e-01    6.397867948e-02
     5733000000   -2.631284595e-01   -1.551809534e-02
     5736000000   -2.310470194e-01   -1.138790622e-01
     5739000000   -1.668411940e-01   -1.850135177e-01
     5742000000   -8.815871179e-02   -2.273611277e-01
     5745000000    3.403952578e-04   -2.424977571e-01
     5748000000    9.546704590e-02   -2.127635777e-01
     5751000000    1.580909193e-01   -1.815771759e-01
     5754000000    2.073524147e-01   -8.609055728e-02
     5757000000    2.228620350e-01   -7.137231994e-03
     5760000000    2.174214274e-01    6.440535933e-02
     5763000000    1.838788390e-01    1.354317516e-01
     5766000000    1.026477516e-01    1.857309788e-01
     5769000000    4.791728035e-02    2.187850624e-01
     5772000000   -4.408948869e-02    2.033791095e-01
     5775000000   -1.134232730e-01    1.704249680e-01
     5778000000   -1.636575162e-01    1.206342578e-01
     5781000000   -1.852562577e-01    3.291178122e-02
     5784000000   -1.911133677e-01   -3.120288998e-02
     5787000000   -1.622228473e-01   -9.822721779e-02
     5790000000   -1.086347476e-01   -1.462729871e-01
     5793000000   -4.008270428e-02   -1.727185100e-01
     5796000000    1.618366130e-02   -1.815684587e-01
     5799000000    8.661840111e-02   -1.489300430e-01
     5802000000    1.324160844e-01   -1.066424847e-01
     5805000000    1.622258276e-01   -5.538805947e-02
     5808000000    1.635133326e-01    1.600365154e-02
     5811000000    1.431512982e-01    7.661627978e-02
     5814000000    9.156499803e-02    1.235833168e-01
     5817000000    5.324231088e-02    1.543650627e-01
     5820000000   -1.216211170e-02    1.589786410e-01
     5823000000   -7.067603618e-02    1.413971782e-01
     5826000000   -1.161289960e-01    9.959855676e-02
     5829000000   -1.435299069e-01    6.256648898e-02
     5832000000   -1.466929317e-01   -4.030603450e-03
     5835000000   -1.342481673e-01   -5.687178299e-02
     5838000000   -9.713821113e-02   -1.030697972e-01
     5841000000   -5.155589432e-02   -1.306103319e-01
     5844000000   -6.327135488e-03   -1.459800452e-01
     5847000000    5.428156257e-02   -1.253464818e-01
     5850000000    9.646533430e-02   -8.747408539e-02
     5853000000    1.254694313e-01   -5.477482453e-02
     5856000000    1.362246424e-01   -4.470421933e-03
     5859000000    1.155838743e-01    5.061402172e-02
     5862000000    8.725497127e-02    9.096278995e-02
     5865000000    4.769021273e-02    1.161583588e-01
     5868000000    1.790776878e-04    1.245615110e-01
     5871000000   -4.645094648e-02    1.149189249e-01
     5874000000   -8.870176971e-02    8.479273319e-02
     5877000000   -1.112110019e-01    3.915792704e-02
     5880000000   -1.208981872e-01   -9.514334961e-04
     5883000000   -1.048583388e-01   -5.235549062e-02
     5886000000   -8.131986111e-02   -8.942279965e-02
     5889000000   -4.280692711e-02   -1.151002049e-01
     5892000000    1.177013572e-02   -1.152745783e-01
     5895000000    4.586349428e-02   -1.208335757e-01
     5898000000    8.940719813e-02   -6.889323890e-02
     5901000000    1.172122732e-01   -4.474033788e-02
     5904000000    1.243539676e-01    5.442080088e-03
     5907000000    1.140626445e-01    5.319637805e-02
     5910000000    7.199110836e-02    9.266919643e-02
     5913000000    3.496883437e-02    1.174426675e-01
     5916000000   -8.521815762e-03    1.256545931e-01
     5919000000   -6.143413857e-02    1.105723232e-01
     5922000000   -1.003883481e-01    6.770644337e-02
     5925000000   -1.236573979e-01    3.510901704e-02
     5928000000   -1.333538592e-01   -1.362685207e-02
     5931000000   -1.196046546e-01   -6.274984777e-02
     5934000000   -9.017786384e-02   -1.047190502e-01
     5937000000   -3.533311561e-02   -1.292510331e-01
     5940000000    6.020287517e-03   -1.415468752e-01
     5943000000    6.388039142e-02   -1.213911399e-01
     5946000000    1.045387164e-01   -9.196880460e-02
     5949000000    1.351390928e-01   -4.881455377e-02
     5952000000    1.477719247e-01    4.444333725e-03
     5955000000    1.350142956e-01    5.891696736e-02
     5958000000    1.019676700e-01    1.082040817e-01
     5961000000    6.571169198e-02    1.414158493e-01
     5964000000    6.355589721e-03    1.540276408e-01
     5967000000   -5.698304251e-02    1.386864483e-01
     5970000000   -1.049705744e-01    1.122763604e-01
     5973000000   -1.378476471e-01    6.206365302e-02
     5976000000   -1.625865996e-01    1.905190572e-02
     5979000000   -1.363194883e-01   -5.785595998e-02
     5982000000   -1.401588470e-01   -1.015990153e-01
     5985000000   -5.873799697e-02   -1.378752738e-01
     5988000000   -2.089687437e-02   -1.675768942e-01
     5991000000    4.585082084e-02   -1.604719311e-01
     5994000000    1.008852124e-01   -1.353773028e-01
     5997000000    1.464512050e-01   -9.019111097e-02
     6000000000    1.615642756e-01   -2.226863615e-02
