! NanoVNA-App
! Date: 2026-05-22 17:53:23
! Start: 4.8GHz Stop: 6GHz Points: 401
! S-Parameter data: F S11
# Hz S RI R 50
!     Frequency           S11_Real           S11_Imag
     4800000000    1.829628497e-01   -2.110792547e-01
     4803000000    2.444458753e-01   -1.359934211e-01
     4806000000    2.780942917e-01   -4.174206778e-02
     4809000000    2.743158638e-01    5.715984106e-02
     4812000000    2.333191484e-01    1.475620270e-01
     4815000000    1.667169929e-01    2.245099843e-01
     4818000000    7.709066570e-02    2.676995695e-01
     4821000000   -2.088703215e-02    2.771728635e-01
     4824000000   -1.173402518e-01    2.529226243e-01
     4827000000   -1.992671490e-01    1.946982741e-01
     4830000000   -2.542012930e-01    1.131315455e-01
     4833000000   -2.787848711e-01    1.507562213e-02
     4836000000   -2.652859986e-01   -8.339945227e-02
     4839000000   -2.182966918e-01   -1.705380082e-01
     4842000000   -1.452231854e-01   -2.359171361e-01
     4845000000   -5.353996158e-02   -2.704778016e-01
     4848000000    4.617979750e-02   -2.715745866e-01
     4851000000    1.373255402e-01   -2.366112918e-01
     4854000000    2.120260149e-01   -1.707570553e-01
     4857000000    2.571713924e-01   -8.507053554e-02
     4860000000    2.732830644e-01    1.409497950e-02
     4863000000    2.483642548e-01    1.079493165e-01
     4866000000    1.952831000e-01    1.909058243e-01
     4869000000    1.137821153e-01    2.459828854e-01
     4872000000    2.141448110e-02    2.706125379e-01
     4875000000   -7.463030517e-02    2.602069974e-01
     4878000000   -1.586975753e-01    2.162885964e-01
     4881000000   -2.284028679e-01    1.482528299e-01
     4884000000   -2.623196840e-01    6.078471616e-02
     4887000000   -2.620804012e-01   -3.351262212e-02
     4890000000   -2.324155867e-01   -1.234580576e-01
     4893000000   -1.740989387e-01   -1.966934949e-01
     4896000000   -9.387896955e-02   -2.440797985e-01
     4899000000   -2.941157669e-03   -2.630668283e-01
     4902000000    8.482446522e-02   -2.426788658e-01
     4905000000    1.644389480e-01   -1.978734434e-01
     4908000000    2.223214656e-01   -1.277005523e-01
     4911000000    2.496996075e-01   -4.126999900e-02
     4914000000    2.409687787e-01    4.181212559e-02
     4917000000    2.107235044e-01    1.256204695e-01
     4920000000    1.485447139e-01    1.827336848e-01
     4923000000    7.134468108e-02    2.258773446e-01
     4926000000   -1.105988491e-02    2.280713022e-01
     4929000000   -9.179165214e-02    2.080954909e-01
     4932000000   -1.620086581e-01    1.623746455e-01
     4935000000   -2.040346116e-01    9.387335926e-02
     4938000000   -2.122043222e-01    2.425693162e-02
     4941000000   -2.137722969e-01   -6.336154044e-02
     4944000000   -1.748482436e-01   -1.247434467e-01
     4947000000   -1.214592829e-01   -1.831265837e-01
     4950000000   -5.166825280e-02   -1.980509460e-01
     4953000000    2.290055715e-02   -2.051659077e-01
     4956000000    8.737428486e-02   -1.782535762e-01
     4959000000    1.366414130e-01   -1.355802864e-01
     4962000000    1.730499715e-01   -7.836338133e-02
     4965000000    1.863637567e-01   -1.095967181e-02
     4968000000    1.745636314e-01    5.257444456e-02
     4971000000    1.410630643e-01    1.054897308e-01
     4974000000    9.207772464e-02    1.450385749e-01
     4977000000    3.345472366e-02    1.645928025e-01
     4980000000   -2.099747583e-02    1.583741754e-01
     4983000000   -7.392664999e-02    1.392836869e-01
     4986000000   -1.108179688e-01    1.016350314e-01
     4989000000   -1.355399191e-01    5.455113575e-02
     4992000000   -1.440849602e-01    4.580217064e-04
     4995000000   -1.285880953e-01   -4.354728386e-02
     4998000000   -1.025919691e-01   -8.307214826e-02
     5001000000   -6.368406117e-02   -1.078661457e-01
     5004000000   -2.257121913e-02   -1.190030500e-01
     5007000000    1.425068546e-02   -1.141539812e-01
     5010000000    5.439307541e-02   -9.752714634e-02
     5013000000    7.514839619e-02   -7.391273230e-02
     5016000000    9.829074144e-02   -3.468780220e-02
     5019000000    9.173703194e-02   -9.789698757e-03
     5022000000    8.738774806e-02    2.670353837e-02
     5025000000    7.192262262e-02    4.615684599e-02
     5028000000    4.721457139e-02    6.577256322e-02
     5031000000    2.466176637e-02    6.915955245e-02
     5034000000    5.041888449e-03    6.596726924e-02
     5037000000   -1.351169031e-02    5.898900703e-02
     5040000000   -2.838450484e-02    4.586169496e-02
     5043000000   -3.858188540e-02    2.530260757e-02
     5046000000   -3.677649051e-02    1.858253591e-02
     5049000000   -3.414433822e-02    3.477409016e-03
     5052000000   -2.932874672e-02   -4.928775132e-03
     5055000000   -2.789739892e-02   -4.899230786e-03
     5058000000   -1.789988577e-02   -1.213222183e-02
     5061000000   -1.695510000e-02   -1.311140787e-02
     5064000000   -1.525159460e-02   -1.469628140e-02
     5067000000   -1.729599200e-02   -1.889878139e-02
     5070000000   -1.451490447e-02   -2.277972177e-02
     5073000000   -1.427520905e-02   -2.807245590e-02
     5076000000   -9.373332374e-03   -3.188437223e-02
     5079000000    1.368210535e-03   -4.414306581e-02
     5082000000    1.351695601e-02   -4.857397079e-02
     5085000000    2.864050865e-02   -4.751370102e-02
     5088000000    4.346372187e-02   -4.165630043e-02
     5091000000    5.762065947e-02   -3.194056451e-02
     5094000000    7.122192532e-02   -7.283317856e-03
     5097000000    7.303467393e-02    1.401336305e-02
     5100000000    6.857638061e-02    3.778958693e-02
     5103000000    5.709028617e-02    6.252917647e-02
     5106000000    3.169689327e-02    8.212822676e-02
     5109000000    1.754163299e-03    9.333724529e-02
     5112000000   -3.077157028e-02    9.548986703e-02
     5115000000   -6.487779319e-02    8.188579977e-02
     5118000000   -9.267448634e-02    6.701514125e-02
     5121000000   -1.116597950e-01    2.255128510e-02
     5124000000   -1.205671877e-01   -1.027522143e-02
     5127000000   -1.153048649e-01   -5.276427791e-02
     5130000000   -9.403543174e-02   -8.962395787e-02
     5133000000   -5.709978938e-02   -1.194094270e-01
     5136000000   -1.557367761e-02   -1.370317638e-01
     5139000000    3.757439554e-02   -1.311371177e-01
     5142000000    8.137965947e-02   -1.140007675e-01
     5145000000    1.234572604e-01   -8.450828493e-02
     5148000000    1.469031423e-01   -3.444139287e-02
     5151000000    1.582140028e-01    1.586812921e-02
     5154000000    1.436571628e-01    7.125022262e-02
     5157000000    1.130916625e-01    1.198074073e-01
     5160000000    6.620958447e-02    1.541795284e-01
     5163000000    6.597822066e-03    1.689096242e-01
     5166000000   -5.227017775e-02    1.640663594e-01
     5169000000   -1.051454395e-01    1.356477886e-01
     5172000000   -1.529469788e-01    9.478568286e-02
     5175000000   -1.727461964e-01    3.269552067e-02
     5178000000   -1.798590571e-01   -3.149787709e-02
     5181000000   -1.535068601e-01   -9.307224303e-02
     5184000000   -1.237020195e-01   -1.524212509e-01
     5187000000   -5.535946786e-02   -1.745544672e-01
     5190000000    1.038062945e-02   -2.009179145e-01
     5193000000    7.451870292e-02   -1.794494987e-01
     5196000000    1.448614597e-01   -1.548125744e-01
     5199000000    1.810831428e-01   -9.343105555e-02
     5202000000    1.986072212e-01   -2.440906130e-02
     5205000000    2.107138485e-01    5.143900961e-02
     5208000000    1.741402298e-01    1.191139817e-01
     5211000000    1.209849641e-01    1.705801189e-01
     5214000000    5.369468778e-02    2.055690885e-01
     5217000000   -2.442650497e-02    2.146670520e-01
     5220000000   -9.480731189e-02    1.885482669e-01
     5223000000   -1.598021984e-01    1.472906172e-01
     5226000000   -2.030365318e-01    8.296845108e-02
     5229000000   -2.212011218e-01    8.512944914e-03
     5232000000   -2.111347169e-01   -6.757933646e-02
     5235000000   -1.749903262e-01   -1.391084194e-01
     5238000000   -1.155017465e-01   -1.928650737e-01
     5241000000   -4.084444419e-02   -2.210592628e-01
     5244000000    3.658839315e-02   -2.180152684e-01
     5247000000    1.114812195e-01   -1.908060014e-01
     5250000000    1.736868471e-01   -1.411528587e-01
     5253000000    2.114174515e-01   -7.239848375e-02
     5256000000    2.241918445e-01    7.406588178e-03
     5259000000    2.063813061e-01    8.669072390e-02
     5262000000    1.601053029e-01    1.474632025e-01
     5265000000    9.571879357e-02    1.981780082e-01
     5268000000    2.017647959e-02    2.232942134e-01
     5271000000   -6.602299213e-02    2.192285955e-01
     5274000000   -1.290662289e-01    1.787614226e-01
     5277000000   -1.890339851e-01    1.226418465e-01
     5280000000   -2.118621618e-01    5.088371411e-02
     5283000000   -2.168401927e-01   -3.025415726e-02
     5286000000   -1.923621297e-01   -9.951137006e-02
     5289000000   -1.407041997e-01   -1.639532149e-01
     5292000000   -7.401221246e-02   -1.973882020e-01
     5295000000    1.176782767e-03   -2.079862207e-01
     5298000000    7.600549608e-02   -1.939777285e-01
     5301000000    1.309397817e-01   -1.523799002e-01
     5304000000    1.843363345e-01   -8.977646381e-02
     5307000000    2.017682195e-01   -1.813762262e-02
     5310000000    1.939314157e-01    5.188181624e-02
     5313000000    1.609719843e-01    1.160395965e-01
     5316000000    1.101819053e-01    1.628892571e-01
     5319000000    4.213438928e-02    1.898523122e-01
     5322000000   -2.721966803e-02    1.891174316e-01
     5325000000   -8.986346424e-02    1.641081423e-01
     5328000000   -1.430767328e-01    1.165669709e-01
     5331000000   -1.701426357e-01    6.111700088e-02
     5334000000   -1.804103851e-01   -1.018424984e-02
     5337000000   -1.611329466e-01   -7.638999075e-02
     5340000000   -1.214438751e-01   -1.252193153e-01
     5343000000   -6.634917855e-02   -1.568012387e-01
     5346000000   -8.656910621e-03   -1.663412154e-01
     5349000000    5.694749206e-02   -1.578837186e-01
     5352000000    1.055742353e-01   -1.252386868e-01
     5355000000    1.427395791e-01   -7.578632981e-02
     5358000000    1.646650434e-01   -6.837041117e-03
     5361000000    1.524061710e-01    4.195170477e-02
     5364000000    1.277339607e-01    7.726411521e-02
     5367000000    8.245935291e-02    1.169954166e-01
     5370000000    3.139103577e-02    1.373315156e-01
     5373000000   -2.262219600e-02    1.410085559e-01
     5376000000   -7.954529673e-02    1.204362288e-01
     5379000000   -1.025991812e-01    8.781412244e-02
     5382000000   -1.284592748e-01    3.707857057e-02
     5385000000   -1.236220747e-01   -8.248724043e-03
     5388000000   -1.083516404e-01   -7.317758352e-02
     5391000000   -7.578255236e-02   -9.769566357e-02
     5394000000   -3.948341310e-02   -1.043001264e-01
     5397000000    2.163783647e-03   -1.059435606e-01
     5400000000    4.162189737e-02   -8.996845782e-02
     5403000000    7.741909474e-02   -6.261628121e-02
     5406000000    9.120003879e-02   -2.594026737e-02
     5409000000    9.252021462e-02    1.363130752e-02
     5412000000    7.644958049e-02    4.621339589e-02
     5415000000    4.579605162e-02    8.196732402e-02
     5418000000    1.256111357e-02    8.798539639e-02
     5421000000   -2.220879495e-02    8.324743062e-02
     5424000000   -5.220479891e-02    6.742503494e-02
     5427000000   -7.245294005e-02    4.022400081e-02
     5430000000   -9.335096180e-02   -5.313686561e-03
     5433000000   -7.455566525e-02   -2.131104842e-02
     5436000000   -5.864696950e-02   -6.899591535e-02
     5439000000   -3.321221471e-02   -7.163708657e-02
     5442000000    1.587411389e-02   -9.191309661e-02
     5445000000    3.372552991e-02   -7.264511287e-02
     5448000000    7.687099278e-02   -5.236643180e-02
     5451000000    8.240342885e-02   -2.047698572e-02
     5454000000    9.610433877e-02    2.552658133e-02
     5457000000    7.636009157e-02    5.569236353e-02
     5460000000    4.855361208e-02    8.689904213e-02
     5463000000    1.004398149e-02    1.088967323e-01
     5466000000   -2.262469754e-02    9.996861219e-02
     5469000000   -7.662892342e-02    9.179007262e-02
     5472000000   -9.570331872e-02    5.839908123e-02
     5475000000   -1.253835559e-01    1.482149679e-02
     5478000000   -1.230052188e-01   -3.244419023e-02
     5481000000   -1.007296219e-01   -6.777247787e-02
     5484000000   -6.776777655e-02   -1.159143895e-01
     5487000000   -2.522733249e-02   -1.326946467e-01
     5490000000    4.101819545e-02   -1.472335607e-01
     5493000000    8.119601011e-02   -1.194491982e-01
     5496000000    1.207156256e-01   -8.332937956e-02
     5499000000    1.434800476e-01   -3.252852336e-02
     5502000000    1.485942751e-01    2.092220075e-02
     5505000000    1.404750198e-01    9.864485264e-02
     5508000000    1.000557393e-01    1.254507303e-01
     5511000000    4.219117016e-02    1.688683629e-01
     5514000000   -1.463122573e-02    1.715405881e-01
     5517000000   -7.694326341e-02    1.574214846e-01
     5520000000   -1.353474408e-01    1.203318909e-01
     5523000000   -1.815226376e-01    6.023840606e-02
     5526000000   -1.856475323e-01    2.441799734e-03
     5529000000   -1.785473377e-01   -7.333071530e-02
     5532000000   -1.427014470e-01   -1.180669144e-01
     5535000000   -8.089374751e-02   -1.882314831e-01
     5538000000   -1.172788627e-02   -2.024177760e-01
     5541000000    5.584200099e-02   -1.939665377e-01
     5544000000    1.208587587e-01   -1.647647470e-01
     5547000000    1.976838261e-01   -1.024714708e-01
     5550000000    2.070035934e-01   -4.478570819e-02
     5553000000    2.182468027e-01    5.603447556e-02
     5556000000    1.871316731e-01    9.953781962e-02
     5559000000    1.288234890e-01    1.857720017e-01
     5562000000    5.584838614e-02    2.218872160e-01
     5565000000   -3.985573351e-02    2.337261289e-01
     5568000000   -9.863484651e-02    2.060670108e-01
     5571000000   -1.798780859e-01    1.553312242e-01
     5574000000   -2.280612588e-01    8.295504749e-02
     5577000000   -2.439076751e-01   -4.026105627e-03
     5580000000   -2.344312221e-01   -1.011052057e-01
     5583000000   -1.927100718e-01   -1.605983824e-01
     5586000000   -1.140351817e-01   -2.302850634e-01
     5589000000   -3.053056262e-02   -2.561251521e-01
     5592000000    6.728439778e-02   -2.503290176e-01
     5595000000    1.527571976e-01   -2.130357623e-01
     5598000000    2.199429572e-01   -1.469352096e-01
     5601000000    2.589043081e-01   -5.760104209e-02
     5604000000    2.644290030e-01    3.524458781e-02
     5607000000    2.329119444e-01    1.392679363e-01
     5610000000    1.747540981e-01    2.111214846e-01
     5613000000    1.052698120e-01    2.485509962e-01
     5616000000   -1.797848381e-02    2.759107947e-01
     5619000000   -1.107603908e-01    2.547259331e-01
     5622000000   -1.798239201e-01    2.053028941e-01
     5625000000   -2.424558401e-01    1.288712919e-01
     5628000000   -2.765698433e-01    2.677150816e-02
     5631000000   -2.631641328e-01   -8.778890967e-02
     5634000000   -2.248641551e-01   -1.632196754e-01
     5637000000   -1.645356417e-01   -2.188821435e-01
     5640000000   -5.157549679e-02   -2.733950019e-01
     5643000000    3.338387609e-02   -2.744113207e-01
     5646000000    1.380400211e-01   -2.427146137e-01
     5649000000    2.186528146e-01   -1.699476391e-01
     5652000000    2.576973140e-01   -9.938927740e-02
     5655000000    2.757034898e-01    3.240259830e-03
     5658000000    2.538644075e-01    1.069338769e-01
     5661000000    1.940011084e-01    1.932790279e-01
     5664000000    1.182604656e-01    2.443071306e-01
     5667000000    1.412453596e-02    2.700195611e-01
     5670000000   -7.746673375e-02    2.590044141e-01
     5673000000   -1.591712236e-01    2.179240286e-01
     5676000000   -2.227700502e-01    1.434768885e-01
     5679000000   -2.588492036e-01    4.005964100e-02
     5682000000   -2.625240684e-01   -3.743278980e-02
     5685000000   -2.234109193e-01   -1.334093809e-01
     5688000000   -1.671568453e-01   -1.960597485e-01
     5691000000   -8.347497880e-02   -2.419057637e-01
     5694000000    1.899950020e-02   -2.502288222e-01
     5697000000    1.090092659e-01   -2.200820446e-01
     5700000000    1.697987467e-01   -1.746997535e-01
     5703000000    2.180572748e-01   -1.038319096e-01
     5706000000    2.381830066e-01   -1.517275069e-02
     5709000000    2.180161327e-01    8.303214610e-02
     5712000000    1.771271825e-01    1.504112482e-01
     5715000000    1.218676865e-01    1.983924955e-01
     5718000000    3.518315032e-02    2.256516516e-01
     5721000000   -5.102285370e-02    2.180691957e-01
     5724000000   -1.264903694e-01    1.797138304e-01
     5727000000   -1.788446903e-01    1.191012710e-01
     5730000000   -2.065879554e-01    4.831471667e-02
     5733000000   -2.109746635e-01   -2.687686682e-02
     5736000000   -1.836148500e-01   -1.032607257e-01
     5739000000   -1.219907179e-01   -1.611804664e-01
     5742000000   -6.243696064e-02   -1.941068470e-01
     5745000000    1.591053233e-02   -1.967034787e-01
     5748000000    8.487331122e-02   -1.785727441e-01
     5751000000    1.447427869e-01   -1.210438833e-01
     5754000000    1.775541306e-01   -6.552655995e-02
     5757000000    1.845098585e-01    7.211462129e-03
     5760000000    1.669634432e-01    7.246794552e-02
     5763000000    1.249442399e-01    1.274911910e-01
     5766000000    6.622691453e-02    1.622803360e-01
     5769000000    2.019561827e-02    1.845029593e-01
     5772000000   -6.594160199e-02    1.580077410e-01
     5775000000   -1.179479659e-01    1.124607027e-01
     5778000000   -1.488322169e-01    6.351108104e-02
     5781000000   -1.610496938e-01    6.831365172e-03
     5784000000   -1.579126716e-01   -4.794183001e-02
     5787000000   -1.186756939e-01   -1.048020646e-01
     5790000000   -7.382238656e-02   -1.376162320e-01
     5793000000   -8.787808940e-03   -1.516308486e-01
     5796000000    4.761797190e-02   -1.440986693e-01
     5799000000    9.876614809e-02   -1.130911559e-01
     5802000000    1.326517761e-01   -6.855010241e-02
     5805000000    1.464705914e-01   -1.192390081e-02
     5808000000    1.362146139e-01    4.775655642e-02
     5811000000    1.046214998e-01    9.507995099e-02
     5814000000    6.874376535e-02    1.274648905e-01
     5817000000    9.949307889e-03    1.427791417e-01
     5820000000   -4.804238304e-02    1.320731044e-01
     5823000000   -9.536349028e-02    1.049349532e-01
     5826000000   -1.271610260e-01    6.833536178e-02
     5829000000   -1.413994730e-01    1.035596523e-02
     5832000000   -1.310366243e-01   -4.648043588e-02
     5835000000   -1.038311347e-01   -9.175287932e-02
     5838000000   -7.920107991e-02   -1.262406409e-01
     5841000000   -2.366988920e-02   -1.444854140e-01
     5844000000    4.354849458e-02   -1.291241050e-01
     5847000000    8.561785519e-02   -1.082216054e-01
     5850000000    1.203148216e-01   -6.952477247e-02
     5853000000    1.359217912e-01   -1.833089069e-02
     5856000000    1.281016618e-01    3.865284473e-02
     5859000000    1.040633246e-01    8.435873687e-02
     5862000000    6.494613737e-02    1.157066673e-01
     5865000000    1.803793386e-02    1.335662305e-01
     5868000000   -3.426283598e-02    1.307920516e-01
     5871000000   -8.281121403e-02    1.030854806e-01
     5874000000   -1.186208576e-01    6.167405471e-02
     5877000000   -1.353319734e-01    1.585218124e-02
     5880000000   -1.318124980e-01   -4.078678787e-02
     5883000000   -1.041141227e-01   -8.812244236e-02
     5886000000   -7.515355200e-02   -1.228037551e-01
     5889000000   -6.883644033e-03   -1.370556056e-01
     5892000000    2.868006565e-02   -1.477982849e-01
     5895000000    8.902925998e-02   -1.153250337e-01
     5898000000    1.264350265e-01   -5.868038535e-02
     5901000000    1.480311602e-01   -2.385587618e-02
     5904000000    1.442435235e-01    3.773689270e-02
     5907000000    1.303016394e-01    8.743455261e-02
     5910000000    6.284443289e-02    1.287756562e-01
     5913000000    2.280593850e-02    1.514450461e-01
     5916000000   -3.408875689e-02    1.518337578e-01
     5919000000   -8.735197783e-02    1.363820285e-01
     5922000000   -1.317790896e-01    8.343107253e-02
     5925000000   -1.563789099e-01    2.804611437e-02
     5928000000   -1.579028070e-01   -3.423492610e-02
     5931000000   -1.259904057e-01   -9.286984056e-02
     5934000000   -1.049479246e-01   -1.352048069e-01
     5937000000   -3.665132821e-02   -1.618906856e-01
     5940000000    2.384808846e-02   -1.651502997e-01
     5943000000    8.531269431e-02   -1.480584145e-01
     5946000000    1.337029338e-01   -1.088437513e-01
     5949000000    1.660007983e-01   -4.868012294e-02
     5952000000    1.645664573e-01    3.046619892e-02
     5955000000    1.589627117e-01    8.124054223e-02
     5958000000    1.162824333e-01    1.379396915e-01
     5961000000    6.001345441e-02    1.757014841e-01
     5964000000   -5.654787179e-03    1.877224296e-01
     5967000000   -6.941340119e-02    1.784628481e-01
     5970000000   -1.357132345e-01    1.233774424e-01
     5973000000   -1.723320931e-01    7.764507085e-02
     5976000000   -1.876693815e-01    5.596375559e-03
     5979000000   -1.908959746e-01   -5.887091905e-02
     5982000000   -1.564921439e-01   -1.243517920e-01
     5985000000   -8.135553449e-02   -1.696615517e-01
     5988000000   -2.255125344e-02   -1.960316747e-01
     5991000000    5.808328837e-02   -1.812462807e-01
     5994000000    1.177892461e-01   -1.650922447e-01
     5997000000    1.705899686e-01   -1.059239805e-01
     6000000000    1.955615431e-01   -3.311478719e-02
