! NanoVNA-App
! Date: 2026-05-22 17:55:11
! Start: 2.3GHz Stop: 2.6GHz Points: 401
! S-Parameter data: F S11
# Hz S RI R 50
!     Frequency           S11_Real           S11_Imag
     2300000000    7.529733330e-02   -3.440955579e-01
     2300750000    1.073293090e-01   -3.344270885e-01
     2301500000    1.375166476e-01   -3.236857355e-01
     2302250000    1.671827734e-01   -3.076447546e-01
     2303000000    1.954047680e-01   -2.909330726e-01
     2303750000    2.211476862e-01   -2.723471522e-01
     2304500000    2.451360226e-01   -2.494603246e-01
     2305250000    2.670899034e-01   -2.249759436e-01
     2306000000    2.876346409e-01   -1.991813481e-01
     2306750000    3.040896058e-01   -1.727737188e-01
     2307500000    3.187775910e-01   -1.442401260e-01
     2308250000    3.303054273e-01   -1.139436886e-01
     2309000000    3.394645154e-01   -8.261179924e-02
     2309750000    3.450613618e-01   -5.018340796e-02
     2310500000    3.481186032e-01   -1.895658486e-02
     2311250000    3.479134738e-01    1.417443529e-02
     2312000000    3.451975882e-01    4.525415227e-02
     2312750000    3.383924067e-01    7.697659731e-02
     2313500000    3.286179304e-01    1.093899384e-01
     2314250000    3.193755448e-01    1.359253824e-01
     2315000000    3.044444621e-01    1.663427800e-01
     2315750000    2.864863575e-01    1.940604001e-01
     2316500000    2.681141794e-01    2.192000598e-01
     2317250000    2.448117435e-01    2.431045324e-01
     2318000000    2.218639702e-01    2.646540105e-01
     2318750000    1.962962151e-01    2.837160826e-01
     2319500000    1.710087359e-01    3.003074527e-01
     2320250000    1.412541270e-01    3.146852553e-01
     2321000000    1.097820103e-01    3.259579539e-01
     2321750000    7.919029146e-02    3.340865076e-01
     2322500000    5.023570359e-02    3.404366970e-01
     2323250000    1.862260699e-02    3.425544500e-01
     2324000000   -1.535084564e-02    3.422847986e-01
     2324750000   -4.429011792e-02    3.400895894e-01
     2325500000   -7.682919502e-02    3.341170549e-01
     2326250000   -1.100736707e-01    3.234323263e-01
     2327000000   -1.371281147e-01    3.147968948e-01
     2327750000   -1.657624096e-01    3.003299832e-01
     2328500000   -1.941936612e-01    2.797358334e-01
     2329250000   -2.189188004e-01    2.647699714e-01
     2330000000   -2.417250872e-01    2.438799739e-01
     2330750000   -2.639189661e-01    2.193569839e-01
     2331500000   -2.831739187e-01    1.938496530e-01
     2332250000   -2.997010052e-01    1.709879339e-01
     2333000000   -3.138458729e-01    1.394516677e-01
     2333750000   -3.254074156e-01    1.103853285e-01
     2334500000   -3.341790438e-01    8.112025261e-02
     2335250000   -3.409371078e-01    5.153147131e-02
     2336000000   -3.433502018e-01    1.991735213e-02
     2336750000   -3.441593945e-01   -1.004917361e-02
     2337500000   -3.412719071e-01   -4.184380919e-02
     2338250000   -3.362282515e-01   -7.191094756e-02
     2339000000   -3.281856179e-01   -1.016330868e-01
     2339750000   -3.170178533e-01   -1.303030849e-01
     2340500000   -3.027838767e-01   -1.585883647e-01
     2341250000   -2.871976793e-01   -1.837288439e-01
     2342000000   -2.678055167e-01   -2.087578475e-01
     2342750000   -2.474070936e-01   -2.310214043e-01
     2343500000   -2.264032364e-01   -2.514370978e-01
     2344250000   -2.006275952e-01   -2.702796161e-01
     2345000000   -1.719535887e-01   -2.860225439e-01
     2345750000   -1.477257907e-01   -2.996246219e-01
     2346500000   -1.187925860e-01   -3.110504746e-01
     2347250000   -8.895525336e-02   -3.190238178e-01
     2348000000   -5.937206745e-02   -3.249237239e-01
     2348750000   -2.611171454e-02   -3.270772994e-01
     2349500000    2.647511428e-03   -3.279571533e-01
     2350250000    3.351888806e-02   -3.251245022e-01
     2351000000    6.397413462e-02   -3.185786903e-01
     2351750000    9.207604080e-02   -3.116439879e-01
     2352500000    1.216996163e-01   -2.993294597e-01
     2353250000    1.489923000e-01   -2.871955037e-01
     2354000000    1.752082258e-01   -2.704469264e-01
     2354750000    2.001275867e-01   -2.515882254e-01
     2355500000    2.227703035e-01   -2.323942780e-01
     2356250000    2.438841909e-01   -2.083528787e-01
     2357000000    2.612580955e-01   -1.856337935e-01
     2357750000    2.779857814e-01   -1.605700999e-01
     2358500000    2.923988700e-01   -1.347820908e-01
     2359250000    3.027064800e-01   -1.053466797e-01
     2360000000    3.121976852e-01   -7.914691418e-02
     2360750000    3.169362247e-01   -4.577761889e-02
     2361500000    3.207089305e-01   -1.905853860e-02
     2362250000    3.210854530e-01    1.099668909e-02
     2363000000    3.186864853e-01    4.109856114e-02
     2363750000    3.138920665e-01    7.022769749e-02
     2364500000    3.058587313e-01    9.879809618e-02
     2365250000    2.952021658e-01    1.265073270e-01
     2366000000    2.827297747e-01    1.523454487e-01
     2366750000    2.668746412e-01    1.780657321e-01
     2367500000    2.491611242e-01    2.020086348e-01
     2368250000    2.294653356e-01    2.232979089e-01
     2369000000    2.074530721e-01    2.432600111e-01
     2369750000    1.839902550e-01    2.611918151e-01
     2370500000    1.590920687e-01    2.767380178e-01
     2371250000    1.332020313e-01    2.902099788e-01
     2372000000    1.056541130e-01    3.003887236e-01
     2372750000    7.693630457e-02    3.090303540e-01
     2373500000    4.980038106e-02    3.092745841e-01
     2374250000    2.132177725e-02    3.121394515e-01
     2375000000   -9.411338717e-03    3.113296032e-01
     2375750000   -3.711496294e-02    3.087543547e-01
     2376500000   -6.647238135e-02    3.028143048e-01
     2377250000   -9.390176088e-02    2.962161303e-01
     2378000000   -1.208964363e-01    2.857031524e-01
     2378750000   -1.482481360e-01    2.711534500e-01
     2379500000   -1.723526418e-01    2.564668655e-01
     2380250000   -1.946268678e-01    2.402716875e-01
     2381000000   -2.168398052e-01    2.189999372e-01
     2381750000   -2.363797873e-01    1.983129680e-01
     2382500000   -2.534058988e-01    1.754500568e-01
     2383250000   -2.691193819e-01    1.496826261e-01
     2384000000   -2.813162208e-01    1.214905158e-01
     2384750000   -2.912366390e-01    9.615328163e-02
     2385500000   -3.006494939e-01    7.024806738e-02
     2386250000   -3.048741221e-01    4.040502757e-02
     2387000000   -3.071503043e-01    1.077645831e-02
     2387750000   -3.063722849e-01   -1.825954765e-02
     2388500000   -3.054118454e-01   -4.591584206e-02
     2389250000   -2.973084450e-01   -7.629949600e-02
     2390000000   -2.908665538e-01   -1.026407406e-01
     2390750000   -2.810138762e-01   -1.298159063e-01
     2391500000   -2.669315934e-01   -1.560764015e-01
     2392250000   -2.503735125e-01   -1.798294634e-01
     2393000000   -2.350126952e-01   -2.028673887e-01
     2393750000   -2.146570385e-01   -2.247910500e-01
     2394500000   -1.946127415e-01   -2.426174432e-01
     2395250000   -1.713465005e-01   -2.605508566e-01
     2396000000   -1.467087865e-01   -2.751095295e-01
     2396750000   -1.214832887e-01   -2.879774868e-01
     2397500000   -9.290693700e-02   -2.970259488e-01
     2398250000   -6.614261866e-02   -3.046797216e-01
     2399000000   -3.863885999e-02   -3.098177910e-01
     2399750000   -9.184877388e-03   -3.119106293e-01
     2400500000    1.911217906e-02   -3.115677834e-01
     2401250000    4.797009006e-02   -3.079772592e-01
     2402000000    7.560412586e-02   -3.018960655e-01
     2402750000    1.022747904e-01   -2.937505543e-01
     2403500000    1.291421503e-01   -2.832549512e-01
     2404250000    1.544681191e-01   -2.690746784e-01
     2405000000    1.795290411e-01   -2.527583241e-01
     2405750000    2.018282264e-01   -2.351646125e-01
     2406500000    2.227963060e-01   -2.164884359e-01
     2407250000    2.417326123e-01   -1.933894902e-01
     2408000000    2.589175105e-01   -1.712831110e-01
     2408750000    2.739198804e-01   -1.458660215e-01
     2409500000    2.860098779e-01   -1.201121211e-01
     2410250000    2.960219681e-01   -9.296802431e-02
     2411000000    3.029585183e-01   -6.585003436e-02
     2411750000    3.084930480e-01   -3.740840033e-02
     2412500000    3.109911084e-01   -8.874598891e-03
     2413250000    3.108551502e-01    1.926258951e-02
     2414000000    3.070403337e-01    4.891047627e-02
     2414750000    3.009328544e-01    7.751822472e-02
     2415500000    2.939737439e-01    1.034890637e-01
     2416250000    2.825876474e-01    1.307960302e-01
     2417000000    2.692315578e-01    1.562696844e-01
     2417750000    2.539826334e-01    1.804908812e-01
     2418500000    2.358462512e-01    2.034211159e-01
     2419250000    2.162687182e-01    2.243805826e-01
     2420000000    1.954071224e-01    2.431928366e-01
     2420750000    1.718008071e-01    2.600104809e-01
     2421500000    1.481898576e-01    2.746420205e-01
     2422250000    1.204916835e-01    2.883190215e-01
     2423000000    9.518250078e-02    2.975376248e-01
     2423750000    6.778218597e-02    3.052967489e-01
     2424500000    3.954971209e-02    3.105073273e-01
     2425250000    1.036958303e-02    3.127422035e-01
     2426000000   -1.815792732e-02    3.135481775e-01
     2426750000   -4.649304599e-02    3.100157380e-01
     2427500000   -7.399301976e-02    3.048745692e-01
     2428250000   -1.019074097e-01    2.967733145e-01
     2429000000   -1.287059635e-01    2.864809632e-01
     2429750000   -1.536916792e-01    2.744862735e-01
     2430500000   -1.776515841e-01    2.586184144e-01
     2431250000   -2.005383372e-01    2.415109873e-01
     2432000000   -2.214138359e-01    2.241232693e-01
     2432750000   -2.409857661e-01    2.034302801e-01
     2433500000   -2.580473125e-01    1.783429533e-01
     2434250000   -2.727151513e-01    1.560953707e-01
     2435000000   -2.858175337e-01    1.316554248e-01
     2435750000   -2.961159050e-01    1.035093814e-01
     2436500000   -3.040620387e-01    7.636260986e-02
     2437250000   -3.098435998e-01    4.977420717e-02
     2438000000   -3.127510846e-01    2.133828588e-02
     2438750000   -3.131516874e-01   -6.142726168e-03
     2439500000   -3.106990159e-01   -3.517305851e-02
     2440250000   -3.063382804e-01   -6.207744777e-02
     2441000000   -2.993339598e-01   -8.870720118e-02
     2441750000   -2.875409424e-01   -1.165777072e-01
     2442500000   -2.771886289e-01   -1.403613985e-01
     2443250000   -2.638064325e-01   -1.643092185e-01
     2444000000   -2.460895628e-01   -1.872735471e-01
     2444750000   -2.279690653e-01   -2.084496021e-01
     2445500000   -2.088126689e-01   -2.272470742e-01
     2446250000   -1.869484186e-01   -2.444257885e-01
     2447000000   -1.640542448e-01   -2.594744861e-01
     2447750000   -1.390934289e-01   -2.721817493e-01
     2448500000   -1.134771630e-01   -2.831344604e-01
     2449250000   -8.767952770e-02   -2.915345430e-01
     2450000000   -6.108397618e-02   -2.973826528e-01
     2450750000   -3.456473723e-02   -3.009160459e-01
     2451500000   -7.119861431e-03   -3.009747267e-01
     2452250000    2.058043145e-02   -2.992636263e-01
     2453000000    4.718745127e-02   -2.951871157e-01
     2453750000    7.318029553e-02   -2.887571454e-01
     2454500000    9.823685139e-02   -2.798353732e-01
     2455250000    1.231634319e-01   -2.685850263e-01
     2456000000    1.465439200e-01   -2.549574077e-01
     2456750000    1.692197025e-01   -2.388587445e-01
     2457500000    1.891880929e-01   -2.219611555e-01
     2458250000    2.077993304e-01   -2.029322535e-01
     2459000000    2.253825963e-01   -1.819403172e-01
     2459750000    2.398577631e-01   -1.596960127e-01
     2460500000    2.528745532e-01   -1.358806044e-01
     2461250000    2.637147605e-01   -1.127479896e-01
     2462000000    2.724930346e-01   -8.651567996e-02
     2462750000    2.780734301e-01   -6.091706082e-02
     2463500000    2.820549011e-01   -3.558418900e-02
     2464250000    2.839208245e-01   -1.024344563e-02
     2465000000    2.825355828e-01    1.641453803e-02
     2465750000    2.786212564e-01    4.250137880e-02
     2466500000    2.730619907e-01    6.715917587e-02
     2467250000    2.652001977e-01    9.146561474e-02
     2468000000    2.558211386e-01    1.139725000e-01
     2468750000    2.422543019e-01    1.366184354e-01
     2469500000    2.287347168e-01    1.571062952e-01
     2470250000    2.116781026e-01    1.767502427e-01
     2471000000    1.943562478e-01    1.940685213e-01
     2471750000    1.747109294e-01    2.099652886e-01
     2472500000    1.547711045e-01    2.239866108e-01
     2473250000    1.316734105e-01    2.356183976e-01
     2474000000    1.090078205e-01    2.453729212e-01
     2474750000    8.473006636e-02    2.532075942e-01
     2475500000    6.110939011e-02    2.585430145e-01
     2476250000    3.644215316e-02    2.614468038e-01
     2477000000    1.191809494e-02    2.620559037e-01
     2477750000   -1.292239036e-02    2.604847252e-01
     2478500000   -3.697827086e-02    2.570446730e-01
     2479250000   -6.043332070e-02    2.506750524e-01
     2480000000   -8.336116374e-02    2.429235131e-01
     2480750000   -1.055468321e-01    2.330799699e-01
     2481500000   -1.262336820e-01    2.210919857e-01
     2482250000   -1.458561420e-01    2.072277963e-01
     2483000000   -1.641901135e-01    1.923463047e-01
     2483750000   -1.800116450e-01    1.756448895e-01
     2484500000   -1.953431368e-01    1.569298953e-01
     2485250000   -2.085418701e-01    1.374348253e-01
     2486000000   -2.192903310e-01    1.168405861e-01
     2486750000   -2.285147160e-01    9.555414319e-02
     2487500000   -2.352432907e-01    7.413082570e-02
     2488250000   -2.400352210e-01    5.125650764e-02
     2489000000   -2.424481958e-01    2.845649421e-02
     2489750000   -2.428192347e-01    5.182220135e-03
     2490500000   -2.406082600e-01   -1.762674563e-02
     2491250000   -2.367660999e-01   -3.959012032e-02
     2492000000   -2.309212536e-01   -6.156563386e-02
     2492750000   -2.225048542e-01   -8.307068795e-02
     2493500000   -2.124969661e-01   -1.030545756e-01
     2494250000   -2.007431537e-01   -1.222583503e-01
     2495000000   -1.871148944e-01   -1.405265182e-01
     2495750000   -1.722006351e-01   -1.567607075e-01
     2496500000   -1.554255188e-01   -1.715511382e-01
     2497250000   -1.384674460e-01   -1.844522506e-01
     2498000000   -1.199583039e-01   -1.953483671e-01
     2498750000   -9.987305850e-02   -2.055980563e-01
     2499500000   -7.913858443e-02   -2.122869790e-01
     2500250000   -5.847186968e-02   -2.182012200e-01
     2501000000   -3.697419167e-02   -2.211171985e-01
     2501750000   -1.567254215e-02   -2.227676362e-01
     2502500000    5.815833807e-03   -2.223688066e-01
     2503250000    2.698220313e-02   -2.198802680e-01
     2504000000    4.778960720e-02   -2.152191252e-01
     2504750000    6.806037575e-02   -2.079488188e-01
     2505500000    8.715888858e-02   -2.002743185e-01
     2506250000    1.048954502e-01   -1.902618408e-01
     2507000000    1.234366298e-01   -1.783064157e-01
     2507750000    1.388922334e-01   -1.646414995e-01
     2508500000    1.532081515e-01   -1.505729556e-01
     2509250000    1.668418050e-01   -1.342898458e-01
     2510000000    1.775780916e-01   -1.178757995e-01
     2510750000    1.879666746e-01   -9.907872230e-02
     2511500000    1.955722123e-01   -8.112442493e-02
     2512250000    2.013959140e-01   -6.160239503e-02
     2513000000    2.050358802e-01   -4.219538346e-02
     2513750000    2.071893662e-01   -2.233926207e-02
     2514500000    2.077329755e-01   -2.384941326e-03
     2515250000    2.061007768e-01    1.735320501e-02
     2516000000    2.024404109e-01    3.697335348e-02
     2516750000    1.969190687e-01    5.556210130e-02
     2517500000    1.892152131e-01    7.437300682e-02
     2518250000    1.807614267e-01    9.144952148e-02
     2519000000    1.704759151e-01    1.078518704e-01
     2519750000    1.587720811e-01    1.230094656e-01
     2520500000    1.459075660e-01    1.368770748e-01
     2521250000    1.311454475e-01    1.491882950e-01
     2522000000    1.153713688e-01    1.598602533e-01
     2522750000    9.947761893e-02    1.686527282e-01
     2523500000    8.210163563e-02    1.762819439e-01
     2524250000    6.465672702e-02    1.817784756e-01
     2525000000    4.621870071e-02    1.858161837e-01
     2525750000    2.734238654e-02    1.878584027e-01
     2526500000    9.440775961e-03    1.878664047e-01
     2527250000   -9.406707250e-03    1.862623096e-01
     2528000000   -2.752403915e-02    1.824113727e-01
     2528750000   -4.489780590e-02    1.777097583e-01
     2529500000   -6.190748885e-02    1.706866920e-01
     2530250000   -7.834458351e-02    1.624188870e-01
     2531000000   -9.349380434e-02    1.525912285e-01
     2531750000   -1.075336933e-01    1.413075477e-01
     2532500000   -1.204835549e-01    1.290439963e-01
     2533250000   -1.317953914e-01    1.149666160e-01
     2534000000   -1.422501802e-01    9.985463321e-02
     2534750000   -1.503484249e-01    8.428452909e-02
     2535500000   -1.571335942e-01    6.842813641e-02
     2536250000   -1.625237912e-01    5.105629936e-02
     2537000000   -1.660332680e-01    3.395092487e-02
     2537750000   -1.670623720e-01    1.684137620e-02
     2538500000   -1.670646071e-01   -7.998927613e-04
     2539250000   -1.653483361e-01   -1.780880243e-02
     2540000000   -1.618830264e-01   -3.501671553e-02
     2540750000   -1.563180387e-01   -5.177763477e-02
     2541500000   -1.497015953e-01   -6.772690266e-02
     2542250000   -1.406204551e-01   -8.268223703e-02
     2543000000   -1.307220161e-01   -9.712923318e-02
     2543750000   -1.196738631e-01   -1.097816452e-01
     2544500000   -1.075871959e-01   -1.215889603e-01
     2545250000   -9.401762486e-02   -1.313276589e-01
     2546000000   -7.965672761e-02   -1.405813098e-01
     2546750000   -6.433435529e-02   -1.485158056e-01
     2547500000   -4.877843335e-02   -1.535230130e-01
     2548250000   -3.213415667e-02   -1.575084329e-01
     2549000000   -1.549821999e-02   -1.601835936e-01
     2549750000    1.724118716e-03   -1.596805453e-01
     2550500000    1.851019450e-02   -1.586692184e-01
     2551250000    3.533143923e-02   -1.562463045e-01
     2552000000    5.062761530e-02   -1.509972662e-01
     2552750000    6.699421257e-02   -1.446451247e-01
     2553500000    8.164275438e-02   -1.365073472e-01
     2554250000    9.673102200e-02   -1.266174316e-01
     2555000000    1.094862372e-01   -1.166962385e-01
     2555750000    1.212683767e-01   -1.035443991e-01
     2556500000    1.325223297e-01   -9.036114067e-02
     2557250000    1.409451514e-01   -7.658226043e-02
     2558000000    1.482094526e-01   -6.061599404e-02
     2558750000    1.538610309e-01   -4.483225942e-02
     2559500000    1.592661887e-01   -2.748400718e-02
     2560250000    1.603139192e-01   -1.075681578e-02
     2561000000    1.617098302e-01    6.938368548e-03
     2561750000    1.607539356e-01    2.510989457e-02
     2562500000    1.572845578e-01    4.229551554e-02
     2563250000    1.528946906e-01    5.939649045e-02
     2564000000    1.459378451e-01    7.614167780e-02
     2564750000    1.382530183e-01    9.251498431e-02
     2565500000    1.274348050e-01    1.072702333e-01
     2566250000    1.160580292e-01    1.220520809e-01
     2567000000    1.032274142e-01    1.353262812e-01
     2567750000    8.936551213e-02    1.475972384e-01
     2568500000    7.433986664e-02    1.585801840e-01
     2569250000    5.776001513e-02    1.670722067e-01
     2570000000    4.045840725e-02    1.748503298e-01
     2570750000    2.277756110e-02    1.796638370e-01
     2571500000    4.378669895e-03    1.833218932e-01
     2572250000   -1.449990366e-02    1.850306392e-01
     2573000000   -3.367985412e-02    1.851701587e-01
     2573750000   -5.315693095e-02    1.826984137e-01
     2574500000   -7.160308212e-02    1.785148680e-01
     2575250000   -9.055221826e-02    1.718910635e-01
     2576000000   -1.086201668e-01    1.642915457e-01
     2576750000   -1.257021278e-01    1.546297073e-01
     2577500000   -1.419538409e-01    1.430718750e-01
     2578250000   -1.567209512e-01    1.291235238e-01
     2579000000   -1.706879586e-01    1.136504412e-01
     2579750000   -1.829490662e-01    9.695330262e-02
     2580500000   -1.929794848e-01    7.874864340e-02
     2581250000   -2.029329240e-01    6.025423482e-02
     2582000000   -2.099779695e-01    3.972294182e-02
     2582750000   -2.149277627e-01    1.901762933e-02
     2583500000   -2.181970328e-01   -2.680197591e-03
     2584250000   -2.194842994e-01   -2.409731783e-02
     2585000000   -2.178452164e-01   -4.637026414e-02
     2585750000   -2.149007171e-01   -6.856270134e-02
     2586500000   -2.097139359e-01   -9.050202370e-02
     2587250000   -2.017450184e-01   -1.118672714e-01
     2588000000   -1.935859323e-01   -1.327272654e-01
     2588750000   -1.801915765e-01   -1.526012868e-01
     2589500000   -1.678965241e-01   -1.715609431e-01
     2590250000   -1.525821984e-01   -1.885488778e-01
     2591000000   -1.335549057e-01   -2.048505694e-01
     2591750000   -1.169027314e-01   -2.193233222e-01
     2592500000   -9.474213421e-02   -2.311922014e-01
     2593250000   -7.310264558e-02   -2.415930182e-01
     2594000000   -4.938049614e-02   -2.507340014e-01
     2594750000   -2.658456191e-02   -2.577303648e-01
     2595500000   -9.726656717e-04   -2.616626620e-01
     2596250000    2.432969771e-02   -2.628168464e-01
     2597000000    4.946358129e-02   -2.620163858e-01
     2597750000    7.568520308e-02   -2.594134808e-01
     2598500000    1.016025543e-01   -2.543756366e-01
     2599250000    1.271598935e-01   -2.444438934e-01
     2600000000    1.508921385e-01   -2.352977693e-01
