! NanoVNA-App
! Date: 2026-05-22 18:43:03
! Start: 2.3GHz Stop: 2.6GHz Points: 401
! S-Parameter data: F S11
# Hz S RI R 50
!     Frequency           S11_Real           S11_Imag
     2300000000    6.270573139e-01   -6.528918445e-02
     2300750000    6.286644936e-01   -1.241713203e-02
     2301500000    6.260542274e-01    4.534468800e-02
     2302250000    6.187421083e-01    9.892754257e-02
     2303000000    6.065120101e-01    1.521414965e-01
     2303750000    5.863649845e-01    2.107969522e-01
     2304500000    5.665480494e-01    2.576422393e-01
     2305250000    5.402704477e-01    3.061849773e-01
     2306000000    5.103850365e-01    3.517410159e-01
     2306750000    4.721787572e-01    3.991900384e-01
     2307500000    4.376707375e-01    4.354385138e-01
     2308250000    3.960811794e-01    4.717912674e-01
     2309000000    3.504457772e-01    5.046899915e-01
     2309750000    3.018938005e-01    5.337448120e-01
     2310500000    2.533174753e-01    5.568746924e-01
     2311250000    2.040645182e-01    5.758607984e-01
     2312000000    1.506724954e-01    5.908309221e-01
     2312750000    9.939999133e-02    6.000085473e-01
     2313500000    4.510948434e-02    6.054768562e-01
     2314250000   -9.307013825e-03    6.058399081e-01
     2315000000   -6.334380060e-02    6.011017561e-01
     2315750000   -1.188002974e-01    5.916029811e-01
     2316500000   -1.666923761e-01    5.791213512e-01
     2317250000   -2.190236598e-01    5.601718426e-01
     2318000000   -2.687305510e-01    5.367440581e-01
     2318750000   -3.126020432e-01    5.115531683e-01
     2319500000   -3.589704037e-01    4.780074954e-01
     2320250000   -3.986954689e-01    4.447773099e-01
     2321000000   -4.352701604e-01    4.080806077e-01
     2321750000   -4.660252929e-01    3.710042536e-01
     2322500000   -5.007068515e-01    3.196629882e-01
     2323250000   -5.232195854e-01    2.795640230e-01
     2324000000   -5.455311537e-01    2.289888561e-01
     2324750000   -5.630249381e-01    1.769544333e-01
     2325500000   -5.742704868e-01    1.321199834e-01
     2326250000   -5.830528736e-01    8.012011647e-02
     2327000000   -5.857720375e-01    2.183075994e-02
     2327750000   -5.844181180e-01   -2.609058470e-02
     2328500000   -5.785328150e-01   -7.772970200e-02
     2329250000   -5.695829391e-01   -1.243055537e-01
     2330000000   -5.554111004e-01   -1.729133874e-01
     2330750000   -5.345959067e-01   -2.238955051e-01
     2331500000   -5.096735954e-01   -2.724582851e-01
     2332250000   -4.835038185e-01   -3.134811819e-01
     2333000000   -4.533726573e-01   -3.534487784e-01
     2333750000   -4.194561839e-01   -3.914205432e-01
     2334500000   -3.818294704e-01   -4.260652363e-01
     2335250000   -3.415549994e-01   -4.572131038e-01
     2336000000   -2.977411449e-01   -4.847180545e-01
     2336750000   -2.557973266e-01   -5.061561465e-01
     2337500000   -2.079937756e-01   -5.264798403e-01
     2338250000   -1.583244652e-01   -5.418095589e-01
     2339000000   -1.109142825e-01   -5.520945191e-01
     2339750000   -6.166334450e-02   -5.584538579e-01
     2340500000   -1.093495637e-02   -5.603029728e-01
     2341250000    3.733657673e-02   -5.578466058e-01
     2342000000    8.785202354e-02   -5.502996445e-01
     2342750000    1.353900135e-01   -5.391423106e-01
     2343500000    1.805904806e-01   -5.245350599e-01
     2344250000    2.265493125e-01   -5.041575432e-01
     2345000000    2.691130042e-01   -4.804770947e-01
     2345750000    3.078755140e-01   -4.549465477e-01
     2346500000    3.489258289e-01   -4.210296571e-01
     2347250000    3.766430020e-01   -3.963553905e-01
     2348000000    4.121228158e-01   -3.546583354e-01
     2348750000    4.421126544e-01   -3.134235442e-01
     2349500000    4.657653868e-01   -2.743979692e-01
     2350250000    4.864936471e-01   -2.328797579e-01
     2351000000    5.030502081e-01   -1.910650134e-01
     2351750000    5.165045857e-01   -1.389740407e-01
     2352500000    5.247229934e-01   -9.555374831e-02
     2353250000    5.301671624e-01   -4.915350303e-02
     2354000000    5.305427909e-01   -2.941465937e-03
     2354750000    5.256828666e-01    4.800275341e-02
     2355500000    5.200253129e-01    8.829978853e-02
     2356250000    5.057365894e-01    1.390776336e-01
     2357000000    4.909470677e-01    1.788357496e-01
     2357750000    4.724502861e-01    2.194784284e-01
     2358500000    4.485276937e-01    2.605526447e-01
     2359250000    4.236406982e-01    2.962427139e-01
     2360000000    3.928189278e-01    3.319936097e-01
     2360750000    3.616438806e-01    3.632207811e-01
     2361500000    3.273243010e-01    3.911327720e-01
     2362250000    2.891048491e-01    4.171237350e-01
     2363000000    2.512296736e-01    4.388306737e-01
     2363750000    2.106237411e-01    4.569839835e-01
     2364500000    1.683306694e-01    4.712578356e-01
     2365250000    1.258956790e-01    4.817459285e-01
     2366000000    8.379226923e-02    4.878182113e-01
     2366750000    3.889239579e-02    4.907957017e-01
     2367500000   -4.219889641e-03    4.897693992e-01
     2368250000   -4.766317084e-02    4.842544496e-01
     2369000000   -8.934494108e-02    4.758860767e-01
     2369750000   -1.320379674e-01    4.630223215e-01
     2370500000   -1.713777781e-01    4.468950033e-01
     2371250000   -2.095768303e-01    4.275821149e-01
     2372000000   -2.439078093e-01    4.064372480e-01
     2372750000   -2.798732519e-01    3.789387047e-01
     2373500000   -3.094476461e-01    3.521583080e-01
     2374250000   -3.375129402e-01    3.223421574e-01
     2375000000   -3.640601635e-01    2.862654328e-01
     2375750000   -3.857111931e-01    2.502421141e-01
     2376500000   -4.034213722e-01    2.184806913e-01
     2377250000   -4.200809300e-01    1.770163029e-01
     2378000000   -4.315825701e-01    1.363407075e-01
     2378750000   -4.398874938e-01    9.936126322e-02
     2379500000   -4.443475008e-01    5.729359016e-02
     2380250000   -4.459964335e-01    2.332185954e-02
     2381000000   -4.429111481e-01   -2.101754211e-02
     2381750000   -4.359741807e-01   -6.218793243e-02
     2382500000   -4.252719581e-01   -1.013840288e-01
     2383250000   -4.132676423e-01   -1.380131841e-01
     2384000000   -3.978748620e-01   -1.727471054e-01
     2384750000   -3.791473210e-01   -2.061224878e-01
     2385500000   -3.543241918e-01   -2.406135798e-01
     2386250000   -3.317626119e-01   -2.690763474e-01
     2387000000   -3.040667474e-01   -2.969270647e-01
     2387750000   -2.764932811e-01   -3.206540048e-01
     2388500000   -2.440164983e-01   -3.438333571e-01
     2389250000   -2.100460976e-01   -3.620623052e-01
     2390000000   -1.750957072e-01   -3.780558407e-01
     2390750000   -1.412639320e-01   -3.912128806e-01
     2391500000   -1.030912623e-01   -4.000885189e-01
     2392250000   -6.758706272e-02   -4.056083858e-01
     2393000000   -3.092198260e-02   -4.086346626e-01
     2393750000    5.759017076e-03   -4.076679945e-01
     2394500000    4.070063308e-02   -4.031040967e-01
     2395250000    7.664744556e-02   -3.956724405e-01
     2396000000    1.110410169e-01   -3.845306933e-01
     2396750000    1.433455497e-01   -3.721265793e-01
     2397500000    1.748620421e-01   -3.549660146e-01
     2398250000    2.054087371e-01   -3.346315920e-01
     2399000000    2.316105217e-01   -3.146224618e-01
     2399750000    2.571817636e-01   -2.916968465e-01
     2400500000    2.816628218e-01   -2.629431486e-01
     2401250000    3.019915223e-01   -2.353075892e-01
     2402000000    3.190790415e-01   -2.064591795e-01
     2402750000    3.339522779e-01   -1.754994392e-01
     2403500000    3.461758792e-01   -1.440985799e-01
     2404250000    3.552457690e-01   -1.111787185e-01
     2405000000    3.615728021e-01   -7.805564255e-02
     2405750000    3.645227253e-01   -4.411812499e-02
     2406500000    3.649756908e-01   -1.181162987e-02
     2407250000    3.618074656e-01    2.162033506e-02
     2408000000    3.552638888e-01    5.489645153e-02
     2408750000    3.471601307e-01    8.569636941e-02
     2409500000    3.348343670e-01    1.161745265e-01
     2410250000    3.224013746e-01    1.437565982e-01
     2411000000    3.045753837e-01    1.711211205e-01
     2411750000    2.882415950e-01    1.949881464e-01
     2412500000    2.641750574e-01    2.193999439e-01
     2413250000    2.436838895e-01    2.394070774e-01
     2414000000    2.172405869e-01    2.581650615e-01
     2414750000    1.902263016e-01    2.747036517e-01
     2415500000    1.634070575e-01    2.880865335e-01
     2416250000    1.345434934e-01    2.988213003e-01
     2417000000    1.045434400e-01    3.070984483e-01
     2417750000    7.489124686e-02    3.127783835e-01
     2418500000    4.467139021e-02    3.155526221e-01
     2419250000    1.504635438e-02    3.152698278e-01
     2420000000   -1.474084146e-02    3.126871586e-01
     2420750000   -4.461345822e-02    3.065586090e-01
     2421500000   -7.076770067e-02    3.001577854e-01
     2422250000   -9.872014076e-02    2.888324559e-01
     2423000000   -1.246312857e-01    2.763162851e-01
     2423750000   -1.495213062e-01    2.616531551e-01
     2424500000   -1.715365350e-01    2.438351363e-01
     2425250000   -1.928404123e-01    2.248015404e-01
     2426000000   -2.118361890e-01    2.017106563e-01
     2426750000   -2.280663401e-01    1.833714843e-01
     2427500000   -2.427539080e-01    1.568161100e-01
     2428250000   -2.548202574e-01    1.331896931e-01
     2429000000   -2.643553019e-01    1.074944437e-01
     2429750000   -2.717148066e-01    8.123485744e-02
     2430500000   -2.761717439e-01    5.511767790e-02
     2431250000   -2.779134512e-01    2.855940722e-02
     2432000000   -2.798464000e-01    4.919218831e-03
     2432750000   -2.752515972e-01   -2.340406738e-02
     2433500000   -2.693329453e-01   -4.986585677e-02
     2434250000   -2.621976435e-01   -7.384134084e-02
     2435000000   -2.515248656e-01   -9.798575193e-02
     2435750000   -2.395852804e-01   -1.207616776e-01
     2436500000   -2.241328359e-01   -1.423135102e-01
     2437250000   -2.114833891e-01   -1.609884351e-01
     2438000000   -1.913414598e-01   -1.794756800e-01
     2438750000   -1.714392453e-01   -1.954811960e-01
     2439500000   -1.501590312e-01   -2.095198780e-01
     2440250000   -1.310860515e-01   -2.218498290e-01
     2441000000   -1.077144071e-01   -2.314676344e-01
     2441750000   -8.226868510e-02   -2.379039377e-01
     2442500000   -6.264230609e-02   -2.440806478e-01
     2443250000   -3.632644936e-02   -2.469686270e-01
     2444000000   -1.203820016e-02   -2.468002886e-01
     2444750000    1.128497627e-02   -2.461273223e-01
     2445500000    3.427266330e-02   -2.421548218e-01
     2446250000    5.647245422e-02   -2.363570333e-01
     2447000000    7.876569778e-02   -2.276444882e-01
     2447750000    9.969358146e-02   -2.170514017e-01
     2448500000    1.194231063e-01   -2.049122304e-01
     2449250000    1.369242072e-01   -1.918282956e-01
     2450000000    1.538929790e-01   -1.761762649e-01
     2450750000    1.685265005e-01   -1.587464213e-01
     2451500000    1.818613857e-01   -1.417069137e-01
     2452250000    1.927959919e-01   -1.212538034e-01
     2453000000    2.023717612e-01   -1.006181762e-01
     2453750000    2.093209028e-01   -8.041919768e-02
     2454500000    2.144512683e-01   -5.872149393e-02
     2455250000    2.176012993e-01   -3.681715205e-02
     2456000000    2.179997563e-01   -1.434840914e-02
     2456750000    2.180133313e-01    6.776307710e-03
     2457500000    2.136402279e-01    2.832394093e-02
     2458250000    2.091585994e-01    4.891671985e-02
     2459000000    2.016920447e-01    6.980560720e-02
     2459750000    1.931561679e-01    8.815268427e-02
     2460500000    1.825349182e-01    1.066505983e-01
     2461250000    1.691119969e-01    1.233664453e-01
     2462000000    1.568343490e-01    1.390863657e-01
     2462750000    1.398949474e-01    1.527093202e-01
     2463500000    1.243290082e-01    1.647562534e-01
     2464250000    1.063058004e-01    1.750931293e-01
     2465000000    8.982484043e-02    1.841093451e-01
     2465750000    6.787946075e-02    1.903593391e-01
     2466500000    4.820407927e-02    1.946037114e-01
     2467250000    2.948919684e-02    1.990119368e-01
     2468000000    8.271379396e-03    1.982581466e-01
     2468750000   -1.256149728e-02    1.965420693e-01
     2469500000   -3.114386462e-02    1.949647218e-01
     2470250000   -4.972025752e-02    1.909684837e-01
     2471000000   -6.914711744e-02    1.820762008e-01
     2471750000   -8.626072109e-02    1.748933941e-01
     2472500000   -1.022795215e-01    1.664167345e-01
     2473250000   -1.184933782e-01    1.526839137e-01
     2474000000   -1.326677948e-01    1.384459138e-01
     2474750000   -1.449944824e-01    1.244542226e-01
     2475500000   -1.559529006e-01    1.097892523e-01
     2476250000   -1.652726531e-01    9.381560236e-02
     2477000000   -1.728346646e-01    7.589104772e-02
     2477750000   -1.776837111e-01    5.676040053e-02
     2478500000   -1.819465607e-01    3.868818283e-02
     2479250000   -1.839880645e-01    2.039001137e-02
     2480000000   -1.836071908e-01    1.338920440e-03
     2480750000   -1.819243878e-01   -1.773579232e-02
     2481500000   -1.781655103e-01   -3.575590625e-02
     2482250000   -1.728026420e-01   -5.383400619e-02
     2483000000   -1.654950231e-01   -7.108402997e-02
     2483750000   -1.561988145e-01   -8.749600500e-02
     2484500000   -1.451725662e-01   -1.026322842e-01
     2485250000   -1.337645799e-01   -1.165144220e-01
     2486000000   -1.199954972e-01   -1.293620914e-01
     2486750000   -1.048481837e-01   -1.407858729e-01
     2487500000   -8.805132657e-02   -1.501926035e-01
     2488250000   -7.011675835e-02   -1.581174433e-01
     2489000000   -5.339379236e-02   -1.651929021e-01
     2489750000   -3.520744294e-02   -1.704612970e-01
     2490500000   -1.588750072e-02   -1.730322838e-01
     2491250000    4.506748170e-03   -1.729846448e-01
     2492000000    2.351657301e-02   -1.738964021e-01
     2492750000    4.199692234e-02   -1.722866595e-01
     2493500000    6.171961501e-02   -1.667115986e-01
     2494250000    7.993634045e-02   -1.609656513e-01
     2495000000    9.727874398e-02   -1.532525420e-01
     2495750000    1.134304330e-01   -1.444830149e-01
     2496500000    1.290337443e-01   -1.327629536e-01
     2497250000    1.429072469e-01   -1.211292371e-01
     2498000000    1.554134786e-01   -1.082087755e-01
     2498750000    1.675280333e-01   -9.188210219e-02
     2499500000    1.762310416e-01   -7.428096980e-02
     2500250000    1.848077774e-01   -5.857659131e-02
     2501000000    1.906024069e-01   -4.073156789e-02
     2501750000    1.963747740e-01   -2.370805293e-02
     2502500000    1.975234151e-01   -3.405977506e-03
     2503250000    1.979549080e-01    1.636311971e-02
     2504000000    1.965385377e-01    3.542773053e-02
     2504750000    1.938341409e-01    5.407764018e-02
     2505500000    1.888593137e-01    7.242470980e-02
     2506250000    1.814665943e-01    9.074416012e-02
     2507000000    1.729428619e-01    1.095090657e-01
     2507750000    1.609088629e-01    1.260719001e-01
     2508500000    1.515631825e-01    1.407048553e-01
     2509250000    1.362697184e-01    1.555417925e-01
     2510000000    1.232776642e-01    1.680520028e-01
     2510750000    1.054627523e-01    1.799999774e-01
     2511500000    8.888373524e-02    1.893784702e-01
     2512250000    7.181254774e-02    1.973562986e-01
     2513000000    5.155083165e-02    2.030031979e-01
     2513750000    3.302941099e-02    2.075678855e-01
     2514500000    1.324689761e-02    2.102182359e-01
     2515250000   -6.726078223e-03    2.103193104e-01
     2516000000   -2.797373384e-02    2.076845765e-01
     2516750000   -4.723829404e-02    2.038959563e-01
     2517500000   -6.623569131e-02    1.995495707e-01
     2518250000   -8.570707589e-02    1.906694919e-01
     2519000000   -1.036702394e-01    1.820514500e-01
     2519750000   -1.216910258e-01    1.696017981e-01
     2520500000   -1.374663860e-01    1.557451636e-01
     2521250000   -1.520800143e-01    1.419615597e-01
     2522000000   -1.663281471e-01    1.241648123e-01
     2522750000   -1.781160384e-01    1.075970754e-01
     2523500000   -1.888457090e-01    8.815166354e-02
     2524250000   -1.973204017e-01    6.802183390e-02
     2525000000   -2.044704705e-01    4.743807390e-02
     2525750000   -2.087930739e-01    2.628271654e-02
     2526500000   -2.105097920e-01    2.916312777e-03
     2527250000   -2.114663720e-01   -1.886838675e-02
     2528000000   -2.108873725e-01   -4.043111205e-02
     2528750000   -2.064746171e-01   -6.288361549e-02
     2529500000   -2.017575204e-01   -8.454309404e-02
     2530250000   -1.933554858e-01   -1.058168635e-01
     2531000000   -1.859386712e-01   -1.252941787e-01
     2531750000   -1.714517325e-01   -1.454035044e-01
     2532500000   -1.596530676e-01   -1.628749520e-01
     2533250000   -1.439795345e-01   -1.796850264e-01
     2534000000   -1.276144832e-01   -1.948896348e-01
     2534750000   -1.095308885e-01   -2.086720318e-01
     2535500000   -8.994197845e-02   -2.201901227e-01
     2536250000   -6.942100078e-02   -2.295276672e-01
     2537000000   -4.814093560e-02   -2.375963032e-01
     2537750000   -2.536808141e-02   -2.424748689e-01
     2538500000   -3.187240567e-03   -2.458953112e-01
     2539250000    2.000891976e-02   -2.470019758e-01
     2540000000    4.323120415e-02   -2.458552569e-01
     2540750000    6.828185916e-02   -2.418983430e-01
     2541500000    9.132102877e-02   -2.356651723e-01
     2542250000    1.144225225e-01   -2.276611924e-01
     2543000000    1.368973851e-01   -2.172436416e-01
     2543750000    1.571531445e-01   -2.052834779e-01
     2544500000    1.775383055e-01   -1.910334677e-01
     2545250000    1.959234625e-01   -1.756645292e-01
     2546000000    2.137268335e-01   -1.562797874e-01
     2546750000    2.286972553e-01   -1.375135183e-01
     2547500000    2.420625240e-01   -1.162486449e-01
     2548250000    2.533851862e-01   -9.389013797e-02
     2549000000    2.629441023e-01   -7.163162529e-02
     2549750000    2.693189681e-01   -4.354896396e-02
     2550500000    2.744950056e-01   -2.227281593e-02
     2551250000    2.763762772e-01    4.272141494e-03
     2552000000    2.740480900e-01    3.138930351e-02
     2552750000    2.727491260e-01    5.618349463e-02
     2553500000    2.676314712e-01    8.155839890e-02
     2554250000    2.582162023e-01    1.084287763e-01
     2555000000    2.496909499e-01    1.316062808e-01
     2555750000    2.352292687e-01    1.571706533e-01
     2556500000    2.141497284e-01    1.828741580e-01
     2557250000    1.959489733e-01    2.033939809e-01
     2558000000    1.796705425e-01    2.227513790e-01
     2558750000    1.589019895e-01    2.404854298e-01
     2559500000    1.323858351e-01    2.568897903e-01
     2560250000    1.105930209e-01    2.705300748e-01
     2561000000    8.500792086e-02    2.820278704e-01
     2561750000    5.728138983e-02    2.914191782e-01
     2562500000    3.148622438e-02    2.980059087e-01
     2563250000    2.074563410e-03    3.008918464e-01
     2564000000   -2.875204571e-02    3.011513352e-01
     2564750000   -5.496660247e-02    3.012176156e-01
     2565500000   -8.500088751e-02    2.967762947e-01
     2566250000   -1.130103990e-01    2.905917764e-01
     2567000000   -1.420123279e-01    2.802484334e-01
     2567750000   -1.679752022e-01    2.695474029e-01
     2568500000   -1.942467391e-01    2.545185387e-01
     2569250000   -2.190676928e-01    2.372285128e-01
     2570000000   -2.427151054e-01    2.178047895e-01
     2570750000   -2.643224299e-01    1.952518225e-01
     2571500000   -2.837103903e-01    1.727836877e-01
     2572250000   -3.008170426e-01    1.480297297e-01
     2573000000   -3.157022595e-01    1.211793125e-01
     2573750000   -3.285672069e-01    9.304511547e-02
     2574500000   -3.383849263e-01    6.325104088e-02
     2575250000   -3.453516662e-01    3.263779357e-02
     2576000000   -3.499184549e-01    1.389596844e-03
     2576750000   -3.509381413e-01   -2.972121723e-02
     2577500000   -3.492441475e-01   -6.097778678e-02
     2578250000   -3.450189829e-01   -9.305974096e-02
     2579000000   -3.378617764e-01   -1.244733408e-01
     2579750000   -3.280965388e-01   -1.544152051e-01
     2580500000   -3.149749637e-01   -1.837191731e-01
     2581250000   -2.967782319e-01   -2.134162188e-01
     2582000000   -2.800032496e-01   -2.393360436e-01
     2582750000   -2.568604946e-01   -2.649924755e-01
     2583500000   -2.346961647e-01   -2.883245647e-01
     2584250000   -2.078076303e-01   -3.089679182e-01
     2585000000   -1.819914728e-01   -3.281091154e-01
     2585750000   -1.498008966e-01   -3.447344601e-01
     2586500000   -1.189722717e-01   -3.579470515e-01
     2587250000   -8.881320059e-02   -3.692575395e-01
     2588000000   -5.337288231e-02   -3.766600490e-01
     2588750000   -2.122097276e-02   -3.824895024e-01
     2589500000    1.553882658e-02   -3.828075826e-01
     2590250000    4.959539697e-02   -3.814119995e-01
     2591000000    8.369661868e-02   -3.779194951e-01
     2591750000    1.165790707e-01   -3.707662225e-01
     2592500000    1.515351683e-01   -3.579194844e-01
     2593250000    1.817887723e-01   -3.464559317e-01
     2594000000    2.157290876e-01   -3.268388510e-01
     2594750000    2.445995212e-01   -3.083513379e-01
     2595500000    2.732332647e-01   -2.848767340e-01
     2596250000    2.989481986e-01   -2.602586448e-01
     2597000000    3.222437203e-01   -2.299240977e-01
     2597750000    3.435246646e-01   -2.052273005e-01
     2598500000    3.625121415e-01   -1.700740457e-01
     2599250000    3.780675530e-01   -1.371226460e-01
     2600000000    3.904549778e-01   -1.043258682e-01
