! NanoVNA-App
! Date: 2026-05-22 18:44:15
! Start: 2.3GHz Stop: 0Hz Points: 401
! S-Parameter data: F S11
# Hz S RI R 50
!     Frequency           S11_Real           S11_Imag
     2300000000    5.550550818e-01    2.773211896e-01
     2300750000    5.260308385e-01    3.255421519e-01
     2301500000    4.922083020e-01    3.707837164e-01
     2302250000    4.549188614e-01    4.132923484e-01
     2303000000    4.122724831e-01    4.537209868e-01
     2303750000    3.712248802e-01    4.845766425e-01
     2304500000    3.249444664e-01    5.151715875e-01
     2305250000    2.763705552e-01    5.402182341e-01
     2306000000    2.235168368e-01    5.621485710e-01
     2306750000    1.726970524e-01    5.776790977e-01
     2307500000    1.182659045e-01    5.896860957e-01
     2308250000    6.230353564e-02    5.962535739e-01
     2309000000    8.462363854e-03    5.978949070e-01
     2309750000   -4.403256997e-02    5.938349366e-01
     2310500000   -9.934933484e-02    5.861377716e-01
     2311250000   -1.497210562e-01    5.733404756e-01
     2312000000   -2.013045698e-01    5.552357435e-01
     2312750000   -2.485000044e-01    5.334733129e-01
     2313500000   -2.941979766e-01    5.068203807e-01
     2314250000   -3.374229670e-01    4.774073958e-01
     2315000000   -3.778760731e-01    4.420699477e-01
     2315750000   -4.170849025e-01    4.019649923e-01
     2316500000   -4.474196434e-01    3.644523919e-01
     2317250000   -4.773125052e-01    3.211607337e-01
     2318000000   -5.018272400e-01    2.756126821e-01
     2318750000   -5.223181248e-01    2.290652543e-01
     2319500000   -5.368148088e-01    1.839037836e-01
     2320250000   -5.504677296e-01    1.286640018e-01
     2321000000   -5.575534105e-01    8.014646173e-02
     2321750000   -5.592437387e-01    3.292857856e-02
     2322500000   -5.568282604e-01   -1.960855350e-02
     2323250000   -5.502692461e-01   -7.187871635e-02
     2324000000   -5.375657678e-01   -1.231553331e-01
     2324750000   -5.231616497e-01   -1.661771238e-01
     2325500000   -5.043267012e-01   -2.098519206e-01
     2326250000   -4.775094092e-01   -2.578840852e-01
     2327000000   -4.504448771e-01   -2.977338135e-01
     2327750000   -4.201253355e-01   -3.334788084e-01
     2328500000   -3.818475008e-01   -3.727960885e-01
     2329250000   -3.512512445e-01   -3.983856440e-01
     2330000000   -3.038465679e-01   -4.321938753e-01
     2330750000   -2.670309544e-01   -4.528518617e-01
     2331500000   -2.169612944e-01   -4.756466746e-01
     2332250000   -1.770693064e-01   -4.897955656e-01
     2333000000   -1.273064911e-01   -5.020654202e-01
     2333750000   -8.194335550e-02   -5.093980432e-01
     2334500000   -3.711173311e-02   -5.123488903e-01
     2335250000    1.245019119e-02   -5.109165311e-01
     2336000000    6.074317545e-02   -5.052260756e-01
     2336750000    1.044936106e-01   -4.963528514e-01
     2337500000    1.485306621e-01   -4.820676744e-01
     2338250000    1.914349943e-01   -4.641095400e-01
     2339000000    2.330926210e-01   -4.426216185e-01
     2339750000    2.705273926e-01   -4.182487428e-01
     2340500000    3.068660200e-01   -3.889594078e-01
     2341250000    3.394869268e-01   -3.583407104e-01
     2342000000    3.690464199e-01   -3.237804174e-01
     2342750000    3.927984834e-01   -2.909483314e-01
     2343500000    4.180890918e-01   -2.493772060e-01
     2344250000    4.370915592e-01   -2.076222301e-01
     2345000000    4.499410987e-01   -1.714451611e-01
     2345750000    4.618222713e-01   -1.242384389e-01
     2346500000    4.680537581e-01   -8.242677897e-02
     2347250000    4.715749323e-01   -4.097069800e-02
     2348000000    4.699572921e-01    3.613234498e-03
     2348750000    4.647746980e-01    4.517118633e-02
     2349500000    4.552566707e-01    8.869035542e-02
     2350250000    4.417319894e-01    1.313759536e-01
     2351000000    4.266065955e-01    1.669747680e-01
     2351750000    4.068104029e-01    2.040284127e-01
     2352500000    3.839438856e-01    2.392607629e-01
     2353250000    3.569153845e-01    2.728856802e-01
     2354000000    3.263460398e-01    3.039216995e-01
     2354750000    2.980624735e-01    3.284692764e-01
     2355500000    2.626695633e-01    3.533323109e-01
     2356250000    2.285742015e-01    3.734823167e-01
     2357000000    1.926091164e-01    3.899078965e-01
     2357750000    1.524214298e-01    4.045866430e-01
     2358500000    1.182312071e-01    4.129871130e-01
     2359250000    7.290600240e-02    4.202803969e-01
     2360000000    3.368796408e-02    4.222655892e-01
     2360750000   -3.649375401e-03    4.210942090e-01
     2361500000   -4.032805935e-02    4.165326953e-01
     2362250000   -7.952020317e-02    4.072298408e-01
     2363000000   -1.173309460e-01    3.949369490e-01
     2363750000   -1.513616890e-01    3.797110021e-01
     2364500000   -1.876242608e-01    3.589797318e-01
     2365250000   -2.135729641e-01    3.401810527e-01
     2366000000   -2.441071272e-01    3.148325086e-01
     2366750000   -2.696930170e-01    2.885234058e-01
     2367500000   -2.919975221e-01    2.600320578e-01
     2368250000   -3.131776750e-01    2.278077453e-01
     2369000000   -3.314791620e-01    1.941953003e-01
     2369750000   -3.445892930e-01    1.625447273e-01
     2370500000   -3.552740812e-01    1.269792765e-01
     2371250000   -3.632314205e-01    9.031110257e-02
     2372000000   -3.674474657e-01    5.444673076e-02
     2372750000   -3.680367172e-01    1.703651436e-02
     2373500000   -3.658051193e-01   -1.569263265e-02
     2374250000   -3.592337966e-01   -5.261257663e-02
     2375000000   -3.496393561e-01   -8.796253800e-02
     2375750000   -3.379954696e-01   -1.179151163e-01
     2376500000   -3.220687807e-01   -1.505879462e-01
     2377250000   -3.034805954e-01   -1.803650707e-01
     2378000000   -2.831916809e-01   -2.062277496e-01
     2378750000   -2.602321506e-01   -2.312956601e-01
     2379500000   -2.332605720e-01   -2.550738752e-01
     2380250000   -2.052441686e-01   -2.752829790e-01
     2381000000   -1.763076335e-01   -2.921730578e-01
     2381750000   -1.468044817e-01   -3.058302402e-01
     2382500000   -1.140043065e-01   -3.170404732e-01
     2383250000   -7.997419685e-02   -3.256395757e-01
     2384000000   -4.838436842e-02   -3.301729560e-01
     2384750000   -1.667346060e-02   -3.321101367e-01
     2385500000    1.724400744e-02   -3.307547569e-01
     2386250000    4.975493997e-02   -3.260028064e-01
     2387000000    8.375769109e-02   -3.172429800e-01
     2387750000    1.150242984e-01   -3.067288995e-01
     2388500000    1.405956447e-01   -2.952997386e-01
     2389250000    1.718518585e-01   -2.772172689e-01
     2390000000    1.969848573e-01   -2.597936094e-01
     2390750000    2.216684818e-01   -2.376758009e-01
     2391500000    2.431214899e-01   -2.152223587e-01
     2392250000    2.617417872e-01   -1.912931502e-01
     2393000000    2.782846689e-01   -1.638440341e-01
     2393750000    2.918825448e-01   -1.378555894e-01
     2394500000    3.030282855e-01   -1.070254445e-01
     2395250000    3.101666272e-01   -7.867676765e-02
     2396000000    3.153860867e-01   -4.588566348e-02
     2396750000    3.170267045e-01   -1.748973876e-02
     2397500000    3.160651326e-01    1.321253646e-02
     2398250000    3.116207719e-01    4.430923611e-02
     2399000000    3.048064709e-01    7.300793380e-02
     2399750000    2.951689959e-01    1.010079235e-01
     2400500000    2.824749053e-01    1.284112185e-01
     2401250000    2.678316236e-01    1.539280713e-01
     2402000000    2.494013160e-01    1.790192872e-01
     2402750000    2.284134924e-01    2.012828141e-01
     2403500000    2.077972889e-01    2.206525505e-01
     2404250000    1.825231612e-01    2.394183874e-01
     2405000000    1.567555070e-01    2.544448078e-01
     2405750000    1.298424900e-01    2.674399912e-01
     2406500000    1.012669206e-01    2.777032852e-01
     2407250000    7.012633979e-02    2.853974402e-01
     2408000000    4.359944910e-02    2.894736528e-01
     2408750000    1.290143561e-02    2.911218703e-01
     2409500000   -1.739715971e-02    2.903227210e-01
     2410250000   -4.469045252e-02    2.862312794e-01
     2411000000   -7.798766345e-02    2.784230113e-01
     2411750000   -1.034223884e-01    2.697986364e-01
     2412500000   -1.313383877e-01    2.572231889e-01
     2413250000   -1.584019512e-01    2.408333868e-01
     2414000000   -1.812355369e-01    2.249396294e-01
     2414750000   -2.042600065e-01    2.043638825e-01
     2415500000   -2.246398032e-01    1.842352897e-01
     2416250000   -2.432092726e-01    1.592577249e-01
     2417000000   -2.584094703e-01    1.347793192e-01
     2417750000   -2.716234922e-01    1.085929126e-01
     2418500000   -2.828896642e-01    8.101122826e-02
     2419250000   -2.906425595e-01    5.579742789e-02
     2420000000   -2.958672643e-01    2.350702323e-02
     2420750000   -2.978810370e-01   -3.092412837e-03
     2421500000   -2.974357009e-01   -3.298441693e-02
     2422250000   -2.934494615e-01   -6.257585436e-02
     2423000000   -2.868368328e-01   -9.307739884e-02
     2423750000   -2.788185477e-01   -1.183616221e-01
     2424500000   -2.667474747e-01   -1.451864243e-01
     2425250000   -2.518910468e-01   -1.708834916e-01
     2426000000   -2.348700613e-01   -1.952002794e-01
     2426750000   -2.161692232e-01   -2.169319689e-01
     2427500000   -1.967530251e-01   -2.354631722e-01
     2428250000   -1.724602729e-01   -2.549635470e-01
     2429000000   -1.478518993e-01   -2.703754902e-01
     2429750000   -1.198345944e-01   -2.835574448e-01
     2430500000   -9.709815681e-02   -2.926890254e-01
     2431250000   -6.527048349e-02   -3.012309074e-01
     2432000000   -3.906713054e-02   -3.058232069e-01
     2432750000   -5.822359584e-03   -3.075900078e-01
     2433500000    1.977401972e-02   -3.068181574e-01
     2434250000    4.607056081e-02   -3.046722710e-01
     2435000000    7.765997201e-02   -2.977582216e-01
     2435750000    1.090420932e-01   -2.872515023e-01
     2436500000    1.338655204e-01   -2.768241763e-01
     2437250000    1.605911106e-01   -2.617517114e-01
     2438000000    1.851202697e-01   -2.447251529e-01
     2438750000    2.074547112e-01   -2.254196852e-01
     2439500000    2.262666225e-01   -2.069498301e-01
     2440250000    2.481926233e-01   -1.805262417e-01
     2441000000    2.635966241e-01   -1.568272263e-01
     2441750000    2.771970034e-01   -1.320017874e-01
     2442500000    2.895988822e-01   -1.035122946e-01
     2443250000    2.985913754e-01   -7.611280680e-02
     2444000000    3.045373261e-01   -4.527532309e-02
     2444750000    3.084369600e-01   -1.535411924e-02
     2445500000    3.092057109e-01    1.290448755e-02
     2446250000    3.064925671e-01    4.406438023e-02
     2447000000    3.011869788e-01    7.586322725e-02
     2447750000    2.934989929e-01    1.034380645e-01
     2448500000    2.827594280e-01    1.304565519e-01
     2449250000    2.700427175e-01    1.578390747e-01
     2450000000    2.538143992e-01    1.832800806e-01
     2450750000    2.354364991e-01    2.073926479e-01
     2451500000    2.152073085e-01    2.293546945e-01
     2452250000    1.943775266e-01    2.480748743e-01
     2453000000    1.676851362e-01    2.677680552e-01
     2453750000    1.419232339e-01    2.826662362e-01
     2454500000    1.157974452e-01    2.953675091e-01
     2455250000    8.705176413e-02    3.058253229e-01
     2456000000    5.779784173e-02    3.128138781e-01
     2456750000    2.839727700e-02    3.176961541e-01
     2457500000   -3.022470511e-03    3.189577758e-01
     2458250000   -3.347246721e-02    3.178440630e-01
     2459000000   -6.084284186e-02    3.147414029e-01
     2459750000   -9.278423339e-02    3.066680729e-01
     2460500000   -1.182737276e-01    2.983521223e-01
     2461250000   -1.459392458e-01    2.854241729e-01
     2462000000   -1.768395305e-01    2.673982680e-01
     2462750000   -1.961375624e-01    2.544820607e-01
     2463500000   -2.210688293e-01    2.320031524e-01
     2464250000   -2.414636463e-01    2.106040865e-01
     2465000000   -2.596784234e-01    1.874445081e-01
     2465750000   -2.769342065e-01    1.594253629e-01
     2466500000   -2.912031114e-01    1.318646073e-01
     2467250000   -3.016594350e-01    1.051200777e-01
     2468000000   -3.105131388e-01    7.451546192e-02
     2468750000   -3.160927594e-01    4.587689042e-02
     2469500000   -3.194524050e-01    1.398791932e-02
     2470250000   -3.191213906e-01   -1.991062611e-02
     2471000000   -3.161461353e-01   -4.794528708e-02
     2471750000   -3.090463877e-01   -8.325538784e-02
     2472500000   -3.006220162e-01   -1.117575169e-01
     2473250000   -2.897143364e-01   -1.398370862e-01
     2474000000   -2.733584940e-01   -1.700796783e-01
     2474750000   -2.584647238e-01   -1.940331161e-01
     2475500000   -2.381003201e-01   -2.201217711e-01
     2476250000   -2.165585905e-01   -2.433427870e-01
     2477000000   -1.925196350e-01   -2.647087574e-01
     2477750000   -1.670736820e-01   -2.834277153e-01
     2478500000   -1.402035803e-01   -2.994167507e-01
     2479250000   -1.126700863e-01   -3.124530613e-01
     2480000000   -8.211600780e-02   -3.235756457e-01
     2480750000   -5.063915998e-02   -3.318502009e-01
     2481500000   -2.055520006e-02   -3.365387022e-01
     2482250000    1.248381939e-02   -3.384002149e-01
     2483000000    4.345599189e-02   -3.372991681e-01
     2483750000    7.319302112e-02   -3.331766725e-01
     2484500000    1.066047400e-01   -3.255234659e-01
     2485250000    1.333769411e-01   -3.163623810e-01
     2486000000    1.656518430e-01   -3.020467460e-01
     2486750000    1.937112659e-01   -2.860938609e-01
     2487500000    2.194924802e-01   -2.684006989e-01
     2488250000    2.449236065e-01   -2.465986311e-01
     2489000000    2.665116787e-01   -2.238490283e-01
     2489750000    2.870866656e-01   -1.987393647e-01
     2490500000    3.056054115e-01   -1.719674319e-01
     2491250000    3.204667866e-01   -1.426740736e-01
     2492000000    3.333277702e-01   -1.117008999e-01
     2492750000    3.434682190e-01   -8.083103597e-02
     2493500000    3.491603434e-01   -5.229973421e-02
     2494250000    3.536666036e-01   -1.392307132e-02
     2495000000    3.542057574e-01    1.661107689e-02
     2495750000    3.518105745e-01    5.040168390e-02
     2496500000    3.469993770e-01    8.096352965e-02
     2497250000    3.380964100e-01    1.132575050e-01
     2498000000    3.252626061e-01    1.471363008e-01
     2498750000    3.123806119e-01    1.739358455e-01
     2499500000    2.949443161e-01    2.030552477e-01
     2500250000    2.739278674e-01    2.314105183e-01
     2501000000    2.543325424e-01    2.535730898e-01
     2501750000    2.260735631e-01    2.800703347e-01
     2502500000    2.008547634e-01    2.991140187e-01
     2503250000    1.731747091e-01    3.160111904e-01
     2504000000    1.412628442e-01    3.325846493e-01
     2504750000    1.109358370e-01    3.437296450e-01
     2505500000    7.932449132e-02    3.537798524e-01
     2506250000    4.307729751e-02    3.596601188e-01
     2507000000    7.252877112e-03    3.627341688e-01
     2507750000   -2.190211602e-02    3.642736077e-01
     2508500000   -5.976112187e-02    3.588649929e-01
     2509250000   -9.123019874e-02    3.538240194e-01
     2510000000   -1.256728917e-01    3.437051177e-01
     2510750000   -1.559133828e-01    3.334962428e-01
     2511500000   -1.906175464e-01    3.152151406e-01
     2512250000   -2.166080922e-01    2.992571294e-01
     2513000000   -2.458730638e-01    2.764593661e-01
     2513750000   -2.719639838e-01    2.520699799e-01
     2514500000   -2.947168648e-01    2.279920876e-01
     2515250000   -3.150426447e-01    1.994466782e-01
     2516000000   -3.327141702e-01    1.713639498e-01
     2516750000   -3.474042416e-01    1.409560889e-01
     2517500000   -3.598205447e-01    1.076926142e-01
     2518250000   -3.688551188e-01    7.602766156e-02
     2519000000   -3.744105399e-01    3.721290827e-02
     2519750000   -3.776172101e-01    5.792791024e-03
     2520500000   -3.765276968e-01   -3.201147914e-02
     2521250000   -3.733012080e-01   -6.391847134e-02
     2522000000   -3.649519086e-01   -1.005565003e-01
     2522750000   -3.548783064e-01   -1.350642443e-01
     2523500000   -3.410162032e-01   -1.663434207e-01
     2524250000   -3.231738806e-01   -2.001722902e-01
     2525000000   -3.061567545e-01   -2.282477319e-01
     2525750000   -2.853779793e-01   -2.548966110e-01
     2526500000   -2.587717175e-01   -2.817092240e-01
     2527250000   -2.309379280e-01   -3.063478470e-01
     2528000000   -2.003571242e-01   -3.283012807e-01
     2528750000   -1.714947671e-01   -3.454677463e-01
     2529500000   -1.387630701e-01   -3.609956503e-01
     2530250000   -1.046855301e-01   -3.731759191e-01
     2531000000   -7.132814825e-02   -3.822616637e-01
     2531750000   -3.463800624e-02   -3.881680071e-01
     2532500000   -7.069199346e-04   -3.905944526e-01
     2533250000    3.862819821e-02   -3.897112608e-01
     2534000000    7.469136268e-02   -3.849253356e-01
     2534750000    1.073889509e-01   -3.789990246e-01
     2535500000    1.442477703e-01   -3.658632338e-01
     2536250000    1.775553674e-01   -3.518555164e-01
     2537000000    2.085917443e-01   -3.363024294e-01
     2537750000    2.401108891e-01   -3.151605129e-01
     2538500000    2.686407566e-01   -2.933194935e-01
     2539250000    2.950384319e-01   -2.669697404e-01
     2540000000    3.194283843e-01   -2.386828810e-01
     2540750000    3.411230743e-01   -2.094103247e-01
     2541500000    3.600890636e-01   -1.764565706e-01
     2542250000    3.750923872e-01   -1.450611502e-01
     2543000000    3.878626227e-01   -1.083046198e-01
     2543750000    3.967544436e-01   -7.377111167e-02
     2544500000    4.024430215e-01   -3.888680041e-02
     2545250000    4.053348005e-01   -4.941020161e-04
     2546000000    4.039683640e-01    3.570465371e-02
     2546750000    3.995022178e-01    7.517378032e-02
     2547500000    3.926761448e-01    1.101336703e-01
     2548250000    3.794530034e-01    1.477721781e-01
     2549000000    3.677121997e-01    1.778695881e-01
     2549750000    3.486194313e-01    2.130462080e-01
     2550500000    3.282254338e-01    2.450273484e-01
     2551250000    3.042054176e-01    2.750578523e-01
     2552000000    2.802636921e-01    2.996201813e-01
     2552750000    2.495323569e-01    3.270299435e-01
     2553500000    2.171704918e-01    3.486350477e-01
     2554250000    1.844689250e-01    3.682749867e-01
     2555000000    1.541206390e-01    3.821922839e-01
     2555750000    1.157946289e-01    3.960492611e-01
     2556500000    7.652307302e-02    4.066159129e-01
     2557250000    4.101969302e-02    4.117581546e-01
     2558000000    5.331158172e-03    4.144116938e-01
     2558750000   -3.154069930e-02    4.144760668e-01
     2559500000   -7.181712240e-02    4.100300074e-01
     2560250000   -1.112300977e-01    4.006607234e-01
     2561000000   -1.484963298e-01    3.889659047e-01
     2561750000   -1.828830540e-01    3.744009435e-01
     2562500000   -2.168837786e-01    3.567883372e-01
     2563250000   -2.446200103e-01    3.396887481e-01
     2564000000   -2.793048620e-01    3.113462329e-01
     2564750000   -3.065940440e-01    2.845077217e-01
     2565500000   -3.310619593e-01    2.586335242e-01
     2566250000   -3.524895012e-01    2.300632745e-01
     2567000000   -3.740375936e-01    1.898782104e-01
     2567750000   -3.897479773e-01    1.609610617e-01
     2568500000   -4.033015668e-01    1.198617816e-01
     2569250000   -4.129385948e-01    8.597180247e-02
     2570000000   -4.197711647e-01    4.871308059e-02
     2570750000   -4.222619236e-01    8.298539557e-03
     2571500000   -4.213601947e-01   -3.131911904e-02
     2572250000   -4.166637957e-01   -6.567356735e-02
     2573000000   -4.086251855e-01   -1.062187031e-01
     2573750000   -3.967997730e-01   -1.437961012e-01
     2574500000   -3.817191720e-01   -1.797429621e-01
     2575250000   -3.624365926e-01   -2.144459486e-01
     2576000000   -3.429564536e-01   -2.450894862e-01
     2576750000   -3.181715906e-01   -2.766064107e-01
     2577500000   -2.906431556e-01   -3.049550951e-01
     2578250000   -2.609303892e-01   -3.311674297e-01
     2579000000   -2.274208516e-01   -3.550282121e-01
              0    5.411085486e-02    1.897918880e-01
              0    5.403917655e-02    1.897647083e-01
              0    5.331768841e-02    1.900216192e-01
              0    5.289892480e-02    1.901783794e-01
              0    5.291341990e-02    1.901099533e-01
              0    5.226540938e-02    1.904589534e-01
              0    5.212392658e-02    1.904959083e-01
              0    5.165605992e-02    1.904766262e-01
              0    5.112755671e-02    1.906480044e-01
              0    5.094496533e-02    1.907497346e-01
              0    5.047623813e-02    1.908138692e-01
              0    5.015606061e-02    1.909641474e-01
              0    4.947060719e-02    1.910723448e-01
              0    4.924717173e-02    1.909345537e-01
              0    4.907373339e-02    1.911078840e-01
              0    4.797767475e-02    1.912709326e-01
              0    4.821980000e-02    1.915123612e-01
              0    4.769813642e-02    1.915778071e-01
              0    4.801601917e-02    1.913425475e-01
              0    4.663107917e-02    1.917865127e-01
              0    4.652456939e-02    1.918290555e-01
              0    4.599079490e-02    1.918368340e-01
              0    4.567349330e-02    1.919942349e-01
              0    4.581525922e-02    1.919689775e-01
              0    4.508886859e-02    1.919558197e-01
              0    4.441249371e-02    1.922230721e-01
              0    4.443092272e-02    1.922362745e-01
              0    4.443095252e-02    1.922363043e-01
