! NanoVNA-App
! Date: 2026-05-22 20:02:00
! Start: 2.3GHz Stop: 2.6GHz Points: 401
! S-Parameter data: F S11
# Hz S RI R 50
!     Frequency           S11_Real           S11_Imag
     2300000000    1.268395782e-01    4.508061111e-01
     2300750000    1.037860811e-01    4.563954175e-01
     2301500000    7.997743040e-02    4.601715803e-01
     2302250000    5.308337510e-02    4.642176330e-01
     2303000000    3.282422572e-02    4.644570351e-01
     2303750000    3.381980583e-03    4.652854502e-01
     2304500000   -1.603296772e-02    4.639047086e-01
     2305250000   -4.023893178e-02    4.605616629e-01
     2306000000   -6.245523691e-02    4.567463994e-01
     2306750000   -8.893261850e-02    4.511624277e-01
     2307500000   -1.083975583e-01    4.448572099e-01
     2308250000   -1.317221671e-01    4.364182055e-01
     2309000000   -1.525926441e-01    4.269356430e-01
     2309750000   -1.730889231e-01    4.160560966e-01
     2310500000   -1.947941184e-01    4.052066207e-01
     2311250000   -2.131428719e-01    3.920902610e-01
     2312000000   -2.297501564e-01    3.797794878e-01
     2312750000   -2.470841855e-01    3.661858141e-01
     2313500000   -2.632669210e-01    3.508489728e-01
     2314250000   -2.772636414e-01    3.359004855e-01
     2315000000   -2.901308537e-01    3.204377294e-01
     2315750000   -3.041272163e-01    3.024957180e-01
     2316500000   -3.148697019e-01    2.864569724e-01
     2317250000   -3.270650804e-01    2.657540739e-01
     2318000000   -3.340586424e-01    2.512400746e-01
     2318750000   -3.421905637e-01    2.327150553e-01
     2319500000   -3.476027846e-01    2.168194503e-01
     2320250000   -3.548522592e-01    1.966302246e-01
     2321000000   -3.600538969e-01    1.771624982e-01
     2321750000   -3.617526591e-01    1.646043211e-01
     2322500000   -3.655062318e-01    1.429363340e-01
     2323250000   -3.664602637e-01    1.279983222e-01
     2324000000   -3.664014041e-01    1.149658859e-01
     2324750000   -3.666732907e-01    9.594895691e-02
     2325500000   -3.657245934e-01    7.825994492e-02
     2326250000   -3.640212417e-01    6.405889988e-02
     2327000000   -3.614584506e-01    5.086994544e-02
     2327750000   -3.586130738e-01    3.787718341e-02
     2328500000   -3.538206816e-01    2.059049159e-02
     2329250000   -3.505869806e-01    9.062746540e-03
     2330000000   -3.462477922e-01   -1.650210004e-03
     2330750000   -3.419722617e-01   -1.261160430e-02
     2331500000   -3.367228210e-01   -2.488420904e-02
     2332250000   -3.305294812e-01   -3.603088483e-02
     2333000000   -3.252443373e-01   -4.554202035e-02
     2333750000   -3.191753626e-01   -5.518237501e-02
     2334500000   -3.135852814e-01   -6.347789615e-02
     2335250000   -3.072122335e-01   -7.239032537e-02
     2336000000   -3.023294508e-01   -7.906430960e-02
     2336750000   -2.958971858e-01   -8.654032648e-02
     2337500000   -2.907950580e-01   -9.246525913e-02
     2338250000   -2.843104899e-01   -1.000056788e-01
     2339000000   -2.797307074e-01   -1.054201797e-01
     2339750000   -2.741398811e-01   -1.114353910e-01
     2340500000   -2.695918381e-01   -1.173674241e-01
     2341250000   -2.650195062e-01   -1.225812435e-01
     2342000000   -2.615815103e-01   -1.269003153e-01
     2342750000   -2.565996945e-01   -1.325747520e-01
     2343500000   -2.520225346e-01   -1.379588097e-01
     2344250000   -2.490857691e-01   -1.425561011e-01
     2345000000   -2.453889996e-01   -1.472757161e-01
     2345750000   -2.412930876e-01   -1.520695537e-01
     2346500000   -2.379243821e-01   -1.576083750e-01
     2347250000   -2.355193049e-01   -1.625950187e-01
     2348000000   -2.310975641e-01   -1.681184918e-01
     2348750000   -2.288678735e-01   -1.735584885e-01
     2349500000   -2.242112309e-01   -1.798213124e-01
     2350250000   -2.219713330e-01   -1.854640841e-01
     2351000000   -2.178574502e-01   -1.912317425e-01
     2351750000   -2.136884183e-01   -1.984056234e-01
     2352500000   -2.109319866e-01   -2.038929462e-01
     2353250000   -2.069576681e-01   -2.109294087e-01
     2354000000   -2.019727379e-01   -2.185968906e-01
     2354750000   -1.972316504e-01   -2.255939245e-01
     2355500000   -1.920608878e-01   -2.331706136e-01
     2356250000   -1.867289841e-01   -2.408953607e-01
     2357000000   -1.813386232e-01   -2.478235215e-01
     2357750000   -1.737423092e-01   -2.554062605e-01
     2358500000   -1.664364189e-01   -2.647127807e-01
     2359250000   -1.592783928e-01   -2.723873854e-01
     2360000000   -1.508983970e-01   -2.795199454e-01
     2360750000   -1.411153227e-01   -2.887002826e-01
     2361500000   -1.327731162e-01   -2.956635952e-01
     2362250000   -1.218186021e-01   -3.033341765e-01
     2363000000   -1.120474860e-01   -3.091446161e-01
     2363750000   -9.965595603e-02   -3.172296584e-01
     2364500000   -8.756309003e-02   -3.238856792e-01
     2365250000   -7.485989481e-02   -3.295151293e-01
     2366000000   -6.119456142e-02   -3.357803822e-01
     2366750000   -4.718887433e-02   -3.400616050e-01
     2367500000   -3.246774152e-02   -3.450404108e-01
     2368250000   -1.721869782e-02   -3.487513363e-01
     2369000000   -2.393509960e-03   -3.514414430e-01
     2369750000    1.410011109e-02   -3.533084989e-01
     2370500000    3.136955947e-02   -3.544123769e-01
     2371250000    4.725634307e-02   -3.548138440e-01
     2372000000    6.334210187e-02   -3.543496430e-01
     2372750000    8.481809497e-02   -3.531247377e-01
     2373500000    9.840380400e-02   -3.502392471e-01
     2374250000    1.181127653e-01   -3.472564816e-01
     2375000000    1.326886863e-01   -3.417924345e-01
     2375750000    1.520151645e-01   -3.371329904e-01
     2376500000    1.659386903e-01   -3.295472562e-01
     2377250000    1.870296448e-01   -3.219331503e-01
     2378000000    2.032587677e-01   -3.139328659e-01
     2378750000    2.177191824e-01   -3.034696579e-01
     2379500000    2.317272723e-01   -2.942138016e-01
     2380250000    2.490608096e-01   -2.812740207e-01
     2381000000    2.635389268e-01   -2.682446241e-01
     2381750000    2.737982273e-01   -2.560736239e-01
     2382500000    2.909487188e-01   -2.396069020e-01
     2383250000    3.011120558e-01   -2.251062095e-01
     2384000000    3.120397031e-01   -2.092225105e-01
     2384750000    3.228485584e-01   -1.926116347e-01
     2385500000    3.315713406e-01   -1.752853841e-01
     2386250000    3.388506174e-01   -1.580852270e-01
     2387000000    3.438059688e-01   -1.415259540e-01
     2387750000    3.514038026e-01   -1.209256053e-01
     2388500000    3.550756276e-01   -1.039516553e-01
     2389250000    3.591178358e-01   -8.376765996e-02
     2390000000    3.610943556e-01   -6.629695743e-02
     2390750000    3.609660566e-01   -4.817509651e-02
     2391500000    3.622456491e-01   -2.358421497e-02
     2392250000    3.605791926e-01   -7.271831390e-03
     2393000000    3.583919704e-01    1.471032575e-02
     2393750000    3.545441031e-01    2.885203063e-02
     2394500000    3.508233130e-01    4.904218763e-02
     2395250000    3.447391093e-01    6.579418480e-02
     2396000000    3.383106291e-01    8.102644980e-02
     2396750000    3.306001425e-01    9.922555834e-02
     2397500000    3.225868046e-01    1.149147004e-01
     2398250000    3.123835921e-01    1.316396296e-01
     2399000000    3.031727970e-01    1.454900354e-01
     2399750000    2.925076187e-01    1.582320631e-01
     2400500000    2.804523110e-01    1.721030325e-01
     2401250000    2.694596052e-01    1.832878590e-01
     2402000000    2.564487457e-01    1.952456683e-01
     2402750000    2.443766296e-01    2.033033222e-01
     2403500000    2.321860790e-01    2.123071551e-01
     2404250000    2.181252092e-01    2.206480950e-01
     2405000000    2.069677263e-01    2.257275134e-01
     2405750000    1.895364672e-01    2.340524942e-01
     2406500000    1.794169992e-01    2.378330231e-01
     2407250000    1.649272740e-01    2.419839501e-01
     2408000000    1.499501020e-01    2.457482517e-01
     2408750000    1.371160001e-01    2.475871295e-01
     2409500000    1.234679818e-01    2.491137832e-01
     2410250000    1.116527095e-01    2.494522035e-01
     2411000000    9.817760438e-02    2.493689656e-01
     2411750000    8.719216287e-02    2.484203279e-01
     2412500000    7.553023845e-02    2.469087541e-01
     2413250000    6.396616250e-02    2.448136210e-01
     2414000000    5.362786353e-02    2.420047820e-01
     2414750000    4.500311241e-02    2.390914559e-01
     2415500000    3.492388129e-02    2.352846563e-01
     2416250000    2.609132417e-02    2.308665216e-01
     2417000000    1.736851782e-02    2.266708314e-01
     2417750000    9.989122860e-03    2.216494232e-01
     2418500000    3.368034726e-03    2.171029001e-01
     2419250000   -2.972509479e-03    2.120801806e-01
     2420000000   -8.975291625e-03    2.070076615e-01
     2420750000   -1.389750093e-02    2.018786073e-01
     2421500000   -1.866968907e-02    1.971191615e-01
     2422250000   -2.306974120e-02    1.920390874e-01
     2423000000   -2.719086781e-02    1.870576888e-01
     2423750000   -3.042855300e-02    1.822711974e-01
     2424500000   -3.340569884e-02    1.768832654e-01
     2425250000   -3.584332764e-02    1.733075827e-01
     2426000000   -3.844946995e-02    1.695827246e-01
     2426750000   -4.007920623e-02    1.654150039e-01
     2427500000   -4.165293276e-02    1.615939438e-01
     2428250000   -4.315866530e-02    1.588522792e-01
     2429000000   -4.489560053e-02    1.560826153e-01
     2429750000   -4.634628817e-02    1.536318064e-01
     2430500000   -4.760777578e-02    1.515967995e-01
     2431250000   -4.886348173e-02    1.497916430e-01
     2432000000   -5.028487742e-02    1.477474570e-01
     2432750000   -5.193280429e-02    1.467617601e-01
     2433500000   -5.363302305e-02    1.453541964e-01
     2434250000   -5.490049720e-02    1.449315548e-01
     2435000000   -5.703702196e-02    1.440730691e-01
     2435750000   -5.937078595e-02    1.441404521e-01
     2436500000   -6.186567247e-02    1.438122690e-01
     2437250000   -6.504248083e-02    1.433226317e-01
     2438000000   -6.739703566e-02    1.437854618e-01
     2438750000   -7.137590647e-02    1.444730312e-01
     2439500000   -7.553333789e-02    1.443334520e-01
     2440250000   -7.905856520e-02    1.440221518e-01
     2441000000   -8.368363976e-02    1.439200491e-01
     2441750000   -8.834432811e-02    1.438988447e-01
     2442500000   -9.400945902e-02    1.434488297e-01
     2443250000   -9.861731529e-02    1.423157454e-01
     2444000000   -1.044825613e-01    1.417095363e-01
     2444750000   -1.108650342e-01    1.393640935e-01
     2445500000   -1.176218018e-01    1.374818236e-01
     2446250000   -1.229119450e-01    1.355871558e-01
     2447000000   -1.294931620e-01    1.326637119e-01
     2447750000   -1.356936991e-01    1.290657669e-01
     2448500000   -1.425401270e-01    1.248918474e-01
     2449250000   -1.494268030e-01    1.211406589e-01
     2450000000   -1.560869366e-01    1.152678505e-01
     2450750000   -1.621863991e-01    1.100896820e-01
     2451500000   -1.680993289e-01    1.037445813e-01
     2452250000   -1.751456112e-01    9.638272971e-02
     2453000000   -1.818242371e-01    8.889292181e-02
     2453750000   -1.858827770e-01    8.229087293e-02
     2454500000   -1.913904399e-01    7.259804755e-02
     2455250000   -1.959457546e-01    6.431026757e-02
     2456000000   -2.002885342e-01    5.465629324e-02
     2456750000   -2.053113133e-01    4.373040050e-02
     2457500000   -2.079222947e-01    3.415073082e-02
     2458250000   -2.101501226e-01    2.377778478e-02
     2459000000   -2.117013186e-01    1.311276201e-02
     2459750000   -2.147725224e-01   -9.291124297e-04
     2460500000   -2.145994157e-01   -1.082622260e-02
     2461250000   -2.143196762e-01   -2.198052034e-02
     2462000000   -2.130008489e-01   -3.412948921e-02
     2462750000   -2.120885253e-01   -4.503225908e-02
     2463500000   -2.097993344e-01   -5.544202402e-02
     2464250000   -2.065599561e-01   -7.047630847e-02
     2465000000   -2.035205960e-01   -7.799171656e-02
     2465750000   -1.978214234e-01   -9.390754253e-02
     2466500000   -1.932635307e-01   -9.993012995e-02
     2467250000   -1.865472347e-01   -1.133483350e-01
     2468000000   -1.802498698e-01   -1.225133315e-01
     2468750000   -1.722091436e-01   -1.332502961e-01
     2469500000   -1.656911969e-01   -1.396542490e-01
     2470250000   -1.562976539e-01   -1.485116482e-01
     2471000000   -1.456317604e-01   -1.576202810e-01
     2471750000   -1.366772801e-01   -1.628665328e-01
     2472500000   -1.258485764e-01   -1.703783721e-01
     2473250000   -1.152876168e-01   -1.752792746e-01
     2474000000   -1.041574851e-01   -1.797368526e-01
     2474750000   -9.343378246e-02   -1.827773303e-01
     2475500000   -8.157931268e-02   -1.868439317e-01
     2476250000   -6.772535294e-02   -1.892306805e-01
     2477000000   -5.738407746e-02   -1.901201904e-01
     2477750000   -4.556542262e-02   -1.909737289e-01
     2478500000   -3.436561301e-02   -1.905050129e-01
     2479250000   -2.083403990e-02   -1.889181435e-01
     2480000000   -1.234056149e-02   -1.868864596e-01
     2480750000   -9.927141946e-04   -1.847863197e-01
     2481500000    1.147574559e-02   -1.807915866e-01
     2482250000    2.114102803e-02   -1.768845022e-01
     2483000000    3.147401288e-02   -1.723370105e-01
     2483750000    4.098055884e-02   -1.665131152e-01
     2484500000    5.000394955e-02   -1.597253680e-01
     2485250000    5.637090281e-02   -1.543863267e-01
     2486000000    6.454172730e-02   -1.466444582e-01
     2486750000    7.163060457e-02   -1.390577108e-01
     2487500000    7.714691758e-02   -1.303701699e-01
     2488250000    8.322437853e-02   -1.224020943e-01
     2489000000    8.688092977e-02   -1.146427616e-01
     2489750000    9.161165357e-02   -1.049121544e-01
     2490500000    9.495775402e-02   -9.500192851e-02
     2491250000    9.671648592e-02   -8.617653698e-02
     2492000000    9.808607399e-02   -7.823042572e-02
     2492750000    9.905172884e-02   -6.939005852e-02
     2493500000    9.941223264e-02   -5.972549692e-02
     2494250000    9.871179610e-02   -5.110380054e-02
     2495000000    9.817802906e-02   -4.579074308e-02
     2495750000    9.529822320e-02   -3.396007046e-02
     2496500000    9.377397597e-02   -2.836116590e-02
     2497250000    9.038551152e-02   -2.095165662e-02
     2498000000    8.649121970e-02   -1.333403867e-02
     2498750000    8.318294585e-02   -8.508401923e-03
     2499500000    7.775735110e-02   -2.038152656e-03
     2500250000    7.324715704e-02    2.925866051e-03
     2501000000    6.962216645e-02    5.924289115e-03
     2501750000    6.198709086e-02    1.125242840e-02
     2502500000    5.889102444e-02    1.295341644e-02
     2503250000    5.153569207e-02    1.664592512e-02
     2504000000    4.507951438e-02    1.827486977e-02
     2504750000    4.074725136e-02    1.956326887e-02
     2505500000    3.658911958e-02    1.984463818e-02
     2506250000    2.874005586e-02    1.983226836e-02
     2507000000    2.463930845e-02    1.984696090e-02
     2507750000    1.926006004e-02    1.863420941e-02
     2508500000    1.477307267e-02    1.736720279e-02
     2509250000    1.056647208e-02    1.506529190e-02
     2510000000    7.284442428e-03    1.270738523e-02
     2510750000    3.245170694e-03    1.030805148e-02
     2511500000    2.283123176e-04    6.466552615e-03
     2512250000   -2.369812224e-03    3.128786338e-03
     2513000000   -4.074843135e-03   -9.677585913e-04
     2513750000   -5.563489627e-03   -4.308363423e-03
     2514500000   -6.368406583e-03   -8.863002993e-03
     2515250000   -7.354352623e-03   -1.441590488e-02
     2516000000   -7.331499830e-03   -1.752833277e-02
     2516750000   -6.527091842e-03   -2.327201143e-02
     2517500000   -5.336432718e-03   -2.640809305e-02
     2518250000   -3.436083207e-03   -3.066602536e-02
     2519000000   -1.311145956e-03   -3.486014158e-02
     2519750000    1.139439293e-03   -3.820430860e-02
     2520500000    4.051199649e-03   -4.204270616e-02
     2521250000    7.732626982e-03   -4.437459633e-02
     2522000000    1.201588009e-02   -4.693218693e-02
     2522750000    1.591382176e-02   -4.892046377e-02
     2523500000    2.188348211e-02   -5.070902035e-02
     2524250000    2.500624210e-02   -5.098428205e-02
     2525000000    3.044825606e-02   -5.188120902e-02
     2525750000    3.547656536e-02   -5.123018846e-02
     2526500000    4.085801542e-02   -5.127278343e-02
     2527250000    4.512241855e-02   -5.037076026e-02
     2528000000    5.050281063e-02   -4.851299152e-02
     2528750000    5.635733530e-02   -4.613957182e-02
     2529500000    6.058602780e-02   -4.358544573e-02
     2530250000    6.687390804e-02   -3.971565142e-02
     2531000000    7.056922466e-02   -3.611637279e-02
     2531750000    7.493679971e-02   -3.225864470e-02
     2532500000    7.887719572e-02   -2.790745161e-02
     2533250000    8.282375336e-02   -2.203881368e-02
     2534000000    8.597716689e-02   -1.744250581e-02
     2534750000    8.816581219e-02   -1.134739909e-02
     2535500000    9.047766775e-02   -4.570983350e-03
     2536250000    9.192403406e-02    9.411671781e-04
     2537000000    9.261682630e-02    7.079794072e-03
     2537750000    9.307543188e-02    1.329220925e-02
     2538500000    9.287713468e-02    2.006827854e-02
     2539250000    9.151188284e-02    2.683143876e-02
     2540000000    9.037465602e-02    3.221397102e-02
     2540750000    8.847457916e-02    3.881693259e-02
     2541500000    8.503752947e-02    4.553442821e-02
     2542250000    8.201012760e-02    5.276340619e-02
     2543000000    7.834082097e-02    5.603161082e-02
     2543750000    7.362198830e-02    6.197918206e-02
     2544500000    6.863822043e-02    6.766857207e-02
     2545250000    6.340944767e-02    7.114587724e-02
     2546000000    5.774177983e-02    7.499534637e-02
     2546750000    5.216124281e-02    7.780669630e-02
     2547500000    4.475237802e-02    8.115871996e-02
     2548250000    3.788734972e-02    8.353034407e-02
     2549000000    3.082902543e-02    8.517722785e-02
     2549750000    2.371090464e-02    8.576305956e-02
     2550500000    1.584351994e-02    8.595295995e-02
     2551250000    9.445789270e-03    8.555730432e-02
     2552000000    5.549287889e-04    8.429402858e-02
     2552750000   -5.371615756e-03    8.297471702e-02
     2553500000   -1.163405739e-02    8.058808744e-02
     2554250000   -1.869620569e-02    7.794128358e-02
     2555000000   -2.588515542e-02    7.372844964e-02
     2555750000   -3.209347650e-02    7.019494474e-02
     2556500000   -3.900940716e-02    6.405109912e-02
     2557250000   -4.265878722e-02    6.010166928e-02
     2558000000   -4.857506976e-02    5.292770639e-02
     2558750000   -5.182775855e-02    4.756298661e-02
     2559500000   -5.588769168e-02    4.097205773e-02
     2560250000   -5.843932927e-02    3.504118696e-02
     2561000000   -6.039734557e-02    2.778165974e-02
     2561750000   -6.266661733e-02    1.916361041e-02
     2562500000   -6.359709799e-02    1.132116560e-02
     2563250000   -6.339712441e-02    4.560429137e-03
     2564000000   -6.265838444e-02   -2.965748543e-03
     2564750000   -6.182922423e-02   -1.067365985e-02
     2565500000   -5.900646001e-02   -1.760836877e-02
     2566250000   -5.691707507e-02   -2.636011317e-02
     2567000000   -5.365595222e-02   -3.306667134e-02
     2567750000   -4.870957881e-02   -4.034886509e-02
     2568500000   -4.447647557e-02   -4.591118917e-02
     2569250000   -3.860416636e-02   -5.220116675e-02
     2570000000   -3.320393339e-02   -5.767643452e-02
     2570750000   -2.607534081e-02   -6.297513843e-02
     2571500000   -1.862127893e-02   -6.734218448e-02
     2572250000   -1.086196862e-02   -7.103704661e-02
     2573000000   -3.170535434e-03   -7.385449857e-02
     2573750000    4.600436892e-03   -7.581791282e-02
     2574500000    1.414177753e-02   -7.712477446e-02
     2575250000    2.338634245e-02   -7.850129902e-02
     2576000000    3.164559975e-02   -7.722759992e-02
     2576750000    3.977566212e-02   -7.746179402e-02
     2577500000    4.989119247e-02   -7.521810383e-02
     2578250000    5.819763988e-02   -7.287017256e-02
     2579000000    6.834750623e-02   -6.996233761e-02
     2579750000    7.370533794e-02   -6.623141468e-02
     2580500000    8.483611047e-02   -6.077621132e-02
     2581250000    9.241443872e-02   -5.556326732e-02
     2582000000    9.980080277e-02   -4.867775738e-02
     2582750000    1.063529998e-01   -4.233812168e-02
     2583500000    1.131992936e-01   -3.453849629e-02
     2584250000    1.191264316e-01   -2.667325363e-02
     2585000000    1.248856336e-01   -1.661287062e-02
     2585750000    1.289824694e-01   -8.716353215e-03
     2586500000    1.329249591e-01    5.589379580e-04
     2587250000    1.360440403e-01    1.028604340e-02
     2588000000    1.377404481e-01    1.980073377e-02
     2588750000    1.392163783e-01    3.203947470e-02
     2589500000    1.401207298e-01    4.070397094e-02
     2590250000    1.385324150e-01    5.274814740e-02
     2591000000    1.382164359e-01    6.088929251e-02
     2591750000    1.360323876e-01    7.209209353e-02
     2592500000    1.328713149e-01    8.343157917e-02
     2593250000    1.296502948e-01    9.241940081e-02
     2594000000    1.247313544e-01    1.020198911e-01
     2594750000    1.187108159e-01    1.127409786e-01
     2595500000    1.140448898e-01    1.212980449e-01
     2596250000    1.059712842e-01    1.305415928e-01
     2597000000    9.850748628e-02    1.393475980e-01
     2597750000    9.107501805e-02    1.462239176e-01
     2598500000    8.414163440e-02    1.532874554e-01
     2599250000    7.397066057e-02    1.585096717e-01
     2600000000    6.428421289e-02    1.652464569e-01
