! NanoVNA-App
! Date: 2026-05-22 16:01:34
! Start: 2.3GHz Stop: 2.6GHz Points: 401
! S-Parameter data: F S11
# Hz S RI R 50
!     Frequency           S11_Real           S11_Imag
     2300000000   -2.306196094e-01   -5.072510242e-01
     2300750000   -1.890427023e-01   -5.224070549e-01
     2301500000   -1.445062160e-01   -5.356247425e-01
     2302250000   -9.845374525e-02   -5.431860089e-01
     2303000000   -5.417891964e-02   -5.487201810e-01
     2303750000   -8.377880789e-03   -5.492364168e-01
     2304500000    3.473587334e-02   -5.466018319e-01
     2305250000    8.239708841e-02   -5.393670797e-01
     2306000000    1.259397715e-01   -5.302317739e-01
     2306750000    1.688067317e-01   -5.164795518e-01
     2307500000    2.101008594e-01   -4.990744889e-01
     2308250000    2.511999309e-01   -4.779212475e-01
     2309000000    2.894648015e-01   -4.548764825e-01
     2309750000    3.253656328e-01   -4.285665452e-01
     2310500000    3.588297069e-01   -3.985707164e-01
     2311250000    3.904094398e-01   -3.665543795e-01
     2312000000    4.175101221e-01   -3.334442377e-01
     2312750000    4.429925084e-01   -2.963698804e-01
     2313500000    4.653323293e-01   -2.572748661e-01
     2314250000    4.831674993e-01   -2.182317525e-01
     2315000000    4.991101325e-01   -1.766004413e-01
     2315750000    5.111535788e-01   -1.335724145e-01
     2316500000    5.192760229e-01   -9.145818651e-02
     2317250000    5.241184831e-01   -4.642849416e-02
     2318000000    5.258128643e-01   -2.992541995e-03
     2318750000    5.226160288e-01    4.183440283e-02
     2319500000    5.178621411e-01    8.142127097e-02
     2320250000    5.078670979e-01    1.243315041e-01
     2321000000    4.950385094e-01    1.676281989e-01
     2321750000    4.777345657e-01    2.090073377e-01
     2322500000    4.593727589e-01    2.459432632e-01
     2323250000    4.368199408e-01    2.817385793e-01
     2324000000    4.112149179e-01    3.176032305e-01
     2324750000    3.831127882e-01    3.488272727e-01
     2325500000    3.517409563e-01    3.798808157e-01
     2326250000    3.177977204e-01    4.087071717e-01
     2327000000    2.849005461e-01    4.315646589e-01
     2327750000    2.466426194e-01    4.531307220e-01
     2328500000    2.082258463e-01    4.710499048e-01
     2329250000    1.678398252e-01    4.869459569e-01
     2330000000    1.280115992e-01    4.985636771e-01
     2330750000    8.762023598e-02    5.065627098e-01
     2331500000    4.450549558e-02    5.116224885e-01
     2332250000    2.679441357e-03    5.126520395e-01
     2333000000   -3.969174251e-02    5.104892850e-01
     2333750000   -8.141910285e-02    5.042173862e-01
     2334500000   -1.204505339e-01    4.959310889e-01
     2335250000   -1.620065272e-01    4.830232561e-01
     2336000000   -2.007141262e-01    4.670308232e-01
     2336750000   -2.371125221e-01    4.492931962e-01
     2337500000   -2.730810046e-01    4.274376631e-01
     2338250000   -3.071840703e-01    4.032157958e-01
     2339000000   -3.387649655e-01    3.756806850e-01
     2339750000   -3.669596016e-01    3.468935192e-01
     2340500000   -3.942929804e-01    3.142384589e-01
     2341250000   -4.175297022e-01    2.807569206e-01
     2342000000   -4.381318986e-01    2.456153333e-01
     2342750000   -4.566578269e-01    2.068470567e-01
     2343500000   -4.705899954e-01    1.694817543e-01
     2344250000   -4.816783667e-01    1.305288225e-01
     2345000000   -4.896036983e-01    9.077675641e-02
     2345750000   -4.945981503e-01    4.809858277e-02
     2346500000   -4.959086180e-01    8.316831663e-03
     2347250000   -4.937410057e-01   -3.093369305e-02
     2348000000   -4.885209799e-01   -7.348734140e-02
     2348750000   -4.796174467e-01   -1.138670966e-01
     2349500000   -4.677467644e-01   -1.508221477e-01
     2350250000   -4.535720944e-01   -1.869089156e-01
     2351000000   -4.341928065e-01   -2.252707630e-01
     2351750000   -4.123695493e-01   -2.612124383e-01
     2352500000   -3.912688792e-01   -2.902511358e-01
     2353250000   -3.636379838e-01   -3.227639198e-01
     2354000000   -3.332368731e-01   -3.535624743e-01
     2354750000   -3.044768572e-01   -3.771989048e-01
     2355500000   -2.695313394e-01   -4.021901190e-01
     2356250000   -2.360141277e-01   -4.221535325e-01
     2357000000   -1.985368133e-01   -4.403756857e-01
     2357750000   -1.618974060e-01   -4.538860321e-01
     2358500000   -1.222491711e-01   -4.664446414e-01
     2359250000   -8.498467505e-02   -4.742241502e-01
     2360000000   -4.487468302e-02   -4.796237051e-01
     2360750000   -3.939587157e-03   -4.817475379e-01
     2361500000    3.613558412e-02   -4.803505242e-01
     2362250000    7.394022495e-02   -4.757016301e-01
     2363000000    1.145734638e-01   -4.677617848e-01
     2363750000    1.516091079e-01   -4.566890895e-01
     2364500000    1.878131777e-01   -4.424183369e-01
     2365250000    2.237019539e-01   -4.248406589e-01
     2366000000    2.576336861e-01   -4.046244621e-01
     2366750000    2.884797752e-01   -3.822564781e-01
     2367500000    3.178459108e-01   -3.565176129e-01
     2368250000    3.464699984e-01   -3.284820616e-01
     2369000000    3.714091480e-01   -2.982074320e-01
     2369750000    3.945007920e-01   -2.660780549e-01
     2370500000    4.148348272e-01   -2.315895110e-01
     2371250000    4.314310551e-01   -1.967064291e-01
     2372000000    4.453726709e-01   -1.606490314e-01
     2372750000    4.569632411e-01   -1.214155629e-01
     2373500000    4.642797410e-01   -8.376710862e-02
     2374250000    4.696443081e-01   -4.449720308e-02
     2375000000    4.706382453e-01   -5.868239794e-03
     2375750000    4.692789018e-01    3.482670709e-02
     2376500000    4.642010629e-01    7.102248818e-02
     2377250000    4.560260475e-01    1.108193547e-01
     2378000000    4.446135461e-01    1.488014460e-01
     2378750000    4.306696951e-01    1.835995913e-01
     2379500000    4.135312438e-01    2.196273357e-01
     2380250000    3.935531080e-01    2.540421486e-01
     2381000000    3.712176681e-01    2.835660279e-01
     2381750000    3.453819454e-01    3.139779568e-01
     2382500000    3.174225092e-01    3.429694474e-01
     2383250000    2.887765765e-01    3.646743596e-01
     2384000000    2.556102276e-01    3.893929720e-01
     2384750000    2.231384516e-01    4.081871510e-01
     2385500000    1.873842776e-01    4.251930118e-01
     2386250000    1.541556716e-01    4.369417429e-01
     2387000000    1.153101474e-01    4.482068717e-01
     2387750000    7.834365964e-02    4.550349712e-01
     2388500000    3.790541366e-02    4.604685903e-01
     2389250000   -1.280494849e-03    4.616646767e-01
     2390000000   -3.817876056e-02    4.588663280e-01
     2390750000   -7.758728415e-02    4.532395899e-01
     2391500000   -1.161379442e-01    4.443177879e-01
     2392250000   -1.535999328e-01    4.338686168e-01
     2393000000   -1.882720143e-01    4.184618294e-01
     2393750000   -2.219917625e-01    4.009908140e-01
     2394500000   -2.562918663e-01    3.806948960e-01
     2395250000   -2.858810127e-01    3.576739728e-01
     2396000000   -3.167861700e-01    3.322126567e-01
     2396750000   -3.423627913e-01    3.046600819e-01
     2397500000   -3.661077321e-01    2.755224407e-01
     2398250000   -3.881908059e-01    2.436709553e-01
     2399000000   -4.075244069e-01    2.097383142e-01
     2399750000   -4.241957068e-01    1.742219478e-01
     2400500000   -4.354863763e-01    1.394885778e-01
     2401250000   -4.464102387e-01    1.009251848e-01
     2402000000   -4.527664185e-01    6.424781680e-02
     2402750000   -4.574652910e-01    2.563937940e-02
     2403500000   -4.578287005e-01   -1.163010113e-02
     2404250000   -4.548399150e-01   -5.121394619e-02
     2405000000   -4.486507773e-01   -8.762505651e-02
     2405750000   -4.391967356e-01   -1.248872131e-01
     2406500000   -4.271690249e-01   -1.630299389e-01
     2407250000   -4.124064744e-01   -1.954535395e-01
     2408000000   -3.936828673e-01   -2.323457599e-01
     2408750000   -3.729100227e-01   -2.612889111e-01
     2409500000   -3.490984738e-01   -2.927354872e-01
     2410250000   -3.218433857e-01   -3.221375346e-01
     2411000000   -2.950911820e-01   -3.456811309e-01
     2411750000   -2.639465630e-01   -3.702097535e-01
     2412500000   -2.316065431e-01   -3.906863332e-01
     2413250000   -1.976637393e-01   -4.092975259e-01
     2414000000   -1.626188457e-01   -4.243433475e-01
     2414750000   -1.251254380e-01   -4.377113879e-01
     2415500000   -8.837766945e-02   -4.467626512e-01
     2416250000   -5.032145604e-02   -4.522171915e-01
     2417000000   -1.273193676e-02   -4.541766644e-01
     2417750000    2.533067390e-02   -4.531080127e-01
     2418500000    6.351190805e-02   -4.499674141e-01
     2419250000    1.002613753e-01   -4.426295757e-01
     2420000000    1.385862976e-01   -4.323565066e-01
     2420750000    1.737277657e-01   -4.187444448e-01
     2421500000    2.087008357e-01   -4.027401805e-01
     2422250000    2.415433377e-01   -3.828803003e-01
     2423000000    2.704474330e-01   -3.629888594e-01
     2423750000    2.995268703e-01   -3.391401768e-01
     2424500000    3.281399310e-01   -3.111252189e-01
     2425250000    3.523367643e-01   -2.831760347e-01
     2426000000    3.753717542e-01   -2.512905896e-01
     2426750000    3.958806396e-01   -2.178822309e-01
     2427500000    4.100109935e-01   -1.851892620e-01
     2428250000    4.254093170e-01   -1.489147395e-01
     2429000000    4.365092218e-01   -1.111861244e-01
     2429750000    4.456201494e-01   -7.102095336e-02
     2430500000    4.501473010e-01   -3.516529500e-02
     2431250000    4.497939050e-01    7.915489841e-04
     2432000000    4.473761618e-01    3.892441466e-02
     2432750000    4.432134032e-01    8.195823431e-02
     2433500000    4.342544675e-01    1.159902140e-01
     2434250000    4.234943986e-01    1.558815539e-01
     2435000000    4.089009166e-01    1.869275868e-01
     2435750000    3.903475106e-01    2.244540751e-01
     2436500000    3.705835342e-01    2.531675696e-01
     2437250000    3.464898169e-01    2.859255672e-01
     2438000000    3.216860294e-01    3.141748011e-01
     2438750000    2.915304303e-01    3.432511389e-01
     2439500000    2.634600103e-01    3.649648726e-01
     2440250000    2.308261096e-01    3.839589655e-01
     2441000000    1.948276162e-01    4.056361318e-01
     2441750000    1.632242203e-01    4.169633985e-01
     2442500000    1.262857616e-01    4.305004478e-01
     2443250000    8.646675944e-02    4.402891695e-01
     2444000000    5.022768676e-02    4.455339015e-01
     2444750000    1.008841023e-02    4.490567446e-01
     2445500000   -2.716131881e-02    4.477282465e-01
     2446250000   -6.857223064e-02    4.442560971e-01
     2447000000   -1.026981398e-01    4.367111921e-01
     2447750000   -1.404176503e-01    4.260569513e-01
     2448500000   -1.779044122e-01    4.124563932e-01
     2449250000   -2.128321379e-01    3.960430622e-01
     2450000000   -2.453057319e-01    3.759808540e-01
     2450750000   -2.768239677e-01    3.544942141e-01
     2451500000   -3.062694967e-01    3.286546171e-01
     2452250000   -3.352899849e-01    3.002741337e-01
     2453000000   -3.579097688e-01    2.719286084e-01
     2453750000   -3.798437119e-01    2.405794114e-01
     2454500000   -3.989332318e-01    2.068622708e-01
     2455250000   -4.155950248e-01    1.731024235e-01
     2456000000   -4.283311367e-01    1.371786296e-01
     2456750000   -4.374606013e-01    1.003419608e-01
     2457500000   -4.460467994e-01    6.120094284e-02
     2458250000   -4.500071108e-01    2.385256812e-02
     2459000000   -4.507377148e-01   -1.551851537e-02
     2459750000   -4.471904337e-01   -5.457606167e-02
     2460500000   -4.396170676e-01   -8.858482540e-02
     2461250000   -4.303971529e-01   -1.264375746e-01
     2462000000   -4.171396792e-01   -1.680938601e-01
     2462750000   -4.022724330e-01   -1.996537894e-01
     2463500000   -3.836452961e-01   -2.290979177e-01
     2464250000   -3.606355488e-01   -2.685891986e-01
     2465000000   -3.364306688e-01   -2.956913114e-01
     2465750000   -3.092906773e-01   -3.228882849e-01
     2466500000   -2.810641229e-01   -3.459661901e-01
     2467250000   -2.491074055e-01   -3.716627061e-01
     2468000000   -2.157153636e-01   -3.920081556e-01
     2468750000   -1.807552427e-01   -4.087073803e-01
     2469500000   -1.474558711e-01   -4.204240143e-01
     2470250000   -1.086360067e-01   -4.326991141e-01
     2471000000   -6.468796730e-02   -4.422201812e-01
     2471750000   -3.214567155e-02   -4.445810616e-01
     2472500000    2.349242568e-03   -4.442687333e-01
     2473250000    4.341040179e-02   -4.428381026e-01
     2474000000    8.549156040e-02   -4.379097521e-01
     2474750000    1.213790625e-01   -4.273041785e-01
     2475500000    1.578049213e-01   -4.158914983e-01
     2476250000    1.904019266e-01   -4.014123380e-01
     2477000000    2.263327688e-01   -3.829020858e-01
     2477750000    2.581483722e-01   -3.613093793e-01
     2478500000    2.861263454e-01   -3.389074206e-01
     2479250000    3.191116452e-01   -3.097749650e-01
     2480000000    3.431732655e-01   -2.815753818e-01
     2480750000    3.672715724e-01   -2.493606359e-01
     2481500000    3.880043030e-01   -2.165348828e-01
     2482250000    4.041330814e-01   -1.828374267e-01
     2483000000    4.184650779e-01   -1.467017233e-01
     2483750000    4.293028116e-01   -1.099352166e-01
     2484500000    4.385016561e-01   -7.120037079e-02
     2485250000    4.428206682e-01   -3.182646260e-02
     2486000000    4.431690872e-01    4.080392886e-03
     2486750000    4.409549534e-01    4.415681958e-02
     2487500000    4.355890155e-01    8.107093722e-02
     2488250000    4.269366860e-01    1.182999164e-01
     2489000000    4.152217805e-01    1.550932378e-01
     2489750000    4.005230069e-01    1.893869936e-01
     2490500000    3.826666176e-01    2.263123095e-01
     2491250000    3.603339195e-01    2.592709959e-01
     2492000000    3.368761241e-01    2.881265879e-01
     2492750000    3.118495941e-01    3.160168529e-01
     2493500000    2.792571485e-01    3.445905745e-01
     2494250000    2.516800761e-01    3.648690879e-01
     2495000000    2.181997597e-01    3.861839771e-01
     2495750000    1.845991910e-01    4.026075304e-01
     2496500000    1.467403024e-01    4.169507921e-01
     2497250000    1.106041074e-01    4.281818867e-01
     2498000000    7.555231452e-02    4.363556206e-01
     2498750000    3.232870996e-02    4.422861934e-01
     2499500000   -6.172868889e-03    4.429915547e-01
     2500250000   -4.553048685e-02    4.407189488e-01
     2501000000   -7.964712381e-02    4.354578555e-01
     2501750000   -1.220319495e-01    4.263046682e-01
     2502500000   -1.604945511e-01    4.130774438e-01
     2503250000   -1.915320158e-01    3.989801407e-01
     2504000000   -2.298294902e-01    3.784690499e-01
     2504750000   -2.585138083e-01    3.595018983e-01
     2505500000   -2.920618951e-01    3.334926963e-01
     2506250000   -3.198845685e-01    3.073752522e-01
     2507000000   -3.469948471e-01    2.756796479e-01
     2507750000   -3.659914732e-01    2.508301139e-01
     2508500000   -3.881732523e-01    2.155456543e-01
     2509250000   -4.049335718e-01    1.816069186e-01
     2510000000   -4.220499694e-01    1.412175894e-01
     2510750000   -4.328632355e-01    1.032992750e-01
     2511500000   -4.394991696e-01    6.725978851e-02
     2512250000   -4.452731311e-01    2.708010375e-02
     2513000000   -4.464788139e-01   -8.318567649e-03
     2513750000   -4.445548356e-01   -4.880661145e-02
     2514500000   -4.386629760e-01   -8.860178292e-02
     2515250000   -4.290967584e-01   -1.298911572e-01
     2516000000   -4.184429944e-01   -1.615813524e-01
     2516750000   -4.028897882e-01   -1.974368095e-01
     2517500000   -3.837316036e-01   -2.332234085e-01
     2518250000   -3.602524698e-01   -2.688011527e-01
     2519000000   -3.367655277e-01   -2.978649139e-01
     2519750000   -3.106674850e-01   -3.256974220e-01
     2520500000   -2.824290395e-01   -3.508289754e-01
     2521250000   -2.496062815e-01   -3.752228320e-01
     2522000000   -2.157664001e-01   -3.952495754e-01
     2522750000   -1.832018644e-01   -4.113672078e-01
     2523500000   -1.459173113e-01   -4.272003770e-01
     2524250000   -1.071739867e-01   -4.380818605e-01
     2525000000   -7.130923867e-02   -4.457275569e-01
     2525750000   -2.946279943e-02   -4.500860870e-01
     2526500000    9.741832502e-03   -4.509376287e-01
     2527250000    4.790691659e-02   -4.479605854e-01
     2528000000    8.550644666e-02   -4.419809878e-01
     2528750000    1.251659840e-01   -4.323500395e-01
     2529500000    1.614718437e-01   -4.190566540e-01
     2530250000    1.982166320e-01   -4.033305943e-01
     2531000000    2.316934019e-01   -3.834812641e-01
     2531750000    2.641684711e-01   -3.617492914e-01
     2532500000    2.943571806e-01   -3.369711339e-01
     2533250000    3.236825466e-01   -3.096219897e-01
     2534000000    3.492571712e-01   -2.791102827e-01
     2534750000    3.725675344e-01   -2.463512868e-01
     2535500000    3.926222920e-01   -2.137982249e-01
     2536250000    4.086712003e-01   -1.784220934e-01
     2537000000    4.229853749e-01   -1.403851658e-01
     2537750000    4.329339862e-01   -1.040545851e-01
     2538500000    4.399702549e-01   -6.581112742e-02
     2539250000    4.444019496e-01   -2.402831428e-02
     2540000000    4.444029927e-01    1.249269024e-02
     2540750000    4.407530725e-01    5.134544522e-02
     2541500000    4.356909692e-01    9.006459266e-02
     2542250000    4.258584380e-01    1.302656680e-01
     2543000000    4.114414454e-01    1.662538201e-01
     2543750000    3.961069286e-01    2.004507333e-01
     2544500000    3.769522905e-01    2.347746789e-01
     2545250000    3.528847098e-01    2.709198892e-01
     2546000000    3.310728967e-01    2.967198193e-01
     2546750000    3.013783991e-01    3.250696659e-01
     2547500000    2.722376287e-01    3.507965207e-01
     2548250000    2.404814363e-01    3.729494512e-01
     2549000000    2.079258412e-01    3.911926746e-01
     2549750000    1.687859595e-01    4.092255831e-01
     2550500000    1.351871789e-01    4.219677448e-01
     2551250000    9.265853465e-02    4.328787923e-01
     2552000000    6.103615835e-02    4.383286536e-01
     2552750000    1.838314906e-02    4.425648749e-01
     2553500000   -1.838164032e-02    4.423204064e-01
     2554250000   -5.801015347e-02    4.378218055e-01
     2555000000   -9.378384799e-02    4.308816791e-01
     2555750000   -1.270967871e-01    4.217966795e-01
     2556500000   -1.717471629e-01    4.059812725e-01
     2557250000   -2.088612169e-01    3.872716427e-01
     2558000000   -2.389008850e-01    3.693337142e-01
     2558750000   -2.708159685e-01    3.462049961e-01
     2559500000   -2.988543510e-01    3.222985864e-01
     2560250000   -3.256400228e-01    2.955999374e-01
     2561000000   -3.533325195e-01    2.609817684e-01
     2561750000   -3.708189130e-01    2.345052510e-01
     2562500000   -3.937613368e-01    1.930485070e-01
     2563250000   -4.070851803e-01    1.621008068e-01
     2564000000   -4.197334051e-01    1.235472932e-01
     2564750000   -4.280330837e-01    9.298051149e-02
     2565500000   -4.356125593e-01    4.577499628e-02
     2566250000   -4.384619892e-01    1.047448255e-02
     2567000000   -4.363181889e-01   -2.612141706e-02
     2567750000   -4.333028197e-01   -6.342913955e-02
     2568500000   -4.235922098e-01   -1.063811556e-01
     2569250000   -4.146338105e-01   -1.358639151e-01
     2570000000   -3.981970847e-01   -1.788758934e-01
     2570750000   -3.820621371e-01   -2.107105702e-01
     2571500000   -3.616074324e-01   -2.427680194e-01
     2572250000   -3.397587538e-01   -2.724701464e-01
     2573000000   -3.134543300e-01   -3.008984029e-01
     2573750000   -2.840034962e-01   -3.287324011e-01
     2574500000   -2.570098042e-01   -3.505150080e-01
     2575250000   -2.221354991e-01   -3.727823496e-01
     2576000000   -1.878153384e-01   -3.922372162e-01
     2576750000   -1.525138170e-01   -4.059196711e-01
     2577500000   -1.161801368e-01   -4.172751307e-01
     2578250000   -7.747717947e-02   -4.259597957e-01
     2579000000   -4.032512009e-02   -4.305689037e-01
     2579750000   -1.494122320e-03   -4.323911071e-01
     2580500000    3.689382970e-02   -4.309197068e-01
     2581250000    7.469052821e-02   -4.258460402e-01
     2582000000    1.107537746e-01   -4.175250828e-01
     2582750000    1.488250494e-01   -4.051658809e-01
     2583500000    1.853920817e-01   -3.900605142e-01
     2584250000    2.161736786e-01   -3.733597696e-01
     2585000000    2.466094196e-01   -3.541451097e-01
     2585750000    2.801449895e-01   -3.272562325e-01
     2586500000    3.084437847e-01   -3.008502722e-01
     2587250000    3.322174847e-01   -2.744744420e-01
     2588000000    3.533321023e-01   -2.447282225e-01
     2588750000    3.743439019e-01   -2.121935785e-01
     2589500000    3.900788724e-01   -1.790078431e-01
     2590250000    4.037531614e-01   -1.463169158e-01
     2591000000    4.162353277e-01   -1.041632667e-01
     2591750000    4.219854176e-01   -7.267621160e-02
     2592500000    4.260435998e-01   -2.969472297e-02
     2593250000    4.269894958e-01    4.560086410e-03
     2594000000    4.241202772e-01    4.650142789e-02
     2594750000    4.197695851e-01    7.737354189e-02
     2595500000    4.091374874e-01    1.169600710e-01
     2596250000    3.955958486e-01    1.556103379e-01
     2597000000    3.836967945e-01    1.851167381e-01
     2597750000    3.615037203e-01    2.226246446e-01
     2598500000    3.422383964e-01    2.502334714e-01
     2599250000    3.184171319e-01    2.798348665e-01
     2600000000    2.949654758e-01    3.049965799e-01
