! NanoVNA-App
! Date: 2026-05-22 16:00:33
! Start: 2.3GHz Stop: 2.6GHz Points: 401
! S-Parameter data: F S11
# Hz S RI R 50
!     Frequency           S11_Real           S11_Imag
     2300000000   -2.382227182e-01   -5.017183423e-01
     2300750000   -1.961405277e-01   -5.189073682e-01
     2301500000   -1.511356831e-01   -5.327041149e-01
     2302250000   -1.073065624e-01   -5.407075882e-01
     2303000000   -5.999444053e-02   -5.469885468e-01
     2303750000   -1.673797518e-02   -5.488603711e-01
     2304500000    2.845145017e-02   -5.464648008e-01
     2305250000    7.365463674e-02   -5.406478047e-01
     2306000000    1.175406501e-01   -5.312944651e-01
     2306750000    1.625283957e-01   -5.170402527e-01
     2307500000    2.030078918e-01   -5.021250844e-01
     2308250000    2.432774305e-01   -4.810023606e-01
     2309000000    2.814461291e-01   -4.586528242e-01
     2309750000    3.172207773e-01   -4.327740967e-01
     2310500000    3.510277569e-01   -4.034338295e-01
     2311250000    3.824329376e-01   -3.726970851e-01
     2312000000    4.108367860e-01   -3.368546665e-01
     2312750000    4.363735616e-01   -2.995333374e-01
     2313500000    4.583387375e-01   -2.626175284e-01
     2314250000    4.765882492e-01   -2.235024422e-01
     2315000000    4.934639335e-01   -1.811311543e-01
     2315750000    5.055485964e-01   -1.378075927e-01
     2316500000    5.139198303e-01   -9.580328315e-02
     2317250000    5.191272497e-01   -5.161977559e-02
     2318000000    5.211001039e-01   -8.409935050e-03
     2318750000    5.193244815e-01    3.391774744e-02
     2319500000    5.138925910e-01    7.753273845e-02
     2320250000    5.035967231e-01    1.218553409e-01
     2321000000    4.925105870e-01    1.624004096e-01
     2321750000    4.761675894e-01    2.032246143e-01
     2322500000    4.560603797e-01    2.428820878e-01
     2323250000    4.361811578e-01    2.772183716e-01
     2324000000    4.108910263e-01    3.129558861e-01
     2324750000    3.821509182e-01    3.456890583e-01
     2325500000    3.521333933e-01    3.763512671e-01
     2326250000    3.203091025e-01    4.042170644e-01
     2327000000    2.865731716e-01    4.282911122e-01
     2327750000    2.489787042e-01    4.497489035e-01
     2328500000    2.129484564e-01    4.674847126e-01
     2329250000    1.705406755e-01    4.837863147e-01
     2330000000    1.336912364e-01    4.951995909e-01
     2330750000    9.187646955e-02    5.040227175e-01
     2331500000    5.052684993e-02    5.090810061e-01
     2332250000    8.468938991e-03    5.105185509e-01
     2333000000   -3.406783938e-02    5.086821318e-01
     2333750000   -7.416709512e-02    5.034127831e-01
     2334500000   -1.144366786e-01    4.945763052e-01
     2335250000   -1.543500721e-01    4.823345542e-01
     2336000000   -1.923373938e-01    4.670986235e-01
     2336750000   -2.294892967e-01    4.485574067e-01
     2337500000   -2.653743327e-01    4.275194108e-01
     2338250000   -2.994303703e-01    4.028768241e-01
     2339000000   -3.300288618e-01    3.766708076e-01
     2339750000   -3.590746820e-01    3.475831449e-01
     2340500000   -3.857796788e-01    3.157352805e-01
     2341250000   -4.099367559e-01    2.820346057e-01
     2342000000   -4.307240546e-01    2.467438728e-01
     2342750000   -4.488613307e-01    2.101885229e-01
     2343500000   -4.636765122e-01    1.725572199e-01
     2344250000   -4.754380286e-01    1.325577497e-01
     2345000000   -4.843020439e-01    9.112852812e-02
     2345750000   -4.888424873e-01    5.215223879e-02
     2346500000   -4.909792542e-01    1.251567621e-02
     2347250000   -4.888873994e-01   -2.885699645e-02
     2348000000   -4.840038121e-01   -7.077824324e-02
     2348750000   -4.763316512e-01   -1.102111563e-01
     2349500000   -4.646169245e-01   -1.486741751e-01
     2350250000   -4.509198666e-01   -1.856151819e-01
     2351000000   -4.336164892e-01   -2.204163373e-01
     2351750000   -4.125118256e-01   -2.568442225e-01
     2352500000   -3.899081945e-01   -2.889733911e-01
     2353250000   -3.640678823e-01   -3.205566108e-01
     2354000000   -3.360982835e-01   -3.483091295e-01
     2354750000   -3.046028614e-01   -3.762159348e-01
     2355500000   -2.727909088e-01   -3.985745609e-01
     2356250000   -2.383687347e-01   -4.206041694e-01
     2357000000   -2.021755725e-01   -4.392051995e-01
     2357750000   -1.655805409e-01   -4.531481862e-01
     2358500000   -1.271306276e-01   -4.657253623e-01
     2359250000   -8.915918320e-02   -4.743985832e-01
     2360000000   -4.939695820e-02   -4.800375104e-01
     2360750000   -9.923059493e-03   -4.823982120e-01
     2361500000    2.863937803e-02   -4.816803336e-01
     2362250000    6.888833642e-02   -4.775678515e-01
     2363000000    1.072521508e-01   -4.701841474e-01
     2363750000    1.451304108e-01   -4.592826068e-01
     2364500000    1.812175363e-01   -4.461309016e-01
     2365250000    2.177474052e-01   -4.289569557e-01
     2366000000    2.513312995e-01   -4.099368751e-01
     2366750000    2.830780149e-01   -3.876736164e-01
     2367500000    3.137692511e-01   -3.618952632e-01
     2368250000    3.421478271e-01   -3.347759247e-01
     2369000000    3.666827083e-01   -3.058890998e-01
     2369750000    3.909702599e-01   -2.735462189e-01
     2370500000    4.107812941e-01   -2.406304777e-01
     2371250000    4.294839501e-01   -2.049158663e-01
     2372000000    4.429592788e-01   -1.699895710e-01
     2372750000    4.548934698e-01   -1.314468831e-01
     2373500000    4.643166363e-01   -9.240081906e-02
     2374250000    4.694638848e-01   -5.424933136e-02
     2375000000    4.721324146e-01   -1.426105481e-02
     2375750000    4.711874425e-01    2.449652366e-02
     2376500000    4.666443765e-01    6.078392267e-02
     2377250000    4.595740438e-01    1.031315625e-01
     2378000000    4.487619996e-01    1.390354782e-01
     2378750000    4.355077744e-01    1.749124080e-01
     2379500000    4.188967347e-01    2.104791105e-01
     2380250000    3.997691572e-01    2.442284524e-01
     2381000000    3.776845932e-01    2.749602497e-01
     2381750000    3.522576690e-01    3.077181876e-01
     2382500000    3.260109127e-01    3.336069584e-01
     2383250000    2.962422669e-01    3.603843153e-01
     2384000000    2.650882602e-01    3.828715384e-01
     2384750000    2.330757827e-01    4.024595618e-01
     2385500000    1.978999972e-01    4.201527536e-01
     2386250000    1.637060791e-01    4.335501790e-01
     2387000000    1.265341192e-01    4.448313415e-01
     2387750000    8.649217337e-02    4.554879665e-01
     2388500000    4.929891974e-02    4.594149888e-01
     2389250000    1.136881672e-02    4.609233737e-01
     2390000000   -2.634431422e-02    4.601263702e-01
     2390750000   -6.795948744e-02    4.555775225e-01
     2391500000   -1.048623770e-01    4.477337003e-01
     2392250000   -1.412343383e-01    4.378493428e-01
     2393000000   -1.777155995e-01    4.234513342e-01
     2393750000   -2.126059830e-01    4.068197012e-01
     2394500000   -2.472286522e-01    3.870695531e-01
     2395250000   -2.784278989e-01    3.648154140e-01
     2396000000   -3.088549078e-01    3.395006955e-01
     2396750000   -3.354022205e-01    3.128607869e-01
     2397500000   -3.606359661e-01    2.830430567e-01
     2398250000   -3.831400871e-01    2.523639202e-01
     2399000000   -4.035561979e-01    2.186220437e-01
     2399750000   -4.202533066e-01    1.841547191e-01
     2400500000   -4.354962409e-01    1.467105150e-01
     2401250000   -4.455127418e-01    1.109190434e-01
     2402000000   -4.537569284e-01    7.268635184e-02
     2402750000   -4.580899179e-01    3.568523750e-02
     2403500000   -4.594656527e-01   -3.342304612e-03
     2404250000   -4.572960138e-01   -4.049716145e-02
     2405000000   -4.524443150e-01   -7.914181054e-02
     2405750000   -4.441604912e-01   -1.175975874e-01
     2406500000   -4.324421287e-01   -1.541423053e-01
     2407250000   -4.182233512e-01   -1.913204491e-01
     2408000000   -4.001201093e-01   -2.243060619e-01
     2408750000   -3.789957464e-01   -2.574366629e-01
     2409500000   -3.566088974e-01   -2.878280580e-01
     2410250000   -3.298523426e-01   -3.176846504e-01
     2411000000   -3.028178811e-01   -3.432672620e-01
     2411750000   -2.728469372e-01   -3.679385781e-01
     2412500000   -2.396048903e-01   -3.905199766e-01
     2413250000   -2.058699131e-01   -4.100519419e-01
     2414000000   -1.708404571e-01   -4.252453744e-01
     2414750000   -1.338682920e-01   -4.393639565e-01
     2415500000   -9.744007140e-02   -4.487231672e-01
     2416250000   -5.952508375e-02   -4.557372928e-01
     2417000000   -1.920830272e-02   -4.596140683e-01
     2417750000    1.921238750e-02   -4.593463540e-01
     2418500000    5.766572803e-02   -4.563528895e-01
     2419250000    9.442853928e-02   -4.493056238e-01
     2420000000    1.326944530e-01   -4.407358468e-01
     2420750000    1.697609872e-01   -4.273321033e-01
     2421500000    2.049699128e-01   -4.118390977e-01
     2422250000    2.394946218e-01   -3.930353224e-01
     2423000000    2.701105773e-01   -3.719009757e-01
     2423750000    3.011808991e-01   -3.474150300e-01
     2424500000    3.298202753e-01   -3.207886517e-01
     2425250000    3.556502163e-01   -2.913228869e-01
     2426000000    3.794056475e-01   -2.597525716e-01
     2426750000    3.990161121e-01   -2.272394449e-01
     2427500000    4.186510444e-01   -1.905157417e-01
     2428250000    4.316024184e-01   -1.561338753e-01
     2429000000    4.426147044e-01   -1.200157553e-01
     2429750000    4.512678683e-01   -8.043377101e-02
     2430500000    4.578104615e-01   -4.025479779e-02
     2431250000    4.596729279e-01   -1.538474113e-03
     2432000000    4.562757909e-01    3.225813434e-02
     2432750000    4.527697265e-01    7.466285676e-02
     2433500000    4.448750913e-01    1.163297594e-01
     2434250000    4.341516495e-01    1.539656073e-01
     2435000000    4.204022586e-01    1.871478856e-01
     2435750000    4.025729895e-01    2.210673243e-01
     2436500000    3.812392056e-01    2.604403198e-01
     2437250000    3.600618839e-01    2.843666971e-01
     2438000000    3.346337378e-01    3.140988946e-01
     2438750000    3.057481050e-01    3.461957872e-01
     2439500000    2.743022442e-01    3.713363409e-01
     2440250000    2.405887991e-01    3.938481212e-01
     2441000000    2.104978561e-01    4.111314714e-01
     2441750000    1.744887233e-01    4.272362590e-01
     2442500000    1.334681958e-01    4.436551332e-01
     2443250000    9.971837699e-02    4.512135684e-01
     2444000000    5.939629301e-02    4.590361416e-01
     2444750000    1.896238700e-02    4.633235931e-01
     2445500000   -1.904856786e-02    4.631791711e-01
     2446250000   -5.974720046e-02    4.601922035e-01
     2447000000   -9.695584327e-02    4.527202845e-01
     2447750000   -1.394947171e-01    4.427850842e-01
     2448500000   -1.752510667e-01    4.290637374e-01
     2449250000   -2.112146020e-01    4.123981595e-01
     2450000000   -2.458518595e-01    3.926624060e-01
     2450750000   -2.791950703e-01    3.707032204e-01
     2451500000   -3.087774813e-01    3.453201950e-01
     2452250000   -3.378004134e-01    3.176082969e-01
     2453000000   -3.650023937e-01    2.864067852e-01
     2453750000   -3.879397810e-01    2.547569573e-01
     2454500000   -4.104517400e-01    2.193994224e-01
     2455250000   -4.266898036e-01    1.838523895e-01
     2456000000   -4.409083128e-01    1.457136571e-01
     2456750000   -4.530082345e-01    1.059890911e-01
     2457500000   -4.609377384e-01    6.846896559e-02
     2458250000   -4.647624493e-01    2.939034253e-02
     2459000000   -4.666237235e-01   -1.387523580e-02
     2459750000   -4.641650617e-01   -5.359635130e-02
     2460500000   -4.573587477e-01   -8.878086507e-02
     2461250000   -4.479669929e-01   -1.318824738e-01
     2462000000   -4.350035191e-01   -1.693904549e-01
     2462750000   -4.188796282e-01   -2.059273124e-01
     2463500000   -4.006910622e-01   -2.409149408e-01
     2464250000   -3.766565323e-01   -2.777615786e-01
     2465000000   -3.536426425e-01   -3.054558039e-01
     2465750000   -3.240431547e-01   -3.366881013e-01
     2466500000   -2.910745442e-01   -3.675947487e-01
     2467250000   -2.642381489e-01   -3.846349120e-01
     2468000000   -2.310044765e-01   -4.052758217e-01
     2468750000   -1.888218671e-01   -4.298000336e-01
     2469500000   -1.578099579e-01   -4.400847852e-01
     2470250000   -1.132743806e-01   -4.547184706e-01
     2471000000   -7.722927630e-02   -4.609928727e-01
     2471750000   -3.892472759e-02   -4.665181637e-01
     2472500000    2.544579096e-03   -4.679525495e-01
     2473250000    4.456489161e-02   -4.662034810e-01
     2474000000    8.457028866e-02   -4.607867599e-01
     2474750000    1.214901283e-01   -4.518563151e-01
     2475500000    1.641604304e-01   -4.391667545e-01
     2476250000    1.980341375e-01   -4.235982895e-01
     2477000000    2.342697680e-01   -4.054991007e-01
     2477750000    2.694306970e-01   -3.830362260e-01
     2478500000    2.997615635e-01   -3.584797978e-01
     2479250000    3.335258067e-01   -3.289915323e-01
     2480000000    3.589085937e-01   -2.998571992e-01
     2480750000    3.859823942e-01   -2.668015659e-01
     2481500000    4.055978060e-01   -2.339047939e-01
     2482250000    4.253113270e-01   -1.972020864e-01
     2483000000    4.413605332e-01   -1.605501920e-01
     2483750000    4.530385435e-01   -1.217402443e-01
     2484500000    4.619724751e-01   -8.058336377e-02
     2485250000    4.673101902e-01   -4.221146554e-02
     2486000000    4.698400497e-01   -1.601063559e-04
     2486750000    4.684014618e-01    4.017156735e-02
     2487500000    4.615403712e-01    8.006615192e-02
     2488250000    4.539441764e-01    1.227879003e-01
     2489000000    4.424416125e-01    1.587065160e-01
     2489750000    4.267193079e-01    1.971082389e-01
     2490500000    4.089415371e-01    2.336711138e-01
     2491250000    3.854220510e-01    2.706447840e-01
     2492000000    3.637685180e-01    2.967713475e-01
     2492750000    3.349476159e-01    3.294328153e-01
     2493500000    3.052596450e-01    3.576208949e-01
     2494250000    2.723037004e-01    3.824694157e-01
     2495000000    2.375201732e-01    4.046265781e-01
     2495750000    2.038141191e-01    4.217629731e-01
     2496500000    1.633316278e-01    4.385547340e-01
     2497250000    1.261163503e-01    4.504741132e-01
     2498000000    8.614001423e-02    4.599646330e-01
     2498750000    4.090064019e-02    4.668387473e-01
     2499500000    2.215409768e-05    4.677594602e-01
     2500250000   -3.504884616e-02    4.661027491e-01
     2501000000   -8.342666179e-02    4.603056610e-01
     2501750000   -1.178044304e-01    4.519434571e-01
     2502500000   -1.577965766e-01    4.396146238e-01
     2503250000   -1.931049824e-01    4.257400334e-01
     2504000000   -2.305108309e-01    4.063635170e-01
     2504750000   -2.722939849e-01    3.797749281e-01
     2505500000   -2.990992665e-01    3.604018986e-01
     2506250000   -3.345067501e-01    3.288272023e-01
     2507000000   -3.609118462e-01    2.999663353e-01
     2507750000   -3.844132721e-01    2.663529813e-01
     2508500000   -4.078221023e-01    2.324042767e-01
     2509250000   -4.256318808e-01    1.972519606e-01
     2510000000   -4.426209927e-01    1.582629532e-01
     2510750000   -4.554328322e-01    1.179701313e-01
     2511500000   -4.636275172e-01    7.640241832e-02
     2512250000   -4.700518548e-01    3.727356717e-02
     2513000000   -4.721688330e-01   -6.457740907e-03
     2513750000   -4.708899260e-01   -4.739620537e-02
     2514500000   -4.643267691e-01   -8.588013798e-02
     2515250000   -4.551705122e-01   -1.306950152e-01
     2516000000   -4.430904090e-01   -1.692725867e-01
     2516750000   -4.266200364e-01   -2.039049864e-01
     2517500000   -4.074071646e-01   -2.410217971e-01
     2518250000   -3.872658610e-01   -2.735710740e-01
     2519000000   -3.608421683e-01   -3.078870773e-01
     2519750000   -3.313695490e-01   -3.407163620e-01
     2520500000   -3.005054295e-01   -3.672445118e-01
     2521250000   -2.692255080e-01   -3.918697238e-01
     2522000000   -2.313866168e-01   -4.160321951e-01
     2522750000   -1.965153366e-01   -4.343488812e-01
     2523500000   -1.577020139e-01   -4.480494559e-01
     2524250000   -1.154468358e-01   -4.622547030e-01
     2525000000   -7.751145959e-02   -4.696514904e-01
     2525750000   -3.248307109e-02   -4.753340483e-01
     2526500000    5.690135062e-03   -4.762799442e-01
     2527250000    4.361812398e-02   -4.745488763e-01
     2528000000    8.815310895e-02   -4.686207771e-01
     2528750000    1.290169656e-01   -4.598298371e-01
     2529500000    1.685960889e-01   -4.455211461e-01
     2530250000    2.046882510e-01   -4.305796027e-01
     2531000000    2.429708987e-01   -4.089024961e-01
     2531750000    2.782097161e-01   -3.860400617e-01
     2532500000    3.123318851e-01   -3.593751192e-01
     2533250000    3.411182463e-01   -3.318935037e-01
     2534000000    3.685594499e-01   -3.006548285e-01
     2534750000    3.920677602e-01   -2.687954009e-01
     2535500000    4.146211147e-01   -2.303646505e-01
     2536250000    4.340877533e-01   -1.941928118e-01
     2537000000    4.474793971e-01   -1.585114002e-01
     2537750000    4.605275393e-01   -1.143063456e-01
     2538500000    4.686516225e-01   -7.465447485e-02
     2539250000    4.720808864e-01   -3.491160274e-02
     2540000000    4.727881253e-01    9.504375979e-03
     2540750000    4.707365036e-01    4.917342588e-02
     2541500000    4.634719491e-01    9.029608220e-02
     2542250000    4.540229738e-01    1.296755373e-01
     2543000000    4.403698444e-01    1.714290828e-01
     2543750000    4.228482246e-01    2.096559107e-01
     2544500000    4.036014676e-01    2.447286844e-01
     2545250000    3.793870211e-01    2.816116810e-01
     2546000000    3.547124565e-01    3.103766143e-01
     2546750000    3.237621784e-01    3.421659470e-01
     2547500000    2.942330241e-01    3.691073060e-01
     2548250000    2.579119802e-01    3.932763040e-01
     2549000000    2.247334868e-01    4.132480621e-01
     2549750000    1.832181215e-01    4.333686531e-01
     2550500000    1.477680057e-01    4.453548789e-01
     2551250000    1.098114550e-01    4.570999444e-01
     2552000000    6.877453625e-02    4.651391506e-01
     2552750000    2.453757636e-02    4.690757394e-01
     2553500000   -1.740005054e-02    4.683896601e-01
     2554250000   -5.930032209e-02    4.652540982e-01
     2555000000   -9.748074412e-02    4.595045149e-01
     2555750000   -1.391624957e-01    4.465489388e-01
     2556500000   -1.786141396e-01    4.328040779e-01
     2557250000   -2.171421945e-01    4.147513211e-01
     2558000000   -2.525793016e-01    3.944127858e-01
     2558750000   -2.819267511e-01    3.735318482e-01
     2559500000   -3.175213337e-01    3.433502913e-01
     2560250000   -3.479413688e-01    3.127424419e-01
     2561000000   -3.723144233e-01    2.837980986e-01
     2561750000   -3.942164183e-01    2.512388527e-01
     2562500000   -4.182553589e-01    2.093038708e-01
     2563250000   -4.349530339e-01    1.723196357e-01
     2564000000   -4.467309415e-01    1.358738542e-01
     2564750000   -4.566314220e-01    9.838253260e-02
     2565500000   -4.631404579e-01    5.240263045e-02
     2566250000   -4.668715298e-01    1.736126095e-02
     2567000000   -4.646894932e-01   -2.811868489e-02
     2567750000   -4.619142413e-01   -6.535902619e-02
     2568500000   -4.531726241e-01   -1.026885509e-01
     2569250000   -4.415762424e-01   -1.447861493e-01
     2570000000   -4.274717569e-01   -1.813506782e-01
     2570750000   -4.077985287e-01   -2.193827629e-01
     2571500000   -3.864156902e-01   -2.552638054e-01
     2572250000   -3.626378477e-01   -2.871171832e-01
     2573000000   -3.364671171e-01   -3.161775470e-01
     2573750000   -3.049575686e-01   -3.448144794e-01
     2574500000   -2.731038332e-01   -3.707873225e-01
     2575250000   -2.372024953e-01   -3.925643861e-01
     2576000000   -2.018610090e-01   -4.119774103e-01
     2576750000   -1.646952927e-01   -4.277534783e-01
     2577500000   -1.256565899e-01   -4.398473799e-01
     2578250000   -8.549347520e-02   -4.477204382e-01
     2579000000   -4.363743961e-02   -4.539883137e-01
     2579750000   -3.061019117e-03   -4.552496970e-01
     2580500000    3.518540040e-02   -4.537965655e-01
     2581250000    7.864109427e-02   -4.483171105e-01
     2582000000    1.162409335e-01   -4.390138984e-01
     2582750000    1.567348689e-01   -4.262796044e-01
     2583500000    1.926615238e-01   -4.105477631e-01
     2584250000    2.243142873e-01   -3.949440122e-01
     2585000000    2.637140155e-01   -3.686527312e-01
     2585750000    2.939603925e-01   -3.450109959e-01
     2586500000    3.258179426e-01   -3.164380789e-01
     2587250000    3.485580385e-01   -2.904658914e-01
     2588000000    3.743498623e-01   -2.549167275e-01
     2588750000    3.957910538e-01   -2.200690359e-01
     2589500000    4.132016003e-01   -1.844817549e-01
     2590250000    4.265574217e-01   -1.507777572e-01
     2591000000    4.383191764e-01   -1.086494848e-01
     2591750000    4.454144537e-01   -6.904274970e-02
     2592500000    4.498801231e-01   -3.021567501e-02
     2593250000    4.503402412e-01    1.107913163e-02
     2594000000    4.473940134e-01    5.160501599e-02
     2594750000    4.418727756e-01    8.705005050e-02
     2595500000    4.302789569e-01    1.321398318e-01
     2596250000    4.167430103e-01    1.664534956e-01
     2597000000    4.002534151e-01    2.012306452e-01
     2597750000    3.793643415e-01    2.370838523e-01
     2598500000    3.554004133e-01    2.715419233e-01
     2599250000    3.312861621e-01    2.998681962e-01
     2600000000    3.013434410e-01    3.279626966e-01
