! NanoVNA-App
! Date: 2026-05-22 16:01:48
! Start: 4.8GHz Stop: 6GHz Points: 401
! S-Parameter data: F S11
# Hz S RI R 50
!     Frequency           S11_Real           S11_Imag
     4800000000    8.117067218e-01    3.432292491e-02
     4803000000    7.454860806e-01    3.213827014e-01
     4806000000    5.824508667e-01    5.665187836e-01
     4809000000    3.371067345e-01    7.372993827e-01
     4812000000    5.372283608e-02    8.100509644e-01
     4815000000   -2.487580925e-01    7.715710402e-01
     4818000000   -5.008296967e-01    6.414121985e-01
     4821000000   -6.994080544e-01    4.131775200e-01
     4824000000   -8.001050353e-01    1.365352273e-01
     4827000000   -7.952222824e-01   -1.639415175e-01
     4830000000   -6.872278452e-01   -4.336167276e-01
     4833000000   -4.883256555e-01   -6.490829587e-01
     4836000000   -2.164158225e-01   -7.817144394e-01
     4839000000    7.557652146e-02   -8.082120419e-01
     4842000000    3.621143103e-01   -7.257393599e-01
     4845000000    5.949584246e-01   -5.518088341e-01
     4848000000    7.546875477e-01   -2.984620631e-01
     4851000000    8.104798794e-01   -7.672749460e-03
     4854000000    7.609748244e-01    2.807764411e-01
     4857000000    6.082185507e-01    5.374521017e-01
     4860000000    3.765536547e-01    7.188858986e-01
     4863000000    9.655594826e-02    8.058622479e-01
     4866000000   -2.016463131e-01    7.869367599e-01
     4869000000   -4.704281688e-01    6.623274684e-01
     4872000000   -6.751332879e-01    4.515675604e-01
     4875000000   -7.919149995e-01    1.781388372e-01
     4878000000   -8.033314347e-01   -1.152834669e-01
     4881000000   -7.111062407e-01   -3.929003477e-01
     4884000000   -5.223161578e-01   -6.233158708e-01
     4887000000   -2.645059228e-01   -7.680650949e-01
     4890000000    2.552844025e-02   -8.113503456e-01
     4893000000    3.159127533e-01   -7.486689091e-01
     4896000000    5.638397932e-01   -5.848672390e-01
     4899000000    7.356745005e-01   -3.455234468e-01
     4902000000    8.110418916e-01   -5.798418820e-02
     4905000000    7.783643007e-01    2.326022685e-01
     4908000000    6.428575516e-01    4.970784187e-01
     4911000000    4.243315160e-01    6.937262416e-01
     4914000000    1.508839279e-01    7.980414033e-01
     4917000000   -1.502941400e-01    7.993162870e-01
     4920000000   -4.225339890e-01    6.932989359e-01
     4923000000   -6.407466531e-01    4.991341829e-01
     4926000000   -7.777560353e-01    2.334093004e-01
     4929000000   -8.103863597e-01   -6.249641255e-02
     4932000000   -7.372165322e-01   -3.391326964e-01
     4935000000   -5.629309416e-01   -5.864242315e-01
     4938000000   -3.130972087e-01   -7.507290840e-01
     4941000000   -2.603443339e-02   -8.126063943e-01
     4944000000    2.566644251e-01   -7.682979107e-01
     4947000000    5.279585719e-01   -6.232160926e-01
     4950000000    7.064397931e-01   -3.973010778e-01
     4953000000    8.018122315e-01   -1.218219548e-01
     4956000000    7.942134738e-01    1.756467819e-01
     4959000000    6.797220707e-01    4.478513002e-01
     4962000000    4.762248695e-01    6.581411362e-01
     4965000000    2.108687460e-01    7.831849456e-01
     4968000000   -8.557091653e-02    8.082678914e-01
     4971000000   -3.669505417e-01    7.241287827e-01
     4974000000   -6.000856757e-01    5.468232036e-01
     4977000000   -7.555507421e-01    2.943072319e-01
     4980000000   -8.129413724e-01    6.054324098e-03
     4983000000   -7.605339885e-01   -2.817120254e-01
     4986000000   -6.097854972e-01   -5.359579921e-01
     4989000000   -3.758640885e-01   -7.193260193e-01
     4992000000   -9.947959334e-02   -8.040128946e-01
     4995000000    1.911531836e-01   -7.878315449e-01
     4998000000    4.653362036e-01   -6.662207842e-01
     5001000000    6.651782393e-01   -4.578692913e-01
     5004000000    7.921435237e-01   -1.787845492e-01
     5007000000    8.047631979e-01    1.005854979e-01
     5010000000    7.151427269e-01    3.861248195e-01
     5013000000    5.258769393e-01    6.174066067e-01
     5016000000    2.823900282e-01    7.582388520e-01
     5019000000   -1.362252422e-02    8.110536337e-01
     5022000000   -2.948635817e-01    7.526522279e-01
     5025000000   -5.425527096e-01    5.985896587e-01
     5028000000   -7.206100225e-01    3.651535213e-01
     5031000000   -8.073877692e-01    7.882726938e-02
     5034000000   -7.800644636e-01   -2.132366151e-01
     5037000000   -6.551113129e-01   -4.648962915e-01
     5040000000   -4.401915073e-01   -6.777705550e-01
     5043000000   -1.793671697e-01   -7.882221937e-01
     5046000000    1.136250496e-01   -7.982063890e-01
     5049000000    3.966863751e-01   -7.057535648e-01
     5052000000    6.136803031e-01   -5.190633535e-01
     5055000000    7.624200583e-01   -2.675019205e-01
     5058000000    8.062683344e-01    2.374313772e-02
     5061000000    7.469855547e-01    3.071297705e-01
     5064000000    5.880926847e-01    5.548791885e-01
     5067000000    3.524250686e-01    7.246094942e-01
     5070000000    7.371161133e-02    8.036642671e-01
     5073000000   -2.172066122e-01    7.768886089e-01
     5076000000   -4.765233994e-01    6.496952176e-01
     5079000000   -6.810844541e-01    4.333989024e-01
     5082000000   -7.899941802e-01    1.693451405e-01
     5085000000   -7.978262901e-01   -1.256080419e-01
     5088000000   -7.021033168e-01   -3.923611343e-01
     5091000000   -5.160629749e-01   -6.180709600e-01
     5094000000   -2.576175928e-01   -7.659071088e-01
     5097000000    2.148369141e-02   -8.008429408e-01
     5100000000    3.132425547e-01   -7.444952726e-01
     5103000000    5.529145002e-01   -5.846163630e-01
     5106000000    7.309048176e-01   -3.488709629e-01
     5109000000    7.972534895e-01   -8.268415928e-02
     5112000000    7.788829207e-01    2.271341980e-01
     5115000000    6.470090151e-01    4.824173450e-01
     5118000000    4.414985478e-01    6.679950356e-01
     5121000000    1.636890620e-01    7.933548689e-01
     5124000000   -1.246626675e-01    7.963898778e-01
     5127000000   -3.925670981e-01    7.010960579e-01
     5130000000   -6.278114915e-01    5.121992826e-01
     5133000000   -7.663393617e-01    2.613463402e-01
     5136000000   -8.115335107e-01   -2.428672463e-02
     5139000000   -7.458142638e-01   -2.949173450e-01
     5142000000   -5.887064934e-01   -5.509648919e-01
     5145000000   -3.571119905e-01   -7.207646966e-01
     5148000000   -8.047959208e-02   -7.998849154e-01
     5151000000    2.036751062e-01   -7.783616781e-01
     5154000000    4.640362561e-01   -6.551758051e-01
     5157000000    6.701465249e-01   -4.442510009e-01
     5160000000    7.799183726e-01   -1.837535053e-01
     5163000000    7.969497442e-01    9.991519898e-02
     5166000000    7.055978775e-01    3.698080182e-01
     5169000000    5.181856751e-01    6.218670607e-01
     5172000000    2.854869366e-01    7.473983765e-01
     5175000000   -1.207672805e-02    8.058195710e-01
     5178000000   -2.819506228e-01    7.454600930e-01
     5181000000   -5.494750738e-01    5.893758535e-01
     5184000000   -7.061604261e-01    3.812849820e-01
     5187000000   -7.968703508e-01    9.328858554e-02
     5190000000   -7.779519558e-01   -1.985939294e-01
     5193000000   -6.602978110e-01   -4.610419273e-01
     5196000000   -4.620488584e-01   -6.526923180e-01
     5199000000   -1.916301399e-01   -7.809064388e-01
     5202000000    8.348123729e-02   -7.949112058e-01
     5205000000    3.603274226e-01   -7.105284929e-01
     5208000000    5.996589661e-01   -5.302582979e-01
     5211000000    7.469770908e-01   -2.879172266e-01
     5214000000    7.943817377e-01   -1.493795682e-02
     5217000000    7.476434112e-01    2.771881521e-01
     5220000000    6.053657532e-01    5.111050010e-01
     5223000000    3.778802752e-01    6.931918859e-01
     5226000000    1.148827076e-01    7.798371315e-01
     5229000000   -1.620986462e-01    7.690758705e-01
     5232000000   -4.288243055e-01    6.585938931e-01
     5235000000   -6.384023428e-01    4.603179991e-01
     5238000000   -7.603113055e-01    1.984335929e-01
     5241000000   -7.813422084e-01   -7.188916951e-02
     5244000000   -7.014165521e-01   -3.429264128e-01
     5247000000   -5.283864141e-01   -5.783036351e-01
     5250000000   -3.047544062e-01   -7.148753405e-01
     5253000000   -1.374099962e-02   -7.751713395e-01
     5256000000    2.637744248e-01   -7.313055396e-01
     5259000000    5.102828145e-01   -5.822480917e-01
     5262000000    6.638282537e-01   -3.786831796e-01
     5265000000    7.601967454e-01   -1.115912050e-01
     5268000000    7.447320819e-01    1.828017831e-01
     5271000000    6.332231760e-01    4.321256280e-01
     5274000000    4.559638500e-01    6.118935347e-01
     5277000000    1.872257441e-01    7.423206568e-01
     5280000000   -7.965106517e-02    7.553524375e-01
     5283000000   -3.315439224e-01    6.808729172e-01
     5286000000   -5.491586924e-01    5.142536163e-01
     5289000000   -7.026907802e-01    2.716643512e-01
     5292000000   -7.489324212e-01    9.001766331e-03
     5295000000   -7.039229274e-01   -2.552036345e-01
     5298000000   -5.622189045e-01   -4.935644865e-01
     5301000000   -3.568037748e-01   -6.554033160e-01
     5304000000   -9.786954522e-02   -7.380489707e-01
     5307000000    1.708582491e-01   -7.206760645e-01
     5310000000    4.115819335e-01   -6.170398593e-01
     5313000000    6.007339358e-01   -4.284792840e-01
     5316000000    7.133772969e-01   -1.828339100e-01
     5319000000    7.326390743e-01    8.344286680e-02
     5322000000    6.478182077e-01    3.420430720e-01
     5325000000    4.843990505e-01    5.456626415e-01
     5328000000    2.614205778e-01    6.810299158e-01
     5331000000    6.058180006e-04    7.265892625e-01
     5334000000   -2.613326311e-01    6.739929318e-01
     5337000000   -4.847711623e-01    5.366095901e-01
     5340000000   -6.419252157e-01    3.326334059e-01
     5343000000   -7.152817249e-01    6.401719153e-02
     5346000000   -6.912536621e-01   -1.881314516e-01
     5349000000   -5.792579055e-01   -4.195112884e-01
     5352000000   -3.878461421e-01   -5.994017720e-01
     5355000000   -1.550479084e-01   -6.967406273e-01
     5358000000    1.107111424e-01   -7.019046545e-01
     5361000000    3.502971232e-01   -6.194619536e-01
     5364000000    5.492022634e-01   -4.423370063e-01
     5367000000    6.675366163e-01   -2.264741808e-01
     5370000000    6.995885968e-01    3.958377987e-02
     5373000000    6.413534284e-01    2.838836908e-01
     5376000000    5.079478025e-01    4.832863510e-01
     5379000000    3.001620770e-01    6.342612505e-01
     5382000000    3.176212311e-02    6.933833957e-01
     5385000000   -2.075738758e-01    6.616572142e-01
     5388000000   -4.378902912e-01    5.331124067e-01
     5391000000   -5.962823629e-01    3.449504077e-01
     5394000000   -6.773235202e-01    1.362115145e-01
     5397000000   -6.721256971e-01   -1.378276348e-01
     5400000000   -5.761346221e-01   -3.708101511e-01
     5403000000   -4.062817395e-01   -5.485650301e-01
     5406000000   -1.838690937e-01   -6.552611589e-01
     5409000000    6.296016276e-02   -6.744343638e-01
     5412000000    3.006691039e-01   -6.076260805e-01
     5415000000    5.017699599e-01   -4.471817017e-01
     5418000000    6.233434081e-01   -2.620819509e-01
     5421000000    6.729221344e-01   -2.272415720e-02
     5424000000    6.283385754e-01    2.313471437e-01
     5427000000    4.909336567e-01    4.441231489e-01
     5430000000    3.153975010e-01    5.890479088e-01
     5433000000    7.047668099e-02    6.575406194e-01
     5436000000   -1.604124010e-01    6.410863400e-01
     5439000000   -3.832886815e-01    5.382668972e-01
     5442000000   -5.476040244e-01    3.673961461e-01
     5445000000   -6.416548491e-01    1.410194784e-01
     5448000000   -6.469647884e-01   -9.324118495e-02
     5451000000   -5.632582903e-01   -3.237871528e-01
     5454000000   -4.211272001e-01   -5.012440681e-01
     5457000000   -1.984852701e-01   -6.154921651e-01
     5460000000    2.475972660e-02   -6.492860317e-01
     5463000000    2.577787042e-01   -5.923465490e-01
     5466000000    4.551640749e-01   -4.472608864e-01
     5469000000    5.861647725e-01   -2.658669055e-01
     5472000000    6.418713927e-01   -4.174159467e-02
     5475000000    5.953388214e-01    2.066598684e-01
     5478000000    5.002471209e-01    3.983864188e-01
     5481000000    3.146302998e-01    5.477714539e-01
     5484000000    9.742884338e-02    6.246106625e-01
     5487000000   -1.311155260e-01    6.172699928e-01
     5490000000   -3.520157635e-01    5.183594823e-01
     5493000000   -5.115675330e-01    3.649568260e-01
     5496000000   -6.087996960e-01    1.668594629e-01
     5499000000   -6.220912337e-01   -7.329874486e-02
     5502000000   -5.458975434e-01   -2.932747900e-01
     5505000000   -4.081042707e-01   -4.703980386e-01
     5508000000   -2.080459446e-01   -5.832493305e-01
     5511000000    1.754552498e-02   -6.189196706e-01
     5514000000    2.367987931e-01   -5.698578358e-01
     5517000000    4.272691607e-01   -4.440110028e-01
     5520000000    5.602676868e-01   -2.574389279e-01
     5523000000    6.151807308e-01   -3.891551495e-02
     5526000000    5.826195478e-01    1.831945032e-01
     5529000000    4.780496955e-01    3.853245676e-01
     5532000000    2.944713533e-01    5.301620364e-01
     5535000000    1.011925414e-01    6.083084345e-01
     5538000000   -1.355212778e-01    5.873661637e-01
     5541000000   -3.367756307e-01    5.064829588e-01
     5544000000   -4.972496629e-01    3.593770862e-01
     5547000000   -5.883772373e-01    1.455627382e-01
     5550000000   -6.040481925e-01   -7.526783645e-02
     5553000000   -5.299744010e-01   -2.886887789e-01
     5556000000   -3.920955360e-01   -4.634702802e-01
     5559000000   -1.908740252e-01   -5.685841441e-01
     5562000000    2.637873590e-02   -6.052523255e-01
     5565000000    2.411435246e-01   -5.553096533e-01
     5568000000    4.273103774e-01   -4.307981133e-01
     5571000000    5.525487661e-01   -2.401818484e-01
     5574000000    6.085209846e-01   -3.018364869e-02
     5577000000    5.697274208e-01    1.974727958e-01
     5580000000    4.683422446e-01    3.899154663e-01
     5583000000    2.911590040e-01    5.332247019e-01
     5586000000    8.323647827e-02    6.036691070e-01
     5589000000   -1.441030800e-01    5.906232595e-01
     5592000000   -3.504307866e-01    4.969196320e-01
     5595000000   -5.037549734e-01    3.460301459e-01
     5598000000   -5.952237844e-01    1.385817528e-01
     5601000000   -6.009261012e-01   -9.305223823e-02
     5604000000   -5.290765762e-01   -3.037987053e-01
     5607000000   -3.875911832e-01   -4.733848572e-01
     5610000000   -1.864088923e-01   -5.784367323e-01
     5613000000    3.931657225e-02   -6.077730060e-01
     5616000000    2.554427385e-01   -5.582563281e-01
     5619000000    4.408713281e-01   -4.271253943e-01
     5622000000    5.654816031e-01   -2.420846373e-01
     5625000000    6.166387200e-01   -1.961648278e-02
     5628000000    5.825130343e-01    2.058226019e-01
     5631000000    4.710899293e-01    3.972615302e-01
     5634000000    2.927607000e-01    5.421488285e-01
     5637000000    7.143016160e-02    6.123803854e-01
     5640000000   -1.546287686e-01    5.968099833e-01
     5643000000   -3.611508906e-01    5.062602758e-01
     5646000000   -5.193644762e-01    3.414655328e-01
     5649000000   -6.072018147e-01    1.264248490e-01
     5652000000   -6.149340868e-01   -9.459410608e-02
     5655000000   -5.421189666e-01   -3.172715604e-01
     5658000000   -3.844063282e-01   -4.896128178e-01
     5661000000   -1.903938949e-01   -6.006512046e-01
     5664000000    4.658699036e-02   -6.209756732e-01
     5667000000    2.642034888e-01   -5.708187819e-01
     5670000000    4.527510405e-01   -4.360038340e-01
     5673000000    5.788753033e-01   -2.404234558e-01
     5676000000    6.317529678e-01   -1.551932096e-02
     5679000000    5.942066312e-01    2.131122053e-01
     5682000000    4.757829010e-01    4.190439284e-01
     5685000000    2.955572903e-01    5.624359250e-01
     5688000000    7.545328140e-02    6.312082410e-01
     5691000000   -1.633392423e-01    6.173349619e-01
     5694000000   -3.766447604e-01    5.164495707e-01
     5697000000   -5.344912410e-01    3.519341946e-01
     5700000000   -6.280769706e-01    1.335114837e-01
     5703000000   -6.338507533e-01   -1.031208709e-01
     5706000000   -5.549411774e-01   -3.250714839e-01
     5709000000   -4.035522640e-01   -5.034406781e-01
     5712000000   -1.908151507e-01   -6.162210107e-01
     5715000000    4.186319560e-02   -6.453080177e-01
     5718000000    2.759473622e-01   -5.842877626e-01
     5721000000    4.686218798e-01   -4.502562284e-01
     5724000000    6.004140973e-01   -2.509402335e-01
     5727000000    6.512638927e-01   -1.867562532e-02
     5730000000    6.151272655e-01    2.187475711e-01
     5733000000    4.950897098e-01    4.276795089e-01
     5736000000    3.050586581e-01    5.783827305e-01
     5739000000    8.222398907e-02    6.512789726e-01
     5742000000   -1.591809541e-01    6.366198659e-01
     5745000000   -3.776856661e-01    5.361284018e-01
     5748000000   -5.469960570e-01    3.670477271e-01
     5751000000   -6.419284940e-01    1.402132958e-01
     5754000000   -6.541216373e-01   -9.625126421e-02
     5757000000   -5.710329413e-01   -3.290725350e-01
     5760000000   -4.143707752e-01   -5.167087317e-01
     5763000000   -2.048835456e-01   -6.274919510e-01
     5766000000    3.534505516e-02   -6.655305028e-01
     5769000000    2.774454057e-01   -6.048747301e-01
     5772000000    4.772503674e-01   -4.662416875e-01
     5775000000    6.130784750e-01   -2.630266249e-01
     5778000000    6.678538322e-01   -3.140459582e-02
     5781000000    6.390799284e-01    2.124371380e-01
     5784000000    5.160107017e-01    4.328625798e-01
     5787000000    3.294503093e-01    5.839887857e-01
     5790000000    9.448926896e-02    6.661716700e-01
     5793000000   -1.509834528e-01    6.573319435e-01
     5796000000   -3.792694211e-01    5.586472154e-01
     5799000000   -5.539044738e-01    3.854788244e-01
     5802000000   -6.574687958e-01    1.591793448e-01
     5805000000   -6.691836715e-01   -8.805307001e-02
     5808000000   -5.958828330e-01   -3.229864836e-01
     5811000000   -4.387464821e-01   -5.149544477e-01
     5814000000   -2.282351404e-01   -6.364912987e-01
     5817000000    2.087514661e-02   -6.771773696e-01
     5820000000    2.677697837e-01   -6.247479320e-01
     5823000000    4.723931253e-01   -4.861971438e-01
     5826000000    6.170566678e-01   -2.835027874e-01
     5829000000    6.806470752e-01   -4.467424378e-02
     5832000000    6.496189237e-01    2.039264292e-01
     5835000000    5.307638645e-01    4.261963964e-01
     5838000000    3.431175351e-01    5.922137499e-01
     5841000000    1.092730239e-01    6.710205078e-01
     5844000000   -1.366526335e-01    6.651732922e-01
     5847000000   -3.745377958e-01    5.725340843e-01
     5850000000   -5.492999554e-01    4.001200497e-01
     5853000000   -6.602610350e-01    1.722947955e-01
     5856000000   -6.814001799e-01   -7.594659925e-02
     5859000000   -6.100143790e-01   -3.179187775e-01
     5862000000   -4.546352625e-01   -5.183455348e-01
     5865000000   -2.386203557e-01   -6.459784508e-01
     5868000000    1.197643764e-02   -6.889078021e-01
     5871000000    2.647855282e-01   -6.417761445e-01
     5874000000    4.698125422e-01   -5.051980019e-01
     5877000000    6.247105598e-01   -2.986343205e-01
     5880000000    6.906121969e-01   -5.713279545e-02
     5883000000    6.698374152e-01    2.004182786e-01
     5886000000    5.434136987e-01    4.201168120e-01
     5889000000    3.525387347e-01    6.015884280e-01
     5892000000    1.176712438e-01    6.870077848e-01
     5895000000   -1.284770817e-01    6.815038323e-01
     5898000000   -3.743083775e-01    5.897307396e-01
     5901000000   -5.548884273e-01    4.213640094e-01
     5904000000   -6.746343374e-01    1.828175485e-01
     5907000000   -6.969212890e-01   -7.276454568e-02
     5910000000   -6.296614408e-01   -3.078723848e-01
     5913000000   -4.672217667e-01   -5.183579922e-01
     5916000000   -2.611816823e-01   -6.515661478e-01
     5919000000    4.818025045e-03   -6.989768744e-01
     5922000000    2.521576285e-01   -6.509482861e-01
     5925000000    4.638571739e-01   -5.204597712e-01
     5928000000    6.300247908e-01   -3.157458007e-01
     5931000000    6.982355714e-01   -6.907836348e-02
     5934000000    6.726062894e-01    1.917926073e-01
     5937000000    5.592621565e-01    4.207823277e-01
     5940000000    3.722656667e-01    6.022341251e-01
     5943000000    1.309895366e-01    6.829110980e-01
     5946000000   -1.311399192e-01    6.945162416e-01
     5949000000   -3.486810923e-01    5.989426374e-01
     5952000000   -5.598188639e-01    4.245317578e-01
     5955000000   -6.875469089e-01    1.930558383e-01
     5958000000   -6.944338679e-01   -5.578110740e-02
     5961000000   -6.282763481e-01   -2.894378304e-01
     5964000000   -4.726777673e-01   -5.374298096e-01
     5967000000   -2.589748502e-01   -6.565718055e-01
     5970000000   -1.657540706e-04   -7.069388032e-01
     5973000000    2.655576468e-01   -6.668202281e-01
     5976000000    4.526228309e-01   -5.243215561e-01
     5979000000    6.389691234e-01   -3.107801974e-01
     5982000000    6.923965812e-01   -8.231974393e-02
     5985000000    6.798028350e-01    1.877632290e-01
     5988000000    5.661746860e-01    4.301467240e-01
     5991000000    3.752495348e-01    6.031022668e-01
     5994000000    1.338847876e-01    6.973309517e-01
     5997000000   -1.208512709e-01    6.969354153e-01
     6000000000   -3.627696931e-01    6.095556617e-01
