! NanoVNA-App
! Date: 2026-05-22 15:59:19
! Start: 4.8GHz Stop: 6GHz Points: 401
! S-Parameter data: F S11
# Hz S RI R 50
!     Frequency           S11_Real           S11_Imag
     4800000000    7.776402831e-01    5.796745792e-02
     4803000000    7.033544183e-01    3.339632154e-01
     4806000000    5.364099741e-01    5.630427003e-01
     4809000000    3.038256168e-01    7.159618735e-01
     4812000000    2.253555134e-02    7.770327926e-01
     4815000000   -2.556509674e-01    7.348799109e-01
     4818000000   -5.007816553e-01    5.943074226e-01
     4821000000   -6.802541018e-01    3.750452101e-01
     4824000000   -7.683923244e-01    1.083343178e-01
     4827000000   -7.563355565e-01   -1.730029732e-01
     4830000000   -6.460738182e-01   -4.303340614e-01
     4833000000   -4.499777555e-01   -6.312966347e-01
     4836000000   -1.941220313e-01   -7.501133084e-01
     4839000000    8.833254874e-02   -7.689197659e-01
     4842000000    3.561780453e-01   -6.870988607e-01
     4845000000    5.772735476e-01   -5.151044726e-01
     4848000000    7.237652540e-01   -2.713759542e-01
     4851000000    7.724741101e-01    1.608074759e-03
     4854000000    7.224242687e-01    2.761444151e-01
     4857000000    5.728958845e-01    5.177012682e-01
     4860000000    3.529409170e-01    6.874960661e-01
     4863000000    8.552823961e-02    7.671580911e-01
     4866000000   -1.939354241e-01    7.476624250e-01
     4869000000   -4.531255066e-01    6.256532669e-01
     4872000000   -6.421033144e-01    4.296742082e-01
     4875000000   -7.529536486e-01    1.700801104e-01
     4878000000   -7.642549276e-01   -1.055489108e-01
     4881000000   -6.740626097e-01   -3.759013116e-01
     4884000000   -4.986770153e-01   -5.891683102e-01
     4887000000   -2.540031075e-01   -7.284200191e-01
     4890000000    2.108617872e-02   -7.711331248e-01
     4893000000    2.905123830e-01   -7.126162052e-01
     4896000000    5.273091197e-01   -5.600080490e-01
     4899000000    6.925344467e-01   -3.371764421e-01
     4902000000    7.675299048e-01   -6.542538851e-02
     4905000000    7.403962612e-01    2.096914053e-01
     4908000000    6.179077029e-01    4.593844712e-01
     4911000000    4.138902426e-01    6.490032673e-01
     4914000000    1.542771906e-01    7.541826367e-01
     4917000000   -1.195431054e-01    7.591014504e-01
     4920000000   -3.845385313e-01    6.653387547e-01
     4923000000   -5.992952585e-01    4.829945266e-01
     4926000000   -7.269238234e-01    2.425663769e-01
     4929000000   -7.653282285e-01   -2.806508914e-02
     4932000000   -7.047756910e-01   -3.104487062e-01
     4935000000   -5.537458658e-01   -5.308439732e-01
     4938000000   -3.226922452e-01   -6.976062655e-01
     4941000000   -6.243244931e-02   -7.628358603e-01
     4944000000    2.167636603e-01   -7.337222099e-01
     4947000000    4.667282403e-01   -6.122277975e-01
     4950000000    6.501448154e-01   -4.031685889e-01
     4953000000    7.518302798e-01   -1.481674314e-01
     4956000000    7.555451393e-01    1.267609000e-01
     4959000000    6.605421901e-01    3.871886730e-01
     4962000000    4.794667661e-01    5.980963111e-01
     4965000000    2.379211634e-01    7.278294563e-01
     4968000000   -3.057098947e-02    7.627207637e-01
     4971000000   -3.035873175e-01    7.010903955e-01
     4974000000   -5.327285528e-01    5.479795933e-01
     4977000000   -6.949004531e-01    3.211287558e-01
     4980000000   -7.641893029e-01    5.574437603e-02
     4983000000   -7.315056920e-01   -2.152284980e-01
     4986000000   -6.055954099e-01   -4.647088051e-01
     4989000000   -4.053710699e-01   -6.430527568e-01
     4992000000   -1.487925649e-01   -7.481865883e-01
     4995000000    1.261784136e-01   -7.515611649e-01
     4998000000    3.826948404e-01   -6.588877439e-01
     5001000000    5.873324871e-01   -4.783792794e-01
     5004000000    7.165140510e-01   -2.401397228e-01
     5007000000    7.643237114e-01    3.819252923e-02
     5010000000    6.998150349e-01    2.984277904e-01
     5013000000    5.473699570e-01    5.207688212e-01
     5016000000    3.209721148e-01    6.908240318e-01
     5019000000    6.493967026e-02    7.553884387e-01
     5022000000   -2.108980715e-01    7.294720411e-01
     5025000000   -4.530887902e-01    6.076087952e-01
     5028000000   -6.350629926e-01    4.099463522e-01
     5031000000   -7.392894626e-01    1.573067605e-01
     5034000000   -7.447381020e-01   -1.067651287e-01
     5037000000   -6.572921872e-01   -3.735843301e-01
     5040000000   -4.836222529e-01   -5.826559663e-01
     5043000000   -2.529111803e-01   -7.127167583e-01
     5046000000    2.207805775e-02   -7.554324865e-01
     5049000000    2.806659341e-01   -6.995787621e-01
     5052000000    5.193053484e-01   -5.525729656e-01
     5055000000    6.722289324e-01   -3.384604156e-01
     5058000000    7.482831478e-01   -7.819893956e-02
     5061000000    7.298104763e-01    1.950372308e-01
     5064000000    6.142109632e-01    4.370116591e-01
     5067000000    4.204366803e-01    6.205635071e-01
     5070000000    1.723615825e-01    7.334495783e-01
     5073000000   -9.620609134e-02    7.460456491e-01
     5076000000   -3.497897983e-01    6.651013494e-01
     5079000000   -5.650860071e-01    4.998223186e-01
     5082000000   -7.066341639e-01    2.639135122e-01
     5085000000   -7.497565746e-01    6.658146158e-03
     5088000000   -7.031291127e-01   -2.612941265e-01
     5091000000   -5.714086890e-01   -4.877090156e-01
     5094000000   -3.564819694e-01   -6.616986990e-01
     5097000000   -1.016153023e-01   -7.428960800e-01
     5100000000    1.642352343e-01   -7.295322418e-01
     5103000000    4.071623683e-01   -6.240689754e-01
     5106000000    6.117165089e-01   -4.392534792e-01
     5109000000    7.187649012e-01   -2.058496326e-01
     5112000000    7.452806830e-01    6.182175502e-02
     5115000000    6.725311279e-01    3.361657560e-01
     5118000000    5.169043541e-01    5.428747535e-01
     5121000000    2.956848145e-01    6.824979186e-01
     5124000000    2.759184688e-02    7.488314509e-01
     5127000000   -2.242201120e-01    7.094398737e-01
     5130000000   -4.589157403e-01    5.832361579e-01
     5133000000   -6.450150013e-01    3.795413673e-01
     5136000000   -7.210635543e-01    1.522236466e-01
     5139000000   -7.314003706e-01   -1.541098356e-01
     5142000000   -6.368662715e-01   -3.819332421e-01
     5145000000   -4.582572281e-01   -5.812036395e-01
     5148000000   -2.279128432e-01   -7.042816877e-01
     5151000000    3.158615530e-02   -7.422872782e-01
     5154000000    2.858124375e-01   -6.814078093e-01
     5157000000    5.060454607e-01   -5.311027169e-01
     5160000000    6.581610441e-01   -3.247429132e-01
     5163000000    7.296286225e-01   -7.665065676e-02
     5166000000    7.092794180e-01    1.950332224e-01
     5169000000    5.919247270e-01    4.378938079e-01
     5172000000    4.074789584e-01    6.043166518e-01
     5175000000    1.705724895e-01    7.084377408e-01
     5178000000   -1.095386073e-01    7.201042771e-01
     5181000000   -3.243411779e-01    6.449360251e-01
     5184000000   -5.571697950e-01    4.753396809e-01
     5187000000   -6.806158423e-01    2.502085567e-01
     5190000000   -7.159979343e-01    1.367001794e-02
     5193000000   -6.805835962e-01   -2.437094152e-01
     5196000000   -5.444579124e-01   -4.778914750e-01
     5199000000   -3.295236230e-01   -6.393044591e-01
     5202000000   -9.952538460e-02   -7.083110213e-01
     5205000000    1.744318902e-01   -6.990934610e-01
     5208000000    3.969014585e-01   -5.975543261e-01
     5211000000    5.805462003e-01   -4.154923558e-01
     5214000000    6.933807731e-01   -1.700805277e-01
     5217000000    7.077878118e-01    6.975124031e-02
     5220000000    6.334341764e-01    3.202801347e-01
     5223000000    4.809777439e-01    5.146224499e-01
     5226000000    2.696963847e-01    6.506960392e-01
     5229000000    1.402037777e-02    7.021168470e-01
     5232000000   -2.206277102e-01    6.652691960e-01
     5235000000   -4.504272044e-01    5.372474194e-01
     5238000000   -6.091677547e-01    3.400546014e-01
     5241000000   -6.885000467e-01    1.092844680e-01
     5244000000   -6.800127029e-01   -1.485411972e-01
     5247000000   -5.842646360e-01   -3.760821223e-01
     5250000000   -4.099521637e-01   -5.594842434e-01
     5253000000   -1.649379134e-01   -6.708058119e-01
     5256000000    6.642548740e-02   -6.850305200e-01
     5259000000    2.966255546e-01   -6.190508008e-01
     5262000000    5.046904683e-01   -4.644233882e-01
     5265000000    6.315172911e-01   -2.617115676e-01
     5268000000    6.834669113e-01   -2.088357881e-02
     5271000000    6.348056197e-01    2.445275187e-01
     5274000000    5.151520371e-01    4.403196275e-01
     5277000000    3.419286609e-01    5.858061910e-01
     5280000000    7.594546676e-02    6.739437580e-01
     5283000000   -1.461371630e-01    6.609629393e-01
     5286000000   -3.737217486e-01    5.630648136e-01
     5289000000   -5.410636663e-01    4.029805362e-01
     5292000000   -6.512431502e-01    1.698957384e-01
     5295000000   -6.702170968e-01   -7.873521000e-02
     5298000000   -5.940794349e-01   -3.117596507e-01
     5301000000   -4.445197284e-01   -5.005668998e-01
     5304000000   -2.369009405e-01   -6.257303953e-01
     5307000000   -8.541064453e-04   -6.677528024e-01
     5310000000    2.334443182e-01   -6.208028793e-01
     5313000000    4.385091960e-01   -4.974172413e-01
     5316000000    5.861574411e-01   -3.034294546e-01
     5319000000    6.550112367e-01   -8.090759814e-02
     5322000000    6.380519271e-01    1.602962017e-01
     5325000000    5.351821184e-01    3.785138428e-01
     5328000000    3.626570404e-01    5.448443890e-01
     5331000000    1.508153230e-01    6.389346719e-01
     5334000000   -8.896685392e-02    6.485062838e-01
     5337000000   -3.161828518e-01    5.699685216e-01
     5340000000   -4.981786311e-01    4.190675914e-01
     5343000000   -6.139497757e-01    2.094696462e-01
     5346000000   -6.463688612e-01   -2.660752274e-02
     5349000000   -5.975186229e-01   -2.481211871e-01
     5352000000   -4.652734101e-01   -4.467040896e-01
     5355000000   -2.773711681e-01   -5.817630291e-01
     5358000000   -4.696381465e-02   -6.411029100e-01
     5361000000    1.871899664e-01   -6.155369878e-01
     5364000000    3.872129619e-01   -5.134111047e-01
     5367000000    5.453510284e-01   -3.401178718e-01
     5370000000    6.289154291e-01   -1.141939759e-01
     5373000000    6.248909831e-01    1.168847010e-01
     5376000000    5.505110025e-01    3.240577579e-01
     5379000000    3.825535178e-01    5.013985038e-01
     5382000000    1.885136515e-01    6.051506996e-01
     5385000000   -5.695340410e-02    6.235396862e-01
     5388000000   -2.584271133e-01    5.803611279e-01
     5391000000   -4.551919997e-01    4.303182960e-01
     5394000000   -5.748856664e-01    2.429346591e-01
     5397000000   -6.224275231e-01    1.729222573e-02
     5400000000   -5.928651690e-01   -2.053082287e-01
     5403000000   -4.706597924e-01   -4.056478441e-01
     5406000000   -2.986612916e-01   -5.454749465e-01
     5409000000   -7.460435480e-02   -6.131108999e-01
     5412000000    1.429011673e-01   -6.035566330e-01
     5415000000    3.514761031e-01   -5.139171481e-01
     5418000000    5.104698539e-01   -3.464929163e-01
     5421000000    6.017940640e-01   -1.455195844e-01
     5424000000    6.083110571e-01    8.143708110e-02
     5427000000    5.233855844e-01    3.067162633e-01
     5430000000    4.052631855e-01    4.694125056e-01
     5433000000    1.901657432e-01    5.784171820e-01
     5436000000   -1.947028376e-02    6.140465140e-01
     5439000000   -2.440358698e-01    5.576452613e-01
     5442000000   -4.265155494e-01    4.394780993e-01
     5445000000   -5.547888279e-01    2.505632341e-01
     5448000000   -6.062148213e-01    3.900105134e-02
     5451000000   -5.699791312e-01   -1.868826151e-01
     5454000000   -4.692290425e-01   -3.810627460e-01
     5457000000   -2.981027663e-01   -5.256632566e-01
     5460000000   -8.413545042e-02   -5.948473811e-01
     5463000000    1.279259473e-01   -5.908375382e-01
     5466000000    3.347260654e-01   -5.007284284e-01
     5469000000    4.921269715e-01   -3.526044488e-01
     5472000000    5.819251537e-01   -1.432533711e-01
     5475000000    5.966240764e-01    7.409311831e-02
     5478000000    5.209584236e-01    2.877202630e-01
     5481000000    3.847598732e-01    4.552536607e-01
     5484000000    2.051086277e-01    5.693755150e-01
     5487000000   -2.431774884e-02    5.939216614e-01
     5490000000   -2.354958653e-01    5.459698439e-01
     5493000000   -4.161721766e-01    4.282964468e-01
     5496000000   -5.450863242e-01    2.654446065e-01
     5499000000   -5.932327509e-01    3.258413821e-02
     5502000000   -5.679386258e-01   -1.811824143e-01
     5505000000   -4.641937912e-01   -3.725166023e-01
     5508000000   -2.959013283e-01   -5.154148340e-01
     5511000000   -8.878933638e-02   -5.877200961e-01
     5514000000    1.267040074e-01   -5.810242891e-01
     5517000000    3.315192163e-01   -4.938461185e-01
     5520000000    4.877682626e-01   -3.381223977e-01
     5523000000    5.750577450e-01   -1.384111196e-01
     5526000000    5.955919027e-01    7.013708353e-02
     5529000000    5.172538757e-01    2.871417403e-01
     5532000000    3.816811144e-01    4.582447112e-01
     5535000000    1.892914325e-01    5.603893399e-01
     5538000000   -1.906761155e-02    5.993781686e-01
     5541000000   -2.390772849e-01    5.411535501e-01
     5544000000   -4.181548357e-01    4.158467352e-01
     5547000000   -5.431472659e-01    2.418371439e-01
     5550000000   -5.933236480e-01    2.554175630e-02
     5553000000   -5.691410303e-01   -1.874302775e-01
     5556000000   -4.521826804e-01   -3.793902695e-01
     5559000000   -2.872989774e-01   -5.217851400e-01
     5562000000   -8.101285249e-02   -5.954309106e-01
     5565000000    1.406561732e-01   -5.780952573e-01
     5568000000    3.420646489e-01   -4.904939234e-01
     5571000000    4.996083379e-01   -3.367326260e-01
     5574000000    5.831891894e-01   -1.323788762e-01
     5577000000    5.906150341e-01    9.163703769e-02
     5580000000    5.216357708e-01    2.992783189e-01
     5583000000    3.744166195e-01    4.683142304e-01
     5586000000    1.854333729e-01    5.745493174e-01
     5589000000   -3.755815700e-02    6.029260159e-01
     5592000000   -2.540954649e-01    5.506846905e-01
     5595000000   -4.319279492e-01    4.193294048e-01
     5598000000   -5.582559705e-01    2.361056656e-01
     5601000000   -6.081922054e-01    1.500775758e-02
     5604000000   -5.681422949e-01   -2.062641233e-01
     5607000000   -4.612435400e-01   -3.977457583e-01
     5610000000   -2.846184075e-01   -5.377795696e-01
     5613000000   -6.764650345e-02   -6.070019007e-01
     5616000000    1.547626108e-01   -5.879955888e-01
     5619000000    3.596931994e-01   -4.967799485e-01
     5622000000    5.125910640e-01   -3.333867490e-01
     5625000000    5.996899605e-01   -1.239444613e-01
     5628000000    6.070616841e-01    1.026237234e-01
     5631000000    5.296744108e-01    3.097689152e-01
     5634000000    3.779997528e-01    4.824272990e-01
     5637000000    1.762236506e-01    5.902839303e-01
     5640000000   -4.845534638e-02    6.137794256e-01
     5643000000   -2.671160102e-01    5.542007685e-01
     5646000000   -4.506048262e-01    4.210250378e-01
     5649000000   -5.751592517e-01    2.291322500e-01
     5652000000   -6.175268292e-01    9.979815222e-03
     5655000000   -5.774148703e-01   -2.199904025e-01
     5658000000   -4.598764479e-01   -4.163708091e-01
     5661000000   -2.810322344e-01   -5.542854667e-01
     5664000000   -5.828685313e-02   -6.196335554e-01
     5667000000    1.667663604e-01   -6.003459096e-01
     5670000000    3.731516302e-01   -4.981521964e-01
     5673000000    5.296067595e-01   -3.291061223e-01
     5676000000    6.143404841e-01   -1.149268001e-01
     5679000000    6.147786975e-01    1.148838997e-01
     5682000000    5.283897519e-01    3.356316686e-01
     5685000000    3.734978139e-01    5.025312901e-01
     5688000000    1.714267433e-01    6.048618555e-01
     5691000000   -6.597328186e-02    6.261576414e-01
     5694000000   -2.897528410e-01    5.590467453e-01
     5697000000   -4.694476128e-01    4.214698672e-01
     5700000000   -5.919619203e-01    2.212330103e-01
     5703000000   -6.337357163e-01   -8.898804896e-03
     5706000000   -5.871484876e-01   -2.394084185e-01
     5709000000   -4.619212449e-01   -4.362595975e-01
     5712000000   -2.720688581e-01   -5.768492818e-01
     5715000000   -4.647758976e-02   -6.388978362e-01
     5718000000    1.920715272e-01   -6.114650965e-01
     5721000000    3.995728493e-01   -5.043794513e-01
     5724000000    5.571684837e-01   -3.267829418e-01
     5727000000    6.381993294e-01   -1.044115275e-01
     5730000000    6.340463161e-01    1.351640373e-01
     5733000000    5.424343348e-01    3.559789658e-01
     5736000000    3.748368621e-01    5.307886004e-01
     5739000000    1.648900062e-01    6.309635043e-01
     5742000000   -7.645259053e-02    6.491569877e-01
     5745000000   -3.061077595e-01    5.767621398e-01
     5748000000   -4.973895550e-01    4.328795075e-01
     5751000000   -6.180891395e-01    2.189956307e-01
     5754000000   -6.611691713e-01   -1.421974692e-02
     5757000000   -6.046059132e-01   -2.527128458e-01
     5760000000   -4.728146791e-01   -4.590765834e-01
     5763000000   -2.791604698e-01   -5.948535204e-01
     5766000000   -4.521216080e-02   -6.632129550e-01
     5769000000    2.027040571e-01   -6.313559413e-01
     5772000000    4.175836742e-01   -5.177650452e-01
     5775000000    5.754411221e-01   -3.304544091e-01
     5778000000    6.597673297e-01   -1.061978489e-01
     5781000000    6.537954211e-01    1.352223605e-01
     5784000000    5.619298816e-01    3.723506927e-01
     5787000000    3.911185265e-01    5.475582480e-01
     5790000000    1.668256968e-01    6.528802514e-01
     5793000000   -8.009476960e-02    6.703386307e-01
     5796000000   -3.159038424e-01    5.950720906e-01
     5799000000   -5.168454051e-01    4.428322911e-01
     5802000000   -6.350111365e-01    2.289679199e-01
     5805000000   -6.773779392e-01   -1.891717315e-02
     5808000000   -6.294532418e-01   -2.629854083e-01
     5811000000   -4.905084074e-01   -4.669684470e-01
     5814000000   -2.913461328e-01   -6.207083464e-01
     5817000000   -4.587860033e-02   -6.830889583e-01
     5820000000    2.046150416e-01   -6.511316895e-01
     5823000000    4.248745143e-01   -5.341932774e-01
     5826000000    5.863720179e-01   -3.437050283e-01
     5829000000    6.829684973e-01   -1.077813432e-01
     5832000000    6.744655371e-01    1.444931924e-01
     5835000000    5.714723468e-01    3.728093505e-01
     5838000000    3.996978700e-01    5.602408648e-01
     5841000000    1.710684896e-01    6.638768315e-01
     5844000000   -8.239314705e-02    6.872448325e-01
     5847000000   -3.252102137e-01    6.080259085e-01
     5850000000   -5.229628682e-01    4.511865079e-01
     5853000000   -6.559424996e-01    2.298228592e-01
     5856000000   -6.941193342e-01   -1.950138249e-02
     5859000000   -6.419067383e-01   -2.685823739e-01
     5862000000   -5.018144846e-01   -4.818642437e-01
     5865000000   -2.939380407e-01   -6.312416792e-01
     5868000000   -4.469475523e-02   -6.952000856e-01
     5871000000    2.099049538e-01   -6.661264300e-01
     5874000000    4.422205389e-01   -5.487366915e-01
     5877000000    6.056906581e-01   -3.509024084e-01
     5880000000    6.913987398e-01   -1.105609164e-01
     5883000000    6.931026578e-01    1.564724147e-01
     5886000000    5.809293389e-01    3.832000494e-01
     5889000000    3.998534381e-01    5.825309753e-01
     5892000000    1.799117476e-01    6.716356277e-01
     5895000000   -8.759663254e-02    7.045336962e-01
     5898000000   -3.436354399e-01    6.239307523e-01
     5901000000   -5.277214050e-01    4.670367539e-01
     5904000000   -6.697123051e-01    2.320979983e-01
     5907000000   -7.112142444e-01   -2.545410581e-02
     5910000000   -6.574047804e-01   -2.654979229e-01
     5913000000   -5.061568618e-01   -5.135029554e-01
     5916000000   -3.130284548e-01   -6.358358860e-01
     5919000000   -2.768441290e-02   -7.208061814e-01
     5922000000    2.135119587e-01   -6.781164408e-01
     5925000000    4.481337667e-01   -5.592236519e-01
     5928000000    6.215220094e-01   -3.605822027e-01
     5931000000    7.132590413e-01   -1.098419726e-01
     5934000000    6.982973814e-01    1.550488621e-01
     5937000000    5.978093743e-01    4.039263129e-01
     5940000000    4.158499241e-01    5.989699960e-01
     5943000000    1.728869379e-01    6.953093410e-01
     5946000000   -8.628427982e-02    7.169539332e-01
     5949000000   -3.575173616e-01    6.386066675e-01
     5952000000   -5.453807116e-01    4.721159935e-01
     5955000000   -6.941863894e-01    2.398327440e-01
     5958000000   -7.235920429e-01   -2.612844110e-02
     5961000000   -6.678609252e-01   -2.863744795e-01
     5964000000   -5.213282108e-01   -5.180310011e-01
     5967000000   -3.173764646e-01   -6.478362083e-01
     5970000000   -4.466657341e-02   -7.274810672e-01
     5973000000    2.301718891e-01   -7.025628686e-01
     5976000000    4.538114667e-01   -5.656986833e-01
     5979000000    6.343052387e-01   -3.625359535e-01
     5982000000    7.234123349e-01   -1.084156334e-01
     5985000000    7.171176672e-01    1.688871682e-01
     5988000000    6.116452217e-01    3.965983689e-01
     5991000000    4.199655652e-01    6.037111878e-01
     5994000000    1.814527065e-01    7.081338763e-01
     5997000000   -8.660601079e-02    7.269401550e-01
     6000000000   -3.458562195e-01    6.477678418e-01
