! NanoVNA-App
! Date: 2026-05-22 18:39:13
! Start: 2.3GHz Stop: 2.6GHz Points: 401
! S-Parameter data: F S11
# Hz S RI R 50
!     Frequency           S11_Real           S11_Imag
     2300000000   -4.912785590e-01   -1.656884998e-01
     2300750000   -4.743542075e-01   -2.080328315e-01
     2301500000   -4.540477395e-01   -2.467289418e-01
     2302250000   -4.287914634e-01   -2.870614529e-01
     2303000000   -4.008827507e-01   -3.230377138e-01
     2303750000   -3.706699908e-01   -3.557770848e-01
     2304500000   -3.372520804e-01   -3.862104416e-01
     2305250000   -3.018702269e-01   -4.125524759e-01
     2306000000   -2.635139227e-01   -4.366120398e-01
     2306750000   -2.223554701e-01   -4.575929344e-01
     2307500000   -1.820768714e-01   -4.736004770e-01
     2308250000   -1.396388412e-01   -4.860570729e-01
     2309000000   -9.424705803e-02   -4.954703152e-01
     2309750000   -5.041822046e-02   -5.003274083e-01
     2310500000   -6.154668517e-03   -5.017302036e-01
     2311250000    3.904752061e-02   -4.987108707e-01
     2312000000    8.168115467e-02   -4.919576943e-01
     2312750000    1.249702349e-01   -4.811473191e-01
     2313500000    1.677234918e-01   -4.667750895e-01
     2314250000    2.076926082e-01   -4.490778148e-01
     2315000000    2.469735444e-01   -4.277024567e-01
     2315750000    2.835027277e-01   -4.032970071e-01
     2316500000    3.154296577e-01   -3.771300316e-01
     2317250000    3.486226499e-01   -3.458094001e-01
     2318000000    3.772041202e-01   -3.133025765e-01
     2318750000    4.033159018e-01   -2.770372033e-01
     2319500000    4.247916937e-01   -2.418951243e-01
     2320250000    4.436141551e-01   -2.030294240e-01
     2321000000    4.605732262e-01   -1.608076394e-01
     2321750000    4.698444903e-01   -1.237025931e-01
     2322500000    4.795662463e-01   -7.858251035e-02
     2323250000    4.838844836e-01   -3.548723832e-02
     2324000000    4.839000106e-01    4.644735251e-03
     2324750000    4.808908105e-01    4.837592691e-02
     2325500000    4.737587869e-01    8.988157660e-02
     2326250000    4.631312191e-01    1.307130903e-01
     2327000000    4.491482377e-01    1.689852029e-01
     2327750000    4.311882257e-01    2.087454200e-01
     2328500000    4.106905460e-01    2.450281829e-01
     2329250000    3.856068552e-01    2.804069221e-01
     2330000000    3.599281609e-01    3.115917444e-01
     2330750000    3.305583000e-01    3.399613798e-01
     2331500000    2.982372642e-01    3.677727878e-01
     2332250000    2.647893429e-01    3.911825120e-01
     2333000000    2.271686792e-01    4.129933119e-01
     2333750000    1.914474219e-01    4.292813241e-01
     2334500000    1.525603831e-01    4.431540668e-01
     2335250000    1.126703396e-01    4.536366761e-01
     2336000000    7.132897526e-02    4.612522125e-01
     2336750000    3.179792315e-02    4.643507600e-01
     2337500000   -9.142311290e-03    4.641700387e-01
     2338250000   -5.007638782e-02    4.601647556e-01
     2339000000   -8.923699707e-02    4.525200725e-01
     2339750000   -1.276264191e-01    4.416246116e-01
     2340500000   -1.645398736e-01    4.271213412e-01
     2341250000   -2.009623349e-01    4.096532166e-01
     2342000000   -2.336868793e-01    3.897537887e-01
     2342750000   -2.685587704e-01    3.653793633e-01
     2343500000   -2.959561944e-01    3.399201035e-01
     2344250000   -3.243657351e-01    3.107425570e-01
     2345000000   -3.490298986e-01    2.797976732e-01
     2345750000   -3.705416322e-01    2.473099232e-01
     2346500000   -3.881542385e-01    2.130548805e-01
     2347250000   -4.046840370e-01    1.758383214e-01
     2348000000   -4.168064594e-01    1.388706118e-01
     2348750000   -4.252479374e-01    1.017836854e-01
     2349500000   -4.310253561e-01    6.231771037e-02
     2350250000   -4.341753125e-01    2.305266075e-02
     2351000000   -4.327571094e-01   -1.587470248e-02
     2351750000   -4.282568693e-01   -5.356027558e-02
     2352500000   -4.205312431e-01   -8.836884052e-02
     2353250000   -4.093883038e-01   -1.291219145e-01
     2354000000   -3.954289854e-01   -1.616686285e-01
     2354750000   -3.785377443e-01   -1.960497499e-01
     2355500000   -3.560609519e-01   -2.282122821e-01
     2356250000   -3.333393037e-01   -2.620854378e-01
     2357000000   -3.089728057e-01   -2.883679867e-01
     2357750000   -2.816565037e-01   -3.125247359e-01
     2358500000   -2.535346746e-01   -3.332136273e-01
     2359250000   -2.217071205e-01   -3.552053571e-01
     2360000000   -1.896688491e-01   -3.714615405e-01
     2360750000   -1.562850624e-01   -3.854507208e-01
     2361500000   -1.227182820e-01   -3.959859908e-01
     2362250000   -8.663271368e-02   -4.041687548e-01
     2363000000   -5.142538249e-02   -4.083828926e-01
     2363750000   -1.536562666e-02   -4.098974466e-01
     2364500000    1.905918308e-02   -4.075468779e-01
     2365250000    5.398867652e-02   -4.026360810e-01
     2366000000    8.761925250e-02   -3.944129944e-01
     2366750000    1.208937615e-01   -3.830204606e-01
     2367500000    1.527246386e-01   -3.692860305e-01
     2368250000    1.828851104e-01   -3.523183763e-01
     2369000000    2.112666368e-01   -3.331081867e-01
     2369750000    2.381524146e-01   -3.114322424e-01
     2370500000    2.623327374e-01   -2.869016826e-01
     2371250000    2.850887477e-01   -2.612882853e-01
     2372000000    3.051296175e-01   -2.342287749e-01
     2372750000    3.220017552e-01   -2.044274211e-01
     2373500000    3.385471404e-01   -1.731045246e-01
     2374250000    3.492371142e-01   -1.430585384e-01
     2375000000    3.576190472e-01   -1.108007729e-01
     2375750000    3.651314974e-01   -7.724785805e-02
     2376500000    3.671996295e-01   -4.600162432e-02
     2377250000    3.677452505e-01   -1.161075756e-02
     2378000000    3.657042384e-01    2.040495165e-02
     2378750000    3.608725965e-01    5.350828171e-02
     2379500000    3.523692191e-01    8.374988288e-02
     2380250000    3.424239159e-01    1.147109419e-01
     2381000000    3.288168907e-01    1.444978416e-01
     2381750000    3.136295378e-01    1.743822992e-01
     2382500000    2.964626849e-01    1.980298460e-01
     2383250000    2.754226625e-01    2.232689112e-01
     2384000000    2.540889978e-01    2.445175052e-01
     2384750000    2.302777916e-01    2.668281496e-01
     2385500000    2.051697671e-01    2.837307751e-01
     2386250000    1.787543446e-01    2.987110615e-01
     2387000000    1.499038190e-01    3.133985698e-01
     2387750000    1.225321367e-01    3.227225244e-01
     2388500000    9.196409583e-02    3.319084644e-01
     2389250000    6.336419284e-02    3.367668688e-01
     2390000000    3.450623155e-02    3.382934332e-01
     2390750000    3.368215403e-03    3.389818966e-01
     2391500000   -2.661679499e-02    3.376476765e-01
     2392250000   -5.373019353e-02    3.320938945e-01
     2393000000   -8.173843473e-02    3.237301707e-01
     2393750000   -1.104886308e-01    3.140015900e-01
     2394500000   -1.359623820e-01    3.027159572e-01
     2395250000   -1.598630548e-01    2.876887321e-01
     2396000000   -1.837781519e-01    2.717630863e-01
     2396750000   -2.049331069e-01    2.537848651e-01
     2397500000   -2.249257118e-01    2.333626598e-01
     2398250000   -2.429716587e-01    2.125759125e-01
     2399000000   -2.578803003e-01    1.899355501e-01
     2399750000   -2.710468769e-01    1.654448658e-01
     2400500000   -2.823133171e-01    1.408260167e-01
     2401250000   -2.915240526e-01    1.154730022e-01
     2402000000   -2.987455726e-01    8.863990009e-02
     2402750000   -3.014869988e-01    6.358081847e-02
     2403500000   -3.046972454e-01    3.639830649e-02
     2404250000   -3.035524189e-01    1.045980025e-02
     2405000000   -3.007383049e-01   -1.605002955e-02
     2405750000   -2.957328856e-01   -4.166238010e-02
     2406500000   -2.889019549e-01   -6.901666522e-02
     2407250000   -2.789607942e-01   -9.160818160e-02
     2408000000   -2.670055628e-01   -1.142942533e-01
     2408750000   -2.537931800e-01   -1.359283179e-01
     2409500000   -2.396114767e-01   -1.568439305e-01
     2410250000   -2.228323966e-01   -1.724335253e-01
     2411000000   -2.051184177e-01   -1.920237690e-01
     2411750000   -1.860710233e-01   -2.069712430e-01
     2412500000   -1.659018695e-01   -2.213188559e-01
     2413250000   -1.451682448e-01   -2.324481457e-01
     2414000000   -1.239833757e-01   -2.407122701e-01
     2414750000   -1.012705117e-01   -2.482534498e-01
     2415500000   -7.930535078e-02   -2.540622950e-01
     2416250000   -5.610937998e-02   -2.568594217e-01
     2417000000   -3.290170059e-02   -2.577154636e-01
     2417750000   -1.056491304e-02   -2.562542260e-01
     2418500000    1.167263277e-02   -2.539877892e-01
     2419250000    3.285359219e-02   -2.486951351e-01
     2420000000    5.381698161e-02   -2.420769930e-01
     2420750000    7.445161790e-02   -2.332624793e-01
     2421500000    9.268910438e-02   -2.231841981e-01
     2422250000    1.105629578e-01   -2.106204629e-01
     2423000000    1.265143603e-01   -1.976760030e-01
     2423750000    1.397473812e-01   -1.831954122e-01
     2424500000    1.547422707e-01   -1.678686887e-01
     2425250000    1.671416909e-01   -1.514697373e-01
     2426000000    1.769321263e-01   -1.334757507e-01
     2426750000    1.863946468e-01   -1.152851656e-01
     2427500000    1.908944100e-01   -9.804908931e-02
     2428250000    1.999178678e-01   -7.678398490e-02
     2429000000    2.002440840e-01   -5.946541950e-02
     2429750000    2.010366917e-01   -4.074096307e-02
     2430500000    2.025890797e-01   -2.048076317e-02
     2431250000    2.008995563e-01   -2.254974563e-03
     2432000000    1.974144727e-01    1.542345248e-02
     2432750000    1.915224046e-01    3.195060417e-02
     2433500000    1.869264394e-01    5.115532130e-02
     2434250000    1.794522107e-01    6.638933718e-02
     2435000000    1.703495085e-01    8.124817908e-02
     2435750000    1.602040380e-01    9.562049061e-02
     2436500000    1.495417356e-01    1.082015187e-01
     2437250000    1.373060495e-01    1.191095114e-01
     2438000000    1.248764247e-01    1.275348067e-01
     2438750000    1.110177934e-01    1.390688866e-01
     2439500000    9.626085311e-02    1.474396139e-01
     2440250000    8.296915889e-02    1.509992778e-01
     2441000000    6.924708933e-02    1.540584117e-01
     2441750000    5.332341045e-02    1.601827294e-01
     2442500000    3.975250199e-02    1.587947309e-01
     2443250000    2.383047156e-02    1.609028727e-01
     2444000000    9.917093441e-03    1.591888219e-01
     2444750000   -5.235641263e-03    1.574024409e-01
     2445500000   -1.712462306e-02    1.528771520e-01
     2446250000   -3.150139004e-02    1.486663222e-01
     2447000000   -4.393537343e-02    1.433892697e-01
     2447750000   -5.582847819e-02    1.367600411e-01
     2448500000   -6.638433039e-02    1.296751350e-01
     2449250000   -7.581184059e-02    1.217402518e-01
     2450000000   -8.495341241e-02    1.126319692e-01
     2450750000   -9.311018884e-02    1.036316007e-01
     2451500000   -9.860460460e-02    9.351562709e-02
     2452250000   -1.053739786e-01    8.312875777e-02
     2453000000   -1.096243933e-01    7.295246422e-02
     2453750000   -1.133091375e-01    6.160780415e-02
     2454500000   -1.142207831e-01    5.085843801e-02
     2455250000   -1.155664623e-01    4.042872787e-02
     2456000000   -1.151397899e-01    2.953079902e-02
     2456750000   -1.143334955e-01    1.943864673e-02
     2457500000   -1.128945053e-01    8.756175637e-03
     2458250000   -1.091063544e-01   -7.163181435e-04
     2459000000   -1.061735600e-01   -1.031931490e-02
     2459750000   -1.017149389e-01   -1.909936965e-02
     2460500000   -9.546951205e-02   -2.656355873e-02
     2461250000   -9.030389041e-02   -3.408793360e-02
     2462000000   -8.363882452e-02   -4.108087346e-02
     2462750000   -7.654026151e-02   -4.652271792e-02
     2463500000   -6.963527948e-02   -5.424194783e-02
     2464250000   -6.226122379e-02   -5.794791132e-02
     2465000000   -5.477166176e-02   -6.060862914e-02
     2465750000   -4.675948620e-02   -6.400061399e-02
     2466500000   -3.955193236e-02   -6.400648504e-02
     2467250000   -3.112974390e-02   -6.676581502e-02
     2468000000   -2.368919179e-02   -6.739007682e-02
     2468750000   -1.675437018e-02   -6.639705598e-02
     2469500000   -8.997325785e-03   -6.591597944e-02
     2470250000   -3.078459995e-03   -6.258234382e-02
     2471000000    3.957053646e-03   -6.110873818e-02
     2471750000    8.087206632e-03   -5.691965669e-02
     2472500000    1.542659104e-02   -5.560664833e-02
     2473250000    1.862657629e-02   -5.002966151e-02
     2474000000    2.341558784e-02   -4.647618905e-02
     2474750000    2.553848363e-02   -4.067275673e-02
     2475500000    2.813737839e-02   -3.620858118e-02
     2476250000    3.118239529e-02   -3.146489337e-02
     2477000000    3.193424642e-02   -2.600007504e-02
     2477750000    3.399894387e-02   -2.100713365e-02
     2478500000    3.282937407e-02   -1.588806883e-02
     2479250000    3.290798143e-02   -1.134720538e-02
     2480000000    3.138813376e-02   -6.771540269e-03
     2480750000    3.029020689e-02   -1.862829202e-03
     2481500000    2.785428055e-02    2.264132490e-03
     2482250000    2.605138905e-02    5.872089416e-03
     2483000000    2.303959057e-02    9.212207049e-03
     2483750000    1.977833174e-02    1.220996678e-02
     2484500000    1.699667238e-02    1.463897061e-02
     2485250000    1.331922971e-02    1.596448943e-02
     2486000000    9.496346116e-03    1.693517528e-02
     2486750000    5.774555262e-03    1.773392968e-02
     2487500000    1.303884550e-03    1.773819327e-02
     2488250000   -2.453315770e-03    1.699278131e-02
     2489000000   -6.378441118e-03    1.533618011e-02
     2489750000   -1.080224570e-02    1.316768024e-02
     2490500000   -1.396052632e-02    1.197515149e-02
     2491250000   -1.789725572e-02    9.337488562e-03
     2492000000   -2.151617222e-02    5.331170745e-03
     2492750000   -2.416029572e-02    2.786899917e-03
     2493500000   -2.666314133e-02   -9.398481925e-04
     2494250000   -2.958830073e-02   -4.335826728e-03
     2495000000   -3.024973907e-02   -9.624248371e-03
     2495750000   -3.174478188e-02   -1.309782825e-02
     2496500000   -3.315115720e-02   -1.610512659e-02
     2497250000   -3.327316046e-02   -2.012677863e-02
     2498000000   -3.214260191e-02   -2.494451590e-02
     2498750000   -3.204409406e-02   -2.843727358e-02
     2499500000   -3.015129268e-02   -3.241260722e-02
     2500250000   -2.757539414e-02   -3.600474074e-02
     2501000000   -2.592030168e-02   -3.921374306e-02
     2501750000   -2.331108786e-02   -4.244232550e-02
     2502500000   -1.899733208e-02   -4.520159587e-02
     2503250000   -1.578358933e-02   -4.795684293e-02
     2504000000   -1.295772847e-02   -4.952766001e-02
     2504750000   -7.410303690e-03   -5.123815686e-02
     2505500000   -2.933283802e-03   -5.211299658e-02
     2506250000    4.546947021e-04   -5.247572809e-02
     2507000000    6.434795447e-03   -5.207290873e-02
     2507750000    1.007041801e-02   -5.193258077e-02
     2508500000    1.537493896e-02   -5.050179362e-02
     2509250000    1.959247142e-02   -4.834805802e-02
     2510000000    2.455169335e-02   -4.509476200e-02
     2510750000    2.766133845e-02   -4.415341094e-02
     2511500000    3.170228377e-02   -4.014520720e-02
     2512250000    3.526530415e-02   -3.555181250e-02
     2513000000    3.820570186e-02   -3.159410134e-02
     2513750000    4.039682075e-02   -2.716376446e-02
     2514500000    4.248472676e-02   -2.150852978e-02
     2515250000    4.423100874e-02   -1.768076606e-02
     2516000000    4.475748911e-02   -1.149376389e-02
     2516750000    4.436455294e-02   -6.258074194e-03
     2517500000    4.405708238e-02   -2.519157424e-04
     2518250000    4.306350648e-02    5.017261021e-03
     2519000000    4.067216069e-02    1.083159540e-02
     2519750000    3.806399181e-02    1.636508666e-02
     2520500000    3.478186578e-02    2.183227986e-02
     2521250000    3.065817058e-02    2.759296261e-02
     2522000000    2.604545280e-02    3.166508675e-02
     2522750000    2.113371156e-02    3.609043360e-02
     2523500000    1.540386211e-02    4.024912044e-02
     2524250000    9.995048866e-03    4.277282208e-02
     2525000000    1.864360878e-03    4.600586742e-02
     2525750000   -4.431563895e-03    4.856100306e-02
     2526500000   -1.192026213e-02    4.980227351e-02
     2527250000   -1.999068446e-02    5.045831576e-02
     2528000000   -2.788733691e-02    4.994380847e-02
     2528750000   -3.583851084e-02    4.972439632e-02
     2529500000   -4.324776307e-02    4.764109105e-02
     2530250000   -5.128481612e-02    4.505171627e-02
     2531000000   -5.901023373e-02    4.175245017e-02
     2531750000   -6.616081297e-02    3.821861744e-02
     2532500000   -7.288897783e-02    3.324953839e-02
     2533250000   -7.946074754e-02    2.813063748e-02
     2534000000   -8.535808325e-02    2.170081437e-02
     2534750000   -9.055691957e-02    1.467524935e-02
     2535500000   -9.448082745e-02    7.138804533e-03
     2536250000   -9.818769246e-02   -1.912076492e-03
     2537000000   -1.004146785e-01   -1.042725891e-02
     2537750000   -1.021505222e-01   -1.941559836e-02
     2538500000   -1.027571261e-01   -2.881368063e-02
     2539250000   -1.025152355e-01   -3.851491213e-02
     2540000000   -1.011655331e-01   -4.840699956e-02
     2540750000   -9.853348136e-02   -5.914821848e-02
     2541500000   -9.527042508e-02   -6.862253696e-02
     2542250000   -9.026285261e-02   -7.859464735e-02
     2543000000   -8.452756703e-02   -8.904247731e-02
     2543750000   -7.820869237e-02   -9.792079031e-02
     2544500000   -7.089745998e-02   -1.064686775e-01
     2545250000   -6.227880344e-02   -1.151666418e-01
     2546000000   -5.314546451e-02   -1.225574836e-01
     2546750000   -4.260906950e-02   -1.297482848e-01
     2547500000   -3.191706911e-02   -1.353105903e-01
     2548250000   -2.005699091e-02   -1.404538751e-01
     2549000000   -7.769749500e-03   -1.439349353e-01
     2549750000    5.395317916e-03   -1.465001255e-01
     2550500000    1.768746227e-02   -1.475069225e-01
     2551250000    3.192027286e-02   -1.477922797e-01
     2552000000    4.465065524e-02   -1.458534747e-01
     2552750000    5.900818482e-02   -1.433686316e-01
     2553500000    7.325048745e-02   -1.390682161e-01
     2554250000    8.669032902e-02   -1.333870888e-01
     2555000000    9.985018522e-02   -1.270746142e-01
     2555750000    1.131681949e-01   -1.187338531e-01
     2556500000    1.257184297e-01   -1.091490760e-01
     2557250000    1.364746094e-01   -9.935376048e-02
     2558000000    1.480497122e-01   -8.736984432e-02
     2558750000    1.577991545e-01   -7.436086982e-02
     2559500000    1.673019975e-01   -5.996473879e-02
     2560250000    1.738131791e-01   -4.555004835e-02
     2561000000    1.811641604e-01   -2.950993367e-02
     2561750000    1.863149256e-01   -1.261776034e-02
     2562500000    1.897310317e-01    3.592420602e-03
     2563250000    1.912679970e-01    2.089981735e-02
     2564000000    1.917305589e-01    3.959039226e-02
     2564750000    1.907337308e-01    5.720720813e-02
     2565500000    1.874000132e-01    7.564080507e-02
     2566250000    1.831501126e-01    9.385678917e-02
     2567000000    1.772397459e-01    1.122177467e-01
     2567750000    1.695494205e-01    1.300566792e-01
     2568500000    1.603369266e-01    1.465684175e-01
     2569250000    1.495255381e-01    1.629238129e-01
     2570000000    1.369607300e-01    1.787562370e-01
     2570750000    1.231972054e-01    1.922911704e-01
     2571500000    1.080908701e-01    2.054809332e-01
     2572250000    9.196118265e-02    2.177464217e-01
     2573000000    7.385583222e-02    2.283170521e-01
     2573750000    5.531262606e-02    2.370529473e-01
     2574500000    3.561883047e-02    2.443856448e-01
     2575250000    1.506535709e-02    2.493652999e-01
     2576000000   -5.757177714e-03    2.532605529e-01
     2576750000   -2.671216428e-02    2.551025748e-01
     2577500000   -4.863984138e-02    2.546756566e-01
     2578250000   -7.076787949e-02    2.533188462e-01
     2579000000   -9.284106642e-02    2.483564913e-01
     2579750000   -1.140758917e-01    2.421205193e-01
     2580500000   -1.347931474e-01    2.341384143e-01
     2581250000   -1.557008922e-01    2.237996161e-01
     2582000000   -1.753909439e-01    2.113786042e-01
     2582750000   -1.940141618e-01    1.978654265e-01
     2583500000   -2.120420933e-01    1.814900637e-01
     2584250000   -2.280410230e-01    1.642523259e-01
     2585000000   -2.431973070e-01    1.448739171e-01
     2585750000   -2.561092973e-01    1.241814345e-01
     2586500000   -2.680410743e-01    1.024853960e-01
     2587250000   -2.779278755e-01    7.975777984e-02
     2588000000   -2.855802774e-01    5.620796233e-02
     2588750000   -2.913590074e-01    3.126333654e-02
     2589500000   -2.942409813e-01    6.312033627e-03
     2590250000   -2.955571413e-01   -1.880656742e-02
     2591000000   -2.942864895e-01   -4.536775127e-02
     2591750000   -2.914105952e-01   -7.038994879e-02
     2592500000   -2.852559090e-01   -9.597408772e-02
     2593250000   -2.771421373e-01   -1.206636056e-01
     2594000000   -2.656508088e-01   -1.454098225e-01
     2594750000   -2.528949976e-01   -1.690062582e-01
     2595500000   -2.383377403e-01   -1.911533624e-01
     2596250000   -2.206247896e-01   -2.135143131e-01
     2597000000   -2.022475898e-01   -2.328961492e-01
     2597750000   -1.806028485e-01   -2.518496811e-01
     2598500000   -1.581171453e-01   -2.677913904e-01
     2599250000   -1.329655200e-01   -2.836006582e-01
     2600000000   -1.081484482e-01   -2.957476377e-01
