! NanoVNA-App
! Date: 2026-05-22 18:38:49
! Start: 2.3GHz Stop: 2.6GHz Points: 401
! S-Parameter data: F S11
# Hz S RI R 50
!     Frequency           S11_Real           S11_Imag
     2300000000   -2.595556676e-01   -2.999876440e-01
     2300750000   -2.326871157e-01   -3.200955987e-01
     2301500000   -2.032569647e-01   -3.381370902e-01
     2302250000   -1.739611179e-01   -3.524719179e-01
     2303000000   -1.397568583e-01   -3.652492762e-01
     2303750000   -1.091658771e-01   -3.740397990e-01
     2304500000   -7.603169233e-02   -3.805041313e-01
     2305250000   -4.245669022e-02   -3.841079772e-01
     2306000000   -8.755969815e-03   -3.842352331e-01
     2306750000    2.367025986e-02   -3.819570839e-01
     2307500000    5.684315786e-02   -3.770305216e-01
     2308250000    8.756548911e-02   -3.685344458e-01
     2309000000    1.191003248e-01   -3.577088118e-01
     2309750000    1.488577425e-01   -3.442212939e-01
     2310500000    1.777184457e-01   -3.279858232e-01
     2311250000    2.044734359e-01   -3.099201918e-01
     2312000000    2.292832583e-01   -2.891517282e-01
     2312750000    2.523207068e-01   -2.663935125e-01
     2313500000    2.741639912e-01   -2.412403673e-01
     2314250000    2.918804288e-01   -2.159143388e-01
     2315000000    3.088972867e-01   -1.882020980e-01
     2315750000    3.227212131e-01   -1.592246741e-01
     2316500000    3.337828219e-01   -1.296584755e-01
     2317250000    3.425734937e-01   -1.004871055e-01
     2318000000    3.492429554e-01   -6.958956271e-02
     2318750000    3.519680500e-01   -3.745288029e-02
     2319500000    3.528335094e-01   -7.649667095e-03
     2320250000    3.504426777e-01    2.400853299e-02
     2321000000    3.462212086e-01    5.364798754e-02
     2321750000    3.388556242e-01    8.219665289e-02
     2322500000    3.286089599e-01    1.114222109e-01
     2323250000    3.161353767e-01    1.391254067e-01
     2324000000    3.015877903e-01    1.654319763e-01
     2324750000    2.853218913e-01    1.884289086e-01
     2325500000    2.658239603e-01    2.125727087e-01
     2326250000    2.450988293e-01    2.337405086e-01
     2327000000    2.238472104e-01    2.519450486e-01
     2327750000    1.986279339e-01    2.691870928e-01
     2328500000    1.744757295e-01    2.834204733e-01
     2329250000    1.479928344e-01    2.958723605e-01
     2330000000    1.202011555e-01    3.062239289e-01
     2330750000    9.328677505e-02    3.137263060e-01
     2331500000    6.514105201e-02    3.188591003e-01
     2332250000    3.617556766e-02    3.221710324e-01
     2333000000    8.233053610e-03    3.223938942e-01
     2333750000   -1.963750273e-02    3.203088045e-01
     2334500000   -4.761122167e-02    3.156790137e-01
     2335250000   -7.514290512e-02    3.087996840e-01
     2336000000   -1.002300307e-01    3.000164330e-01
     2336750000   -1.253035218e-01    2.888186574e-01
     2337500000   -1.496469229e-01    2.757595181e-01
     2338250000   -1.718498021e-01    2.608208060e-01
     2339000000   -1.927655786e-01    2.442043275e-01
     2339750000   -2.116001546e-01    2.256908864e-01
     2340500000   -2.292018831e-01    2.053803355e-01
     2341250000   -2.442893684e-01    1.842443645e-01
     2342000000   -2.570982575e-01    1.619324833e-01
     2342750000   -2.687916160e-01    1.381459981e-01
     2343500000   -2.774614990e-01    1.142386422e-01
     2344250000   -2.838474512e-01    8.920085430e-02
     2345000000   -2.888041735e-01    6.372365355e-02
     2345750000   -2.906319797e-01    3.971331939e-02
     2346500000   -2.909417748e-01    1.278621145e-02
     2347250000   -2.889192998e-01   -1.246572658e-02
     2348000000   -2.848636806e-01   -3.703609109e-02
     2348750000   -2.780989707e-01   -6.146607921e-02
     2349500000   -2.696087360e-01   -8.602830023e-02
     2350250000   -2.599377632e-01   -1.079461798e-01
     2351000000   -2.476270795e-01   -1.300769746e-01
     2351750000   -2.338922322e-01   -1.501564085e-01
     2352500000   -2.197509557e-01   -1.688353419e-01
     2353250000   -2.022271305e-01   -1.866694540e-01
     2354000000   -1.841493994e-01   -2.033608109e-01
     2354750000   -1.650509387e-01   -2.176078558e-01
     2355500000   -1.447077096e-01   -2.297997475e-01
     2356250000   -1.241293997e-01   -2.410220802e-01
     2357000000   -1.028579846e-01   -2.496086359e-01
     2357750000   -8.089038730e-02   -2.559871376e-01
     2358500000   -5.815511197e-02   -2.610011995e-01
     2359250000   -3.576634824e-02   -2.637978196e-01
     2360000000   -1.331126969e-02   -2.646901011e-01
     2360750000    9.099115618e-03   -2.633336484e-01
     2361500000    3.047104180e-02   -2.607658505e-01
     2362250000    5.137018487e-02   -2.557166517e-01
     2363000000    7.264306396e-02   -2.488020957e-01
     2363750000    9.223207086e-02   -2.403720021e-01
     2364500000    1.111567318e-01   -2.304982394e-01
     2365250000    1.291303486e-01   -2.185342610e-01
     2366000000    1.451619714e-01   -2.059552372e-01
     2366750000    1.607707739e-01   -1.912662387e-01
     2367500000    1.741645634e-01   -1.755453497e-01
     2368250000    1.863855422e-01   -1.592646837e-01
     2369000000    1.970779598e-01   -1.411764622e-01
     2369750000    2.063276768e-01   -1.226031408e-01
     2370500000    2.143849432e-01   -1.036785245e-01
     2371250000    2.197275013e-01   -8.428481966e-02
     2372000000    2.238643020e-01   -6.472107768e-02
     2372750000    2.264102697e-01   -4.430397972e-02
     2373500000    2.270584852e-01   -2.417362109e-02
     2374250000    2.267656177e-01   -4.552312195e-03
     2375000000    2.235167027e-01    1.496567857e-02
     2375750000    2.197690904e-01    3.392207250e-02
     2376500000    2.146178186e-01    5.243851990e-02
     2377250000    2.064361721e-01    6.971711665e-02
     2378000000    1.987209916e-01    8.711358905e-02
     2378750000    1.886918545e-01    1.034597903e-01
     2379500000    1.782485545e-01    1.190325916e-01
     2380250000    1.658406407e-01    1.317286640e-01
     2381000000    1.529188305e-01    1.455498934e-01
     2381750000    1.393414289e-01    1.570744962e-01
     2382500000    1.254800111e-01    1.675425023e-01
     2383250000    1.089953259e-01    1.762011796e-01
     2384000000    9.370157868e-02    1.842429042e-01
     2384750000    7.797337323e-02    1.895830780e-01
     2385500000    6.127541885e-02    1.930590868e-01
     2386250000    4.474223778e-02    1.976761520e-01
     2387000000    2.771764807e-02    1.989489049e-01
     2387750000    1.178326365e-02    1.990686208e-01
     2388500000   -4.356154241e-03    1.961841583e-01
     2389250000   -2.062625438e-02    1.950811148e-01
     2390000000   -3.625614941e-02    1.908725500e-01
     2390750000   -5.146996304e-02    1.850563288e-01
     2391500000   -6.584359705e-02    1.787941605e-01
     2392250000   -7.930066437e-02    1.721715033e-01
     2393000000   -9.246903658e-02    1.633221507e-01
     2393750000   -1.045163721e-01    1.533280760e-01
     2394500000   -1.158879772e-01    1.438222826e-01
     2395250000   -1.256462038e-01    1.326691657e-01
     2396000000   -1.344836056e-01    1.210384369e-01
     2396750000   -1.431583613e-01    1.088110432e-01
     2397500000   -1.487836987e-01    9.637635201e-02
     2398250000   -1.553329527e-01    8.344589174e-02
     2399000000   -1.595340222e-01    6.965774298e-02
     2399750000   -1.634255648e-01    5.643989146e-02
     2400500000   -1.654798388e-01    4.288620502e-02
     2401250000   -1.658984721e-01    2.916455455e-02
     2402000000   -1.658883542e-01    1.640408300e-02
     2402750000   -1.651704162e-01    2.901197411e-03
     2403500000   -1.625859737e-01   -9.774278849e-03
     2404250000   -1.594890207e-01   -2.186882682e-02
     2405000000   -1.555827111e-01   -3.423873335e-02
     2405750000   -1.498209089e-01   -4.556295648e-02
     2406500000   -1.429193765e-01   -5.644967034e-02
     2407250000   -1.368564218e-01   -6.688513607e-02
     2408000000   -1.289999187e-01   -7.681290805e-02
     2408750000   -1.209298000e-01   -8.645114303e-02
     2409500000   -1.118713021e-01   -9.422574937e-02
     2410250000   -1.029785201e-01   -1.015891060e-01
     2411000000   -9.337494522e-02   -1.081488654e-01
     2411750000   -8.321007341e-02   -1.139404848e-01
     2412500000   -7.302302122e-02   -1.193229705e-01
     2413250000   -6.273995340e-02   -1.231748089e-01
     2414000000   -5.183865130e-02   -1.255927831e-01
     2414750000   -4.144906253e-02   -1.278705597e-01
     2415500000   -3.100456670e-02   -1.294284612e-01
     2416250000   -2.113484219e-02   -1.299207062e-01
     2417000000   -1.014894992e-02   -1.303628832e-01
     2417750000   -1.002341392e-03   -1.277758777e-01
     2418500000    8.750174195e-03   -1.266156286e-01
     2419250000    1.770755090e-02   -1.234260425e-01
     2420000000    2.678297460e-02   -1.201552823e-01
     2420750000    3.485606983e-02   -1.160945594e-01
     2421500000    4.149726778e-02   -1.113367453e-01
     2422250000    4.974947125e-02   -1.063970551e-01
     2423000000    5.625020340e-02   -1.010297686e-01
     2423750000    6.225385889e-02   -9.511532634e-02
     2424500000    6.802032143e-02   -8.940162510e-02
     2425250000    7.333482057e-02   -8.273322880e-02
     2426000000    7.761022449e-02   -7.578240335e-02
     2426750000    8.009982854e-02   -6.859426945e-02
     2427500000    8.518875390e-02   -6.126479432e-02
     2428250000    8.542522788e-02   -5.454545468e-02
     2429000000    8.852276951e-02   -4.715187103e-02
     2429750000    9.002133459e-02   -3.914662451e-02
     2430500000    9.116499126e-02   -3.279949725e-02
     2431250000    9.067717195e-02   -2.627323940e-02
     2432000000    9.132248163e-02   -1.861125417e-02
     2432750000    8.979024738e-02   -1.200370118e-02
     2433500000    8.815866709e-02   -5.988143384e-03
     2434250000    8.832234889e-02    9.342204430e-04
     2435000000    8.590140939e-02    7.021614816e-03
     2435750000    8.192893863e-02    1.123912167e-02
     2436500000    8.118543774e-02    1.884126291e-02
     2437250000    7.701426744e-02    2.273419127e-02
     2438000000    7.481098175e-02    2.862785570e-02
     2438750000    7.199700922e-02    3.400352970e-02
     2439500000    6.872200966e-02    3.755176440e-02
     2440250000    6.475108862e-02    3.955818713e-02
     2441000000    6.131678447e-02    4.559830949e-02
     2441750000    5.686907470e-02    4.790208489e-02
     2442500000    5.368888378e-02    4.982127994e-02
     2443250000    4.953676462e-02    5.248743668e-02
     2444000000    4.542360455e-02    5.486447364e-02
     2444750000    4.119403288e-02    5.656341463e-02
     2445500000    3.720912710e-02    5.696549639e-02
     2446250000    3.269455954e-02    5.915881693e-02
     2447000000    2.838734724e-02    6.037692726e-02
     2447750000    2.471553162e-02    6.091515347e-02
     2448500000    2.064095810e-02    6.104207784e-02
     2449250000    1.634274796e-02    6.195698678e-02
     2450000000    1.199031994e-02    6.255170703e-02
     2450750000    9.148538113e-03    6.260179728e-02
     2451500000    6.319009233e-03    6.247690320e-02
     2452250000    2.792867366e-03    6.245929748e-02
     2453000000   -3.748898744e-04    6.215181202e-02
     2453750000   -3.325043479e-03    6.156027690e-02
     2454500000   -7.439981215e-03    6.059098616e-02
     2455250000   -8.107107133e-03    6.094614416e-02
     2456000000   -1.075774711e-02    6.004765630e-02
     2456750000   -1.392611116e-02    5.897268653e-02
     2457500000   -1.636218466e-02    5.796292424e-02
     2458250000   -1.788410731e-02    5.694624409e-02
     2459000000   -2.107382752e-02    5.558098480e-02
     2459750000   -2.352503501e-02    5.378460139e-02
     2460500000   -2.504194528e-02    5.278088897e-02
     2461250000   -2.745847777e-02    5.122787133e-02
     2462000000   -3.043107875e-02    4.837939143e-02
     2462750000   -3.187614679e-02    4.756956920e-02
     2463500000   -3.374916688e-02    4.594749585e-02
     2464250000   -3.651351109e-02    4.318735749e-02
     2465000000   -3.869970143e-02    4.004270211e-02
     2465750000   -4.040254653e-02    3.875418380e-02
     2466500000   -4.288890958e-02    3.440810367e-02
     2467250000   -4.432790354e-02    3.524498641e-02
     2468000000   -4.636744782e-02    3.068023734e-02
     2468750000   -4.767315462e-02    2.539717592e-02
     2469500000   -4.954531416e-02    2.367116511e-02
     2470250000   -5.135127902e-02    2.240044065e-02
     2471000000   -5.205799639e-02    1.586101763e-02
     2471750000   -5.327443779e-02    1.227270532e-02
     2472500000   -5.466788635e-02    1.000643615e-02
     2473250000   -5.550091341e-02    5.876506213e-03
     2474000000   -5.510905758e-02    4.599852255e-04
     2474750000   -5.645694584e-02   -2.138809068e-03
     2475500000   -5.552106351e-02   -7.039268501e-03
     2476250000   -5.512535945e-02   -1.104258280e-02
     2477000000   -5.497931689e-02   -1.476016082e-02
     2477750000   -5.185863748e-02   -1.977575384e-02
     2478500000   -5.090656132e-02   -2.376741543e-02
     2479250000   -5.000098422e-02   -2.693420835e-02
     2480000000   -4.692979530e-02   -3.138161451e-02
     2480750000   -4.479400814e-02   -3.472684324e-02
     2481500000   -4.111335427e-02   -3.817373887e-02
     2482250000   -3.797887638e-02   -4.156096280e-02
     2483000000   -3.340319172e-02   -4.495619610e-02
     2483750000   -2.984322980e-02   -4.769045115e-02
     2484500000   -2.530005947e-02   -5.031200498e-02
     2485250000   -2.032308839e-02   -5.250196531e-02
     2486000000   -1.523811277e-02   -5.494976789e-02
     2486750000   -9.613366798e-03   -5.676296726e-02
     2487500000   -4.226039629e-03   -5.845029280e-02
     2488250000    2.589406446e-03   -5.894972384e-02
     2489000000    7.852377370e-03   -5.985138193e-02
     2489750000    1.399232354e-02   -5.995190889e-02
     2490500000    1.582147367e-02   -6.028688326e-02
     2491250000    2.203238010e-02   -5.950959399e-02
     2492000000    2.725132741e-02   -5.889187381e-02
     2492750000    3.326433897e-02   -5.800967664e-02
     2493500000    3.879650310e-02   -5.555795506e-02
     2494250000    4.387670755e-02   -5.086003989e-02
     2495000000    4.866032302e-02   -4.802855477e-02
     2495750000    5.338213965e-02   -4.515304416e-02
     2496500000    5.757054314e-02   -3.996228799e-02
     2497250000    6.224903092e-02   -3.562556580e-02
     2498000000    6.582610309e-02   -2.947570197e-02
     2498750000    6.918396801e-02   -2.317888848e-02
     2499500000    7.121787220e-02   -1.695042290e-02
     2500250000    7.396072149e-02   -1.079630107e-02
     2501000000    7.557140291e-02   -4.208936822e-03
     2501750000    7.632678747e-02    2.655005082e-03
     2502500000    7.852475345e-02    8.717028424e-03
     2503250000    7.647284865e-02    1.710320264e-02
     2504000000    7.685206085e-02    2.430020645e-02
     2504750000    7.456042618e-02    3.170673549e-02
     2505500000    7.119244337e-02    3.906707838e-02
     2506250000    6.872775406e-02    4.574771225e-02
     2507000000    6.612081826e-02    5.278667808e-02
     2507750000    5.953742564e-02    5.962074175e-02
     2508500000    5.498296395e-02    6.575332582e-02
     2509250000    4.955407977e-02    7.131670415e-02
     2510000000    4.270787165e-02    7.650381327e-02
     2510750000    3.585853428e-02    8.204925805e-02
     2511500000    2.917859890e-02    8.620239049e-02
     2512250000    1.948129199e-02    8.976551145e-02
     2513000000    1.272340678e-02    9.426524490e-02
     2513750000    2.494510030e-03    9.557346255e-02
     2514500000   -6.093317177e-03    9.731761366e-02
     2515250000   -1.643013209e-02    9.740855545e-02
     2516000000   -2.575557306e-02    9.811212867e-02
     2516750000   -3.518650308e-02    9.662274271e-02
     2517500000   -4.542404041e-02    9.543696791e-02
     2518250000   -5.485223606e-02    9.248088300e-02
     2519000000   -6.462643296e-02    8.797733486e-02
     2519750000   -7.361174375e-02    8.370701969e-02
     2520500000   -8.279030025e-02    7.784128934e-02
     2521250000   -9.181250632e-02    7.185507566e-02
     2522000000   -9.992085397e-02    6.426165253e-02
     2522750000   -1.076334119e-01    5.691870302e-02
     2523500000   -1.149515063e-01    4.825416580e-02
     2524250000   -1.210613325e-01    3.854188696e-02
     2525000000   -1.276728809e-01    2.898390777e-02
     2525750000   -1.325673759e-01    1.839382946e-02
     2526500000   -1.359136254e-01    7.158603054e-03
     2527250000   -1.389634460e-01   -4.508279264e-03
     2528000000   -1.412770301e-01   -1.631801017e-02
     2528750000   -1.423422098e-01   -2.829507925e-02
     2529500000   -1.421598494e-01   -4.036137089e-02
     2530250000   -1.405741572e-01   -5.291854590e-02
     2531000000   -1.385784596e-01   -6.472814083e-02
     2531750000   -1.357504427e-01   -7.653474063e-02
     2532500000   -1.303118616e-01   -8.816789091e-02
     2533250000   -1.250205785e-01   -9.936203808e-02
     2534000000   -1.180090159e-01   -1.103228256e-01
     2534750000   -1.091970354e-01   -1.203322783e-01
     2535500000   -1.014042273e-01   -1.305920780e-01
     2536250000   -9.097688645e-02   -1.395361274e-01
     2537000000   -8.047805727e-02   -1.480580419e-01
     2537750000   -6.801393628e-02   -1.553626209e-01
     2538500000   -5.530993268e-02   -1.614919305e-01
     2539250000   -4.139487073e-02   -1.667542011e-01
     2540000000   -2.730409056e-02   -1.708318293e-01
     2540750000   -1.223753113e-02   -1.744651645e-01
     2541500000    2.328298753e-03   -1.763818562e-01
     2542250000    1.781687699e-02   -1.765971333e-01
     2543000000    3.381073475e-02   -1.758766770e-01
     2543750000    4.837242141e-02   -1.750074774e-01
     2544500000    6.403567642e-02   -1.709704101e-01
     2545250000    8.011014014e-02   -1.656912714e-01
     2546000000    9.399596602e-02   -1.612240970e-01
     2546750000    1.091610864e-01   -1.531254798e-01
     2547500000    1.227637529e-01   -1.445768028e-01
     2548250000    1.360468268e-01   -1.355920583e-01
     2549000000    1.489215642e-01   -1.239818558e-01
     2549750000    1.606640220e-01   -1.110311672e-01
     2550500000    1.705130935e-01   -9.760240465e-02
     2551250000    1.805786341e-01   -8.289172500e-02
     2552000000    1.884499341e-01   -6.872962415e-02
     2552750000    1.947592646e-01   -5.064441264e-02
     2553500000    2.006285489e-01   -3.438578919e-02
     2554250000    2.049952298e-01   -1.620646380e-02
     2555000000    2.080606073e-01    3.691986203e-04
     2555750000    2.094134390e-01    1.942049153e-02
     2556500000    2.084050179e-01    3.834933043e-02
     2557250000    2.062614262e-01    5.628972128e-02
     2558000000    2.054444402e-01    7.428187132e-02
     2558750000    1.966237575e-01    9.306054562e-02
     2559500000    1.917190105e-01    1.110204831e-01
     2560250000    1.809090823e-01    1.283724308e-01
     2561000000    1.732392609e-01    1.446088701e-01
     2561750000    1.622291654e-01    1.611263603e-01
     2562500000    1.482282877e-01    1.756185293e-01
     2563250000    1.337873489e-01    1.890752017e-01
     2564000000    1.190831885e-01    2.025861889e-01
     2564750000    1.020101309e-01    2.131772041e-01
     2565500000    8.491588384e-02    2.239478230e-01
     2566250000    6.690650433e-02    2.330057174e-01
     2567000000    4.786408320e-02    2.403808236e-01
     2567750000    2.810701169e-02    2.462821752e-01
     2568500000    7.702799980e-03    2.499250025e-01
     2569250000   -1.326952968e-02    2.518967092e-01
     2570000000   -3.464223444e-02    2.521799803e-01
     2570750000   -5.527879298e-02    2.505727112e-01
     2571500000   -7.636252791e-02    2.469298691e-01
     2572250000   -9.717410058e-02    2.412485629e-01
     2573000000   -1.176492274e-01    2.347427011e-01
     2573750000   -1.377242804e-01    2.257101089e-01
     2574500000   -1.567014307e-01    2.157183439e-01
     2575250000   -1.748407036e-01    2.028162479e-01
     2576000000   -1.923874170e-01    1.886947900e-01
     2576750000   -2.084881812e-01    1.740910113e-01
     2577500000   -2.228845954e-01    1.558521837e-01
     2578250000   -2.369033247e-01    1.377351731e-01
     2579000000   -2.487825900e-01    1.181695536e-01
     2579750000   -2.588357329e-01    9.688669443e-02
     2580500000   -2.670834064e-01    7.513259351e-02
     2581250000   -2.737452090e-01    5.281901360e-02
     2582000000   -2.780774534e-01    2.922307700e-02
     2582750000   -2.802736759e-01    5.395106040e-03
     2583500000   -2.806365788e-01   -1.897051372e-02
     2584250000   -2.786746621e-01   -4.271316156e-02
     2585000000   -2.746286690e-01   -6.733296812e-02
     2585750000   -2.687621117e-01   -9.139658511e-02
     2586500000   -2.601215839e-01   -1.153509542e-01
     2587250000   -2.511556149e-01   -1.379145533e-01
     2588000000   -2.382415980e-01   -1.603992730e-01
     2588750000   -2.242902368e-01   -1.811768562e-01
     2589500000   -2.080264688e-01   -2.005521059e-01
     2590250000   -1.914991140e-01   -2.191555202e-01
     2591000000   -1.711016148e-01   -2.369443625e-01
     2591750000   -1.507319957e-01   -2.515487075e-01
     2592500000   -1.270196289e-01   -2.653448880e-01
     2593250000   -1.054029688e-01   -2.766550779e-01
     2594000000   -7.907509804e-02   -2.863479853e-01
     2594750000   -5.433356389e-02   -2.939651608e-01
     2595500000   -2.788248658e-02   -2.997851074e-01
     2596250000   -9.384098812e-04   -3.023847640e-01
     2597000000    2.517501265e-02   -3.031806052e-01
     2597750000    5.245580524e-02   -3.025475740e-01
     2598500000    8.077181876e-02   -2.977805436e-01
     2599250000    1.063916087e-01   -2.928043008e-01
     2600000000    1.321739256e-01   -2.835590541e-01
