! NanoVNA-App
! Date: 2026-05-22 18:37:12
! Start: 2.3GHz Stop: 0Hz Points: 401
! S-Parameter data: F S11
# Hz S RI R 50
!     Frequency           S11_Real           S11_Imag
     2300000000   -4.969351292e-01   -2.077342719e-01
     2300750000   -4.753049612e-01   -2.505548298e-01
     2301500000   -4.516350925e-01   -2.901080251e-01
     2302250000   -4.242581129e-01   -3.266789615e-01
     2303000000   -3.915941715e-01   -3.632283211e-01
     2303750000   -3.595426381e-01   -3.939569890e-01
     2304500000   -3.208111823e-01   -4.241276383e-01
     2305250000   -2.835564017e-01   -4.490764439e-01
     2306000000   -2.423014045e-01   -4.714263380e-01
     2306750000   -2.008458823e-01   -4.897313118e-01
     2307500000   -1.561020315e-01   -5.049399137e-01
     2308250000   -1.110612601e-01   -5.155252814e-01
     2309000000   -6.703609228e-02   -5.220699310e-01
     2309750000   -2.030912787e-02   -5.247795582e-01
     2310500000    2.437171154e-02   -5.236802697e-01
     2311250000    7.100041956e-02   -5.188788176e-01
     2312000000    1.153268218e-01   -5.101045966e-01
     2312750000    1.590171903e-01   -4.966451824e-01
     2313500000    2.014039308e-01   -4.797770679e-01
     2314250000    2.407673001e-01   -4.600296617e-01
     2315000000    2.799539566e-01   -4.365577102e-01
     2315750000    3.164760768e-01   -4.088779092e-01
     2316500000    3.490374088e-01   -3.797185421e-01
     2317250000    3.791464865e-01   -3.480369449e-01
     2318000000    4.078229964e-01   -3.123480678e-01
     2318750000    4.323957860e-01   -2.745660841e-01
     2319500000    4.522148073e-01   -2.370051891e-01
     2320250000    4.694760442e-01   -1.964648813e-01
     2321000000    4.840241373e-01   -1.535156071e-01
     2321750000    4.940808415e-01   -1.108067632e-01
     2322500000    5.002321601e-01   -6.810471416e-02
     2323250000    5.021789670e-01   -2.502053045e-02
     2324000000    5.006095171e-01    1.934686303e-02
     2324750000    4.956440628e-01    6.148351729e-02
     2325500000    4.858686030e-01    1.073425338e-01
     2326250000    4.738630652e-01    1.476536095e-01
     2327000000    4.575947821e-01    1.873963475e-01
     2327750000    4.378193617e-01    2.269727886e-01
     2328500000    4.160936773e-01    2.622427642e-01
     2329250000    3.890781105e-01    2.978628874e-01
     2330000000    3.611524403e-01    3.294539154e-01
     2330750000    3.307503164e-01    3.574145138e-01
     2331500000    2.962339520e-01    3.846225441e-01
     2332250000    2.620267868e-01    4.074089527e-01
     2333000000    2.224760056e-01    4.292180836e-01
     2333750000    1.851931661e-01    4.444440603e-01
     2334500000    1.445531696e-01    4.584185779e-01
     2335250000    1.043274105e-01    4.679605067e-01
     2336000000    6.292437017e-02    4.740532935e-01
     2336750000    2.197696455e-02    4.763467610e-01
     2337500000   -1.960482076e-02    4.750710130e-01
     2338250000   -6.105231494e-02    4.702815711e-01
     2339000000   -1.008100733e-01    4.620275795e-01
     2339750000   -1.399846822e-01    4.505407810e-01
     2340500000   -1.797871441e-01    4.348811209e-01
     2341250000   -2.138531506e-01    4.172892869e-01
     2342000000   -2.489763796e-01    3.957813978e-01
     2342750000   -2.827540934e-01    3.711648285e-01
     2343500000   -3.109735548e-01    3.446070552e-01
     2344250000   -3.384457231e-01    3.157270849e-01
     2345000000   -3.627240360e-01    2.845849693e-01
     2345750000   -3.844586611e-01    2.507980764e-01
     2346500000   -4.031864703e-01    2.158803642e-01
     2347250000   -4.187657237e-01    1.789656281e-01
     2348000000   -4.300794005e-01    1.433538049e-01
     2348750000   -4.415389597e-01    9.970018268e-02
     2349500000   -4.452253282e-01    6.466946006e-02
     2350250000   -4.467349052e-01    2.700365894e-02
     2351000000   -4.462232888e-01   -1.303528994e-02
     2351750000   -4.423682392e-01   -5.429400131e-02
     2352500000   -4.345483482e-01   -8.904284984e-02
     2353250000   -4.228371978e-01   -1.235993207e-01
     2354000000   -4.088697731e-01   -1.645744145e-01
     2354750000   -3.915983140e-01   -1.957331747e-01
     2355500000   -3.712699115e-01   -2.264901698e-01
     2356250000   -3.489011824e-01   -2.595520616e-01
     2357000000   -3.230603635e-01   -2.891152203e-01
     2357750000   -2.956701815e-01   -3.130358458e-01
     2358500000   -2.655993104e-01   -3.374420702e-01
     2359250000   -2.361798286e-01   -3.550776243e-01
     2360000000   -2.015908957e-01   -3.755002618e-01
     2360750000   -1.675700843e-01   -3.898798525e-01
     2361500000   -1.330918670e-01   -4.008867741e-01
     2362250000   -9.750200063e-02   -4.094748199e-01
     2363000000   -6.131565198e-02   -4.147352874e-01
     2363750000   -2.432451583e-02   -4.176793396e-01
     2364500000    1.131948829e-02   -4.160324335e-01
     2365250000    4.844717309e-02   -4.126515687e-01
     2366000000    8.294553310e-02   -4.053533971e-01
     2366750000    1.170430630e-01   -3.949841857e-01
     2367500000    1.519791335e-01   -3.823322058e-01
     2368250000    1.836068481e-01   -3.665195405e-01
     2369000000    2.114394158e-01   -3.483111262e-01
     2369750000    2.412940413e-01   -3.264025152e-01
     2370500000    2.666909099e-01   -3.032927513e-01
     2371250000    2.911721468e-01   -2.779714167e-01
     2372000000    3.119763136e-01   -2.517170310e-01
     2372750000    3.318697512e-01   -2.215945721e-01
     2373500000    3.467172086e-01   -1.922841817e-01
     2374250000    3.622214198e-01   -1.603050679e-01
     2375000000    3.726431727e-01   -1.280252039e-01
     2375750000    3.796164393e-01   -9.632750601e-02
     2376500000    3.863981366e-01   -6.081464142e-02
     2377250000    3.877201378e-01   -2.794121951e-02
     2378000000    3.866873682e-01    4.849942401e-03
     2378750000    3.828282952e-01    3.821790963e-02
     2379500000    3.764663935e-01    7.085039467e-02
     2380250000    3.671695590e-01    1.014813334e-01
     2381000000    3.551576436e-01    1.316989660e-01
     2381750000    3.410061896e-01    1.646146178e-01
     2382500000    3.241387606e-01    1.893197894e-01
     2383250000    3.044238091e-01    2.148737758e-01
     2384000000    2.838207781e-01    2.394933403e-01
     2384750000    2.606509328e-01    2.630823255e-01
     2385500000    2.362290323e-01    2.810323834e-01
     2386250000    2.099556029e-01    2.989467978e-01
     2387000000    1.822050810e-01    3.136768043e-01
     2387750000    1.531554163e-01    3.293005526e-01
     2388500000    1.247497872e-01    3.376160562e-01
     2389250000    9.418798983e-02    3.457610011e-01
     2390000000    6.573354453e-02    3.491593599e-01
     2390750000    3.244547918e-02    3.529544473e-01
     2391500000    1.062413561e-03    3.543550670e-01
     2392250000   -2.644731291e-02    3.499181271e-01
     2393000000   -5.728379264e-02    3.449267149e-01
     2393750000   -8.604875952e-02    3.370637000e-01
     2394500000   -1.149088070e-01    3.272143006e-01
     2395250000   -1.407183111e-01    3.141787350e-01
     2396000000   -1.661991179e-01    2.997239828e-01
     2396750000   -1.900120080e-01    2.830077708e-01
     2397500000   -2.138496637e-01    2.647713423e-01
     2398250000   -2.333306223e-01    2.444574237e-01
     2399000000   -2.531618774e-01    2.223672271e-01
     2399750000   -2.697116733e-01    1.993393004e-01
     2400500000   -2.839820981e-01    1.749273539e-01
     2401250000   -2.966794670e-01    1.500067711e-01
     2402000000   -3.071168065e-01    1.242126375e-01
     2402750000   -3.144818544e-01    9.792561829e-02
     2403500000   -3.208363950e-01    7.178349048e-02
     2404250000   -3.231144249e-01    4.509554058e-02
     2405000000   -3.243403435e-01    1.844822429e-02
     2405750000   -3.233765960e-01   -9.247520939e-03
     2406500000   -3.189533055e-01   -3.589396179e-02
     2407250000   -3.135440350e-01   -6.074175611e-02
     2408000000   -3.048381209e-01   -8.414063603e-02
     2408750000   -2.947939932e-01   -1.083317026e-01
     2409500000   -2.824637294e-01   -1.310041249e-01
     2410250000   -2.690644860e-01   -1.517298967e-01
     2411000000   -2.529987991e-01   -1.719467789e-01
     2411750000   -2.361830771e-01   -1.899146438e-01
     2412500000   -2.172211409e-01   -2.067957819e-01
     2413250000   -1.972798109e-01   -2.215578854e-01
     2414000000   -1.762321591e-01   -2.355315387e-01
     2414750000   -1.545063406e-01   -2.458261400e-01
     2415500000   -1.323492378e-01   -2.548542917e-01
     2416250000   -1.085175723e-01   -2.619869113e-01
     2417000000   -8.493931592e-02   -2.676117718e-01
     2417750000   -6.099300459e-02   -2.704726756e-01
     2418500000   -3.762372956e-02   -2.711789012e-01
     2419250000   -1.530440990e-02   -2.703884244e-01
     2420000000    8.955528960e-03   -2.678342164e-01
     2420750000    3.075136803e-02   -2.630195022e-01
     2421500000    5.267186463e-02   -2.567873597e-01
     2422250000    7.398742437e-02   -2.487441003e-01
     2423000000    9.446450323e-02   -2.387077361e-01
     2423750000    1.128628626e-01   -2.271189839e-01
     2424500000    1.311023235e-01   -2.143218666e-01
     2425250000    1.479842216e-01   -2.004122436e-01
     2426000000    1.649778038e-01   -1.849986017e-01
     2426750000    1.758513302e-01   -1.687160730e-01
     2427500000    1.883340180e-01   -1.519340873e-01
     2428250000    2.002370656e-01   -1.333883703e-01
     2429000000    2.089277953e-01   -1.144813746e-01
     2429750000    2.140556276e-01   -9.724190831e-02
     2430500000    2.226631045e-01   -7.558830082e-02
     2431250000    2.260576636e-01   -5.609913543e-02
     2432000000    2.266954780e-01   -3.864928335e-02
     2432750000    2.295055836e-01   -1.630640961e-02
     2433500000    2.277070731e-01    9.698405629e-04
     2434250000    2.254232466e-01    2.085173130e-02
     2435000000    2.208195925e-01    3.826344758e-02
     2435750000    2.151868641e-01    5.575639382e-02
     2436500000    2.088233829e-01    7.555551827e-02
     2437250000    1.994890571e-01    8.756587654e-02
     2438000000    1.901421249e-01    1.025428548e-01
     2438750000    1.804713905e-01    1.210096404e-01
     2439500000    1.679381728e-01    1.320425421e-01
     2440250000    1.549395472e-01    1.463791728e-01
     2441000000    1.423641592e-01    1.550254971e-01
     2441750000    1.290074885e-01    1.643875986e-01
     2442500000    1.135706082e-01    1.728468835e-01
     2443250000    9.967249632e-02    1.796201319e-01
     2444000000    8.421260864e-02    1.852538139e-01
     2444750000    6.944785267e-02    1.887509674e-01
     2445500000    5.249283835e-02    1.926663667e-01
     2446250000    3.911609203e-02    1.927999854e-01
     2447000000    2.271068096e-02    1.944294572e-01
     2447750000    7.875341922e-03    1.927330643e-01
     2448500000   -7.702245377e-03    1.907852143e-01
     2449250000   -2.242618985e-02    1.873243004e-01
     2450000000   -3.546130657e-02    1.824627072e-01
     2450750000   -4.802434519e-02    1.769755781e-01
     2451500000   -5.996168777e-02    1.697949320e-01
     2452250000   -7.328728586e-02    1.629127711e-01
     2453000000   -8.308157325e-02    1.543986797e-01
     2453750000   -9.367781132e-02    1.455477774e-01
     2454500000   -1.027631834e-01    1.354305148e-01
     2455250000   -1.109894812e-01    1.253534406e-01
     2456000000   -1.185470447e-01    1.143840775e-01
     2456750000   -1.241333783e-01    1.035826281e-01
     2457500000   -1.315337867e-01    9.135606885e-02
     2458250000   -1.354014575e-01    8.018705994e-02
     2459000000   -1.383706480e-01    6.879013777e-02
     2459750000   -1.433498859e-01    5.446930230e-02
     2460500000   -1.443080008e-01    4.450770468e-02
     2461250000   -1.445198059e-01    3.381766751e-02
     2462000000   -1.453922689e-01    2.030852437e-02
     2462750000   -1.441774070e-01    9.797561914e-03
     2463500000   -1.428025514e-01   -5.875561619e-04
     2464250000   -1.395747215e-01   -9.994090535e-03
     2465000000   -1.369775683e-01   -2.110413276e-02
     2465750000   -1.331710517e-01   -3.240495920e-02
     2466500000   -1.286336184e-01   -3.921134025e-02
     2467250000   -1.234404147e-01   -4.939482361e-02
     2468000000   -1.174299344e-01   -5.723343045e-02
     2468750000   -1.116750166e-01   -6.518550217e-02
     2469500000   -1.059818044e-01   -6.902589649e-02
     2470250000   -9.782738239e-02   -7.734028995e-02
     2471000000   -9.033288807e-02   -8.391707391e-02
     2471750000   -8.444349468e-02   -8.720976859e-02
     2472500000   -7.422357053e-02   -9.498654306e-02
     2473250000   -6.898292899e-02   -9.617760032e-02
     2474000000   -5.833464116e-02   -1.019112319e-01
     2474750000   -5.084315315e-02   -1.043113321e-01
     2475500000   -4.361985251e-02   -1.065658033e-01
     2476250000   -3.539413214e-02   -1.078103408e-01
     2477000000   -2.791621163e-02   -1.091120765e-01
     2477750000   -2.016540617e-02   -1.097518280e-01
     2478500000   -1.303012110e-02   -1.099699438e-01
     2479250000   -5.327406805e-03   -1.092160046e-01
     2480000000    1.512297662e-03   -1.085771471e-01
     2480750000    8.611602709e-03   -1.072456241e-01
     2481500000    1.626759954e-02   -1.059028134e-01
     2482250000    2.284086123e-02   -1.034482867e-01
     2483000000    2.910589986e-02   -1.008494124e-01
     2483750000    3.517314419e-02   -9.860168397e-02
     2484500000    4.127408937e-02   -9.601337463e-02
     2485250000    4.811994359e-02   -9.139100462e-02
     2486000000    5.283065140e-02   -8.887199312e-02
     2486750000    5.812435225e-02   -8.431190252e-02
     2487500000    6.330478191e-02   -8.052007854e-02
     2488250000    6.743113697e-02   -7.692267746e-02
     2489000000    7.136146724e-02   -7.316097617e-02
     2489750000    7.439083606e-02   -6.934518367e-02
     2490500000    7.959300280e-02   -6.320055574e-02
     2491250000    8.302556723e-02   -5.775390565e-02
     2492000000    8.626561612e-02   -5.387501791e-02
     2492750000    8.905601501e-02   -4.844443500e-02
     2493500000    9.153319150e-02   -4.383333027e-02
     2494250000    9.355312586e-02   -3.618642315e-02
     2495000000    9.622246027e-02   -3.264591098e-02
     2495750000    9.690504521e-02   -2.516881190e-02
     2496500000    9.875522554e-02   -2.124452777e-02
     2497250000    9.944802523e-02   -1.486406848e-02
     2498000000    1.012963057e-01   -9.092575870e-03
     2498750000    1.016991362e-01   -2.473817440e-03
     2499500000    1.016529128e-01    4.087441601e-03
     2500250000    1.019096673e-01    1.049710903e-02
     2501000000    1.008635759e-01    1.725743897e-02
     2501750000    9.987190366e-02    2.467698418e-02
     2502500000    1.011663899e-01    2.975749783e-02
     2503250000    9.758506715e-02    3.679503873e-02
     2504000000    9.583605081e-02    4.319765419e-02
     2504750000    9.442657977e-02    4.903685674e-02
     2505500000    9.009315073e-02    5.532972142e-02
     2506250000    8.759123832e-02    6.142953411e-02
     2507000000    8.429507911e-02    6.744708121e-02
     2507750000    8.024826646e-02    7.381163538e-02
     2508500000    7.686524838e-02    7.970939577e-02
     2509250000    6.909404695e-02    8.468195796e-02
     2510000000    6.461885571e-02    8.988139778e-02
     2510750000    5.787846446e-02    9.538126737e-02
     2511500000    5.177020654e-02    9.965120256e-02
     2512250000    4.548314959e-02    1.039629504e-01
     2513000000    3.660229221e-02    1.070121676e-01
     2513750000    2.975975350e-02    1.112579927e-01
     2514500000    2.072866820e-02    1.140366569e-01
     2515250000    1.236342359e-02    1.166039854e-01
     2516000000    2.744812286e-03    1.182279736e-01
     2516750000   -5.942158401e-03    1.198507324e-01
     2517500000   -1.566097885e-02    1.203600541e-01
     2518250000   -2.549054287e-02    1.190215945e-01
     2519000000   -3.505228087e-02    1.185975447e-01
     2519750000   -4.489030316e-02    1.182079464e-01
     2520500000   -5.429396778e-02    1.161733568e-01
     2521250000   -6.421975046e-02    1.131286919e-01
     2522000000   -7.361180335e-02    1.086914316e-01
     2522750000   -8.320400864e-02    1.046444401e-01
     2523500000   -9.245219082e-02    9.806378931e-02
     2524250000   -1.013925001e-01    9.155446291e-02
     2525000000   -1.102645397e-01    8.479788899e-02
     2525750000   -1.183430552e-01    7.679159939e-02
     2526500000   -1.266945302e-01    6.882064790e-02
     2527250000   -1.336295158e-01    5.909235403e-02
     2528000000   -1.403970420e-01    4.895863682e-02
     2528750000   -1.464416832e-01    3.905854374e-02
     2529500000   -1.516701728e-01    2.789285220e-02
     2530250000   -1.559494585e-01    1.658347622e-02
     2531000000   -1.597974598e-01    4.922331776e-03
     2531750000   -1.626987457e-01   -7.455105428e-03
     2532500000   -1.634257436e-01   -1.974090189e-02
     2533250000   -1.639980823e-01   -3.208731115e-02
     2534000000   -1.635408849e-01   -4.504863545e-02
     2534750000   -1.611700654e-01   -5.775310844e-02
     2535500000   -1.579763144e-01   -7.035791129e-02
     2536250000   -1.537194699e-01   -8.298926055e-02
     2537000000   -1.479865462e-01   -9.531508386e-02
     2537750000   -1.425838917e-01   -1.071799621e-01
     2538500000   -1.341076046e-01   -1.189427003e-01
     2539250000   -1.255385280e-01   -1.298922896e-01
     2540000000   -1.155777127e-01   -1.410773396e-01
     2540750000   -1.044758260e-01   -1.511576325e-01
     2541500000   -9.342267364e-02   -1.605727822e-01
     2542250000   -8.012275398e-02   -1.684267968e-01
     2543000000   -6.674032658e-02   -1.765850037e-01
     2543750000   -5.246672034e-02   -1.826009899e-01
     2544500000   -3.810244426e-02   -1.878746599e-01
     2545250000   -2.263283916e-02   -1.923730522e-01
     2546000000   -6.921322551e-03   -1.951709688e-01
     2546750000    9.165209718e-03   -1.971752197e-01
     2547500000    2.575323358e-02   -1.968061775e-01
     2548250000    4.227162525e-02   -1.959434301e-01
     2549000000    5.895828828e-02   -1.932192743e-01
     2549750000    7.593948394e-02   -1.883617043e-01
     2550500000    9.194038808e-02   -1.844851822e-01
     2551250000    1.083919406e-01   -1.761379540e-01
     2552000000    1.233566254e-01   -1.685121059e-01
     2552750000    1.385306120e-01   -1.591774821e-01
     2553500000    1.525467932e-01   -1.473147273e-01
     2554250000    1.664303243e-01   -1.360565722e-01
     2555000000    1.783829480e-01   -1.225810796e-01
     2555750000    1.902541518e-01   -1.081372276e-01
     2556500000    1.999670565e-01   -9.211114049e-02
     2557250000    2.080824077e-01   -7.648986578e-02
     2558000000    2.160162181e-01   -5.879276246e-02
     2558750000    2.221658230e-01   -4.115983844e-02
     2559500000    2.261644900e-01   -2.173058316e-02
     2560250000    2.283574045e-01   -2.330831485e-03
     2561000000    2.307258248e-01    1.648641750e-02
     2561750000    2.298554927e-01    3.735344857e-02
     2562500000    2.271350920e-01    5.723153427e-02
     2563250000    2.235067934e-01    7.639662176e-02
     2564000000    2.182435989e-01    9.636338800e-02
     2564750000    2.110646665e-01    1.151781008e-01
     2565500000    2.012617141e-01    1.340914667e-01
     2566250000    1.921209693e-01    1.520399898e-01
     2567000000    1.786615252e-01    1.695243716e-01
     2567750000    1.659833193e-01    1.855082512e-01
     2568500000    1.508592665e-01    1.999562979e-01
     2569250000    1.345632225e-01    2.137246877e-01
     2570000000    1.161529720e-01    2.265070975e-01
     2570750000    9.818028659e-02    2.366934717e-01
     2571500000    7.863063365e-02    2.452923656e-01
     2572250000    5.839059129e-02    2.531136870e-01
     2573000000    3.707057610e-02    2.583891451e-01
     2573750000    1.504726987e-02    2.621409595e-01
     2574500000   -6.706844084e-03    2.643233538e-01
     2575250000   -3.008750454e-02    2.634013891e-01
     2576000000   -5.285828188e-02    2.614434958e-01
     2576750000   -7.531677186e-02    2.571048737e-01
     2577500000   -9.687518328e-02    2.510218024e-01
     2578250000   -1.189841107e-01    2.433061451e-01
     2579000000   -1.406148970e-01    2.330643088e-01
     2579750000   -1.607828438e-01    2.212672383e-01
     2580500000   -1.803369373e-01    2.076509297e-01
     2581250000   -1.990513057e-01    1.921439022e-01
     2582000000   -2.159886360e-01    1.757792085e-01
     2582750000   -2.313679755e-01    1.566864848e-01
     2583500000   -2.454110086e-01    1.373447180e-01
     2584250000   -2.577204108e-01    1.166349426e-01
     2585000000   -2.678783834e-01    9.414318949e-02
     2585750000   -2.764566541e-01    7.104013860e-02
     2586500000   -2.830754817e-01    4.739790410e-02
     2587250000   -2.876358330e-01    2.349840477e-02
     2588000000   -2.899828255e-01   -1.535891555e-03
     2588750000   -2.897416949e-01   -2.711301856e-02
     2589500000   -2.876819372e-01   -5.108592659e-02
     2590250000   -2.835751772e-01   -7.583827525e-02
     2591000000   -2.767354548e-01   -1.003279984e-01
              0    4.821980000e-02    1.915123612e-01
              0    4.769813642e-02    1.915778071e-01
              0    4.801601917e-02    1.913425475e-01
              0    4.663107917e-02    1.917865127e-01
              0    4.652456939e-02    1.918290555e-01
              0    4.599079490e-02    1.918368340e-01
              0    4.567349330e-02    1.919942349e-01
              0    4.581525922e-02    1.919689775e-01
              0    4.508886859e-02    1.919558197e-01
              0    4.441249371e-02    1.922230721e-01
              0    4.443092272e-02    1.922362745e-01
              0    4.443095252e-02    1.922363043e-01
