! NanoVNA-App
! Date: 2026-05-22 19:32:22
! Start: 1GHz Stop: 1.2GHz Points: 401
! S-Parameter data: F S11
# Hz S RI R 50
!     Frequency           S11_Real           S11_Imag
     1000000000    5.865662694e-01    3.859085739e-01
     1000500000    5.619643331e-01    4.180901647e-01
     1001000000    5.361631513e-01    4.484696090e-01
     1001500000    5.075151324e-01    4.778867364e-01
     1002000000    4.794642925e-01    5.036507845e-01
     1002500000    4.496804178e-01    5.287900567e-01
     1003000000    4.176371694e-01    5.523712635e-01
     1003500000    3.852826059e-01    5.743591189e-01
     1004000000    3.516919315e-01    5.930557251e-01
     1004500000    3.169815242e-01    6.098091006e-01
     1005000000    2.805854380e-01    6.257144809e-01
     1005500000    2.446784526e-01    6.389393210e-01
     1006000000    2.091174424e-01    6.488700509e-01
     1006500000    1.718121916e-01    6.575947404e-01
     1007000000    1.323746741e-01    6.649636626e-01
     1007500000    9.704259783e-02    6.688797474e-01
     1008000000    5.704998970e-02    6.711210012e-01
     1008500000    2.093476616e-02    6.710215807e-01
     1009000000   -1.773931086e-02    6.692472100e-01
     1009500000   -5.376949906e-02    6.649290323e-01
     1010000000   -9.109058231e-02    6.582062244e-01
     1010500000   -1.282768548e-01    6.496978402e-01
     1011000000   -1.623425484e-01    6.391686201e-01
     1011500000   -1.981320381e-01    6.266753674e-01
     1012000000   -2.308257222e-01    6.124579906e-01
     1012500000   -2.639140487e-01    5.957275629e-01
     1013000000   -2.951160073e-01    5.781334639e-01
     1013500000   -3.257541060e-01    5.585396290e-01
     1014000000   -3.545112908e-01    5.373173356e-01
     1014500000   -3.822813034e-01    5.144881606e-01
     1015000000   -4.097513258e-01    4.895208180e-01
     1015500000   -4.337730110e-01    4.642465711e-01
     1016000000   -4.566928446e-01    4.372006953e-01
     1016500000   -4.780924618e-01    4.091587067e-01
     1017000000   -4.983038306e-01    3.798297942e-01
     1017500000   -5.170081258e-01    3.485660255e-01
     1018000000   -5.315074921e-01    3.191039264e-01
     1018500000   -5.467117429e-01    2.871778011e-01
     1019000000   -5.583326817e-01    2.560019493e-01
     1019500000   -5.702084303e-01    2.211620510e-01
     1020000000   -5.780600309e-01    1.896801591e-01
     1020500000   -5.847916603e-01    1.555960178e-01
     1021000000   -5.896398425e-01    1.232314333e-01
     1021500000   -5.930101275e-01    8.975110203e-02
     1022000000   -5.931253433e-01    5.638733134e-02
     1022500000   -5.923557281e-01    2.221300453e-02
     1023000000   -5.897166133e-01   -1.130647305e-02
     1023500000   -5.848060846e-01   -4.304793477e-02
     1024000000   -5.779768229e-01   -7.648039609e-02
     1024500000   -5.696591735e-01   -1.059377193e-01
     1025000000   -5.591424704e-01   -1.400043666e-01
     1025500000   -5.475001335e-01   -1.673692614e-01
     1026000000   -5.342422128e-01   -1.952519566e-01
     1026500000   -5.192672014e-01   -2.237720639e-01
     1027000000   -5.021404028e-01   -2.510645390e-01
     1027500000   -4.848381579e-01   -2.770706713e-01
     1028000000   -4.647219181e-01   -3.011723757e-01
     1028500000   -4.450168312e-01   -3.239800632e-01
     1029000000   -4.233182073e-01   -3.468298614e-01
     1029500000   -3.995100558e-01   -3.674089015e-01
     1030000000   -3.761029243e-01   -3.861360252e-01
     1030500000   -3.512039781e-01   -4.040248096e-01
     1031000000   -3.255739212e-01   -4.200293720e-01
     1031500000   -2.998093069e-01   -4.342034757e-01
     1032000000   -2.725314200e-01   -4.475552142e-01
     1032500000   -2.442140430e-01   -4.588527381e-01
     1033000000   -2.156256884e-01   -4.690016806e-01
     1033500000   -1.881690472e-01   -4.772913754e-01
     1034000000   -1.588361859e-01   -4.835747778e-01
     1034500000   -1.308824718e-01   -4.882172644e-01
     1035000000   -1.031654701e-01   -4.908443093e-01
     1035500000   -7.496190071e-02   -4.927214980e-01
     1036000000   -4.584039003e-02   -4.931096435e-01
     1036500000   -1.818941161e-02   -4.920029938e-01
     1037000000    9.377121925e-03   -4.890328646e-01
     1037500000    3.713789955e-02   -4.852215052e-01
     1038000000    6.423337013e-02   -4.791071713e-01
     1038500000    9.089205414e-02   -4.721555412e-01
     1039000000    1.163561791e-01   -4.630123675e-01
     1039500000    1.411197335e-01   -4.529415965e-01
     1040000000    1.647876948e-01   -4.424084425e-01
     1040500000    1.873368323e-01   -4.294199347e-01
     1041000000    2.095464468e-01   -4.164255559e-01
     1041500000    2.305148840e-01   -4.010610282e-01
     1042000000    2.498845905e-01   -3.859329522e-01
     1042500000    2.695160210e-01   -3.680868447e-01
     1043000000    2.865116596e-01   -3.505960703e-01
     1043500000    3.031900227e-01   -3.322801888e-01
     1044000000    3.183608055e-01   -3.132808805e-01
     1044500000    3.321846128e-01   -2.931619287e-01
     1045000000    3.445806503e-01   -2.729650736e-01
     1045500000    3.559297323e-01   -2.515292466e-01
     1046000000    3.663911819e-01   -2.305842340e-01
     1046500000    3.748232424e-01   -2.089025974e-01
     1047000000    3.817965984e-01   -1.871679425e-01
     1047500000    3.878606558e-01   -1.639943570e-01
     1048000000    3.930732012e-01   -1.421318352e-01
     1048500000    3.961270154e-01   -1.196252629e-01
     1049000000    3.981152177e-01   -9.863238782e-02
     1049500000    3.987857699e-01   -7.605587691e-02
     1050000000    3.975646794e-01   -5.486740172e-02
     1050500000    3.959624171e-01   -3.378619999e-02
     1051000000    3.923220932e-01   -1.322271675e-02
     1051500000    3.876698017e-01    7.774906699e-03
     1052000000    3.822433054e-01    2.606715634e-02
     1052500000    3.746080101e-01    4.639741406e-02
     1053000000    3.671862185e-01    6.389199197e-02
     1053500000    3.580688238e-01    8.109527826e-02
     1054000000    3.480620086e-01    9.834904224e-02
     1054500000    3.376409709e-01    1.139611304e-01
     1055000000    3.252780139e-01    1.306563616e-01
     1055500000    3.125852644e-01    1.444336623e-01
     1056000000    2.992393970e-01    1.587292701e-01
     1056500000    2.849592268e-01    1.713924110e-01
     1057000000    2.706495523e-01    1.827362031e-01
     1057500000    2.559396923e-01    1.938573122e-01
     1058000000    2.402795553e-01    2.040668279e-01
     1058500000    2.245701551e-01    2.131226361e-01
     1059000000    2.087745517e-01    2.210454494e-01
     1059500000    1.921833754e-01    2.279722244e-01
     1060000000    1.758453548e-01    2.341104597e-01
     1060500000    1.600345224e-01    2.386792451e-01
     1061000000    1.421835274e-01    2.431371510e-01
     1061500000    1.276199222e-01    2.455355972e-01
     1062000000    1.107562259e-01    2.478058785e-01
     1062500000    9.411411732e-02    2.485575974e-01
     1063000000    7.886493951e-02    2.486499250e-01
     1063500000    6.325831264e-02    2.480319291e-01
     1064000000    4.825514555e-02    2.463639230e-01
     1064500000    3.325220942e-02    2.436137944e-01
     1065000000    1.922843605e-02    2.403536290e-01
     1065500000    4.895225633e-03    2.358927280e-01
     1066000000   -7.447822951e-03    2.315642834e-01
     1066500000   -2.112342604e-02    2.256503403e-01
     1067000000   -3.253852576e-02    2.197493762e-01
     1067500000   -4.440706223e-02    2.128413469e-01
     1068000000   -5.506111681e-02    2.056315988e-01
     1068500000   -6.520175189e-02    1.979428232e-01
     1069000000   -7.448659837e-02    1.894785464e-01
     1069500000   -8.311074972e-02    1.806004047e-01
     1070000000   -9.099972248e-02    1.717180908e-01
     1070500000   -9.879209101e-02    1.623147428e-01
     1071000000   -1.048362330e-01    1.530538052e-01
     1071500000   -1.105103865e-01    1.438031644e-01
     1072000000   -1.152229160e-01    1.337561756e-01
     1072500000   -1.195050254e-01    1.239981949e-01
     1073000000   -1.223973855e-01    1.137024537e-01
     1073500000   -1.249641478e-01    1.037996784e-01
     1074000000   -1.263419241e-01    9.430477768e-02
     1074500000   -1.274691671e-01    8.439644426e-02
     1075000000   -1.273778677e-01    7.509701699e-02
     1075500000   -1.272351593e-01    6.564086676e-02
     1076000000   -1.257727146e-01    5.682067201e-02
     1076500000   -1.242961660e-01    4.802638292e-02
     1077000000   -1.219356731e-01    3.966487572e-02
     1077500000   -1.189474761e-01    3.123791330e-02
     1078000000   -1.156570837e-01    2.388834208e-02
     1078500000   -1.115059406e-01    1.657071896e-02
     1079000000   -1.074022129e-01    9.890122339e-03
     1079500000   -1.029175296e-01    3.613148117e-03
     1080000000   -9.737258404e-02   -2.571964404e-03
     1080500000   -9.197837114e-02   -7.635008544e-03
     1081000000   -8.624120802e-02   -1.246781554e-02
     1081500000   -8.057931066e-02   -1.618089341e-02
     1082000000   -7.465811074e-02   -1.984266751e-02
     1082500000   -6.824134290e-02   -2.256124839e-02
     1083000000   -6.186370179e-02   -2.521208487e-02
     1083500000   -5.549083278e-02   -2.731249668e-02
     1084000000   -4.931333661e-02   -2.816336975e-02
     1084500000   -4.329814389e-02   -2.904042602e-02
     1085000000   -3.698296100e-02   -2.944208309e-02
     1085500000   -3.091305308e-02   -2.855975553e-02
     1086000000   -2.546543628e-02   -2.772185020e-02
     1086500000   -2.000062354e-02   -2.656622976e-02
     1087000000   -1.454371121e-02   -2.433030680e-02
     1087500000   -9.374422021e-03   -2.183689550e-02
     1088000000   -5.232541822e-03   -1.918812096e-02
     1088500000   -9.427645127e-04   -1.587103680e-02
     1089000000    2.721432364e-03   -1.240371540e-02
     1089500000    6.224194542e-03   -8.550349623e-03
     1090000000    8.980235085e-03   -4.099079408e-03
     1090500000    1.136652101e-02    3.478516301e-04
     1091000000    1.340666506e-02    5.399268121e-03
     1091500000    1.517062541e-02    1.043490693e-02
     1092000000    1.617950760e-02    1.597304828e-02
     1092500000    1.643138379e-02    2.137741074e-02
     1093000000    1.656976156e-02    2.675350942e-02
     1093500000    1.592073217e-02    3.219496086e-02
     1094000000    1.510779001e-02    3.762256354e-02
     1094500000    1.359427068e-02    4.272865131e-02
     1095000000    1.184608229e-02    4.807170853e-02
     1095500000    9.917804971e-03    5.309950188e-02
     1096000000    6.590768695e-03    5.793309212e-02
     1096500000    3.319880925e-03    6.266334653e-02
     1097000000   -1.238033292e-04    6.689424813e-02
     1097500000   -4.329901189e-03    7.065719366e-02
     1098000000   -8.424104191e-03    7.422358543e-02
     1098500000   -1.318978239e-02    7.729598135e-02
     1099000000   -1.854574122e-02    7.976614684e-02
     1099500000   -2.360002883e-02    8.209799975e-02
     1100000000   -2.975639328e-02    8.369481564e-02
     1100500000   -3.610453382e-02    8.492046595e-02
     1101000000   -4.188846424e-02    8.576889336e-02
     1101500000   -4.816209152e-02    8.586512506e-02
     1102000000   -5.468885973e-02    8.529318869e-02
     1102500000   -6.180822477e-02    8.412510902e-02
     1103000000   -6.778315455e-02    8.289626241e-02
     1103500000   -7.460258901e-02    8.038608730e-02
     1104000000   -8.123740554e-02    7.736942917e-02
     1104500000   -8.761607856e-02    7.425096631e-02
     1105000000   -9.420410544e-02    7.022783160e-02
     1105500000   -1.004052162e-01    6.558673829e-02
     1106000000   -1.063950583e-01    6.057332456e-02
     1106500000   -1.119607165e-01    5.482635275e-02
     1107000000   -1.171675101e-01    4.861013964e-02
     1107500000   -1.221823469e-01    4.178063944e-02
     1108000000   -1.267227978e-01    3.499774262e-02
     1108500000   -1.309469640e-01    2.706266753e-02
     1109000000   -1.350733340e-01    1.880428195e-02
     1109500000   -1.380586475e-01    1.035276987e-02
     1110000000   -1.407516450e-01    1.660441747e-03
     1110500000   -1.430246234e-01   -7.527336478e-03
     1111000000   -1.446887255e-01   -1.762749255e-02
     1111500000   -1.455446780e-01   -2.718826570e-02
     1112000000   -1.460185498e-01   -3.774624690e-02
     1112500000   -1.461133063e-01   -4.765988514e-02
     1113000000   -1.450277269e-01   -5.793152377e-02
     1113500000   -1.436315328e-01   -6.870768964e-02
     1114000000   -1.411407739e-01   -7.917990535e-02
     1114500000   -1.385752112e-01   -8.978029341e-02
     1115000000   -1.352383941e-01   -1.001158655e-01
     1115500000   -1.309901327e-01   -1.103692427e-01
     1116000000   -1.253698319e-01   -1.206430346e-01
     1116500000   -1.199935228e-01   -1.298669577e-01
     1117000000   -1.139747575e-01   -1.399999559e-01
     1117500000   -1.067020148e-01   -1.490036249e-01
     1118000000   -9.950267524e-02   -1.576798707e-01
     1118500000   -9.127980471e-02   -1.666405946e-01
     1119000000   -8.172639459e-02   -1.745263338e-01
     1119500000   -7.244773209e-02   -1.821329296e-01
     1120000000   -6.254899502e-02   -1.888284534e-01
     1120500000   -5.193771049e-02   -1.951486021e-01
     1121000000   -4.034430906e-02   -2.008823454e-01
     1121500000   -2.896383218e-02   -2.061553746e-01
     1122000000   -1.671773940e-02   -2.106230557e-01
     1122500000   -5.078828894e-03   -2.137596309e-01
     1123000000    7.448979188e-03   -2.168207765e-01
     1123500000    2.082011290e-02   -2.187781185e-01
     1124000000    3.431967273e-02   -2.199816853e-01
     1124500000    4.656327888e-02   -2.199609727e-01
     1125000000    6.120926142e-02   -2.195951939e-01
     1125500000    7.449624687e-02   -2.179811448e-01
     1126000000    8.787778020e-02   -2.150563747e-01
     1126500000    1.024802923e-01   -2.116257399e-01
     1127000000    1.145588607e-01   -2.080457807e-01
     1127500000    1.282779872e-01   -2.023096830e-01
     1128000000    1.418582052e-01   -1.958202124e-01
     1128500000    1.542013288e-01   -1.895422190e-01
     1129000000    1.671221554e-01   -1.809955537e-01
     1129500000    1.788373888e-01   -1.720842272e-01
     1130000000    1.901713312e-01   -1.627177447e-01
     1130500000    2.014257163e-01   -1.521193683e-01
     1131000000    2.121730745e-01   -1.411511600e-01
     1131500000    2.215868384e-01   -1.290759295e-01
     1132000000    2.312419116e-01   -1.166498959e-01
     1132500000    2.394664139e-01   -1.037901863e-01
     1133000000    2.470119298e-01   -9.005780518e-02
     1133500000    2.539607882e-01   -7.570876181e-02
     1134000000    2.604850829e-01   -6.036750600e-02
     1134500000    2.650066614e-01   -4.526792467e-02
     1135000000    2.695237994e-01   -2.890404500e-02
     1135500000    2.726474404e-01   -1.376409829e-02
     1136000000    2.746415436e-01    2.831917256e-03
     1136500000    2.757777870e-01    2.021848038e-02
     1137000000    2.759854198e-01    3.592146933e-02
     1137500000    2.752111256e-01    5.392683297e-02
     1138000000    2.732893825e-01    7.002285123e-02
     1138500000    2.703548968e-01    8.848348260e-02
     1139000000    2.668242753e-01    1.048879698e-01
     1139500000    2.616870403e-01    1.225381792e-01
     1140000000    2.557320297e-01    1.394100487e-01
     1140500000    2.489449531e-01    1.554507166e-01
     1141000000    2.407497913e-01    1.722817272e-01
     1141500000    2.317387760e-01    1.875494868e-01
     1142000000    2.205120027e-01    2.039133906e-01
     1142500000    2.098104358e-01    2.182815969e-01
     1143000000    1.974419653e-01    2.327759862e-01
     1143500000    1.840666533e-01    2.463611364e-01
     1144000000    1.699095815e-01    2.596845329e-01
     1144500000    1.546561569e-01    2.716293633e-01
     1145000000    1.394770890e-01    2.824876904e-01
     1145500000    1.217727587e-01    2.935493588e-01
     1146000000    1.051060930e-01    3.021214902e-01
     1146500000    8.739471436e-02    3.104749620e-01
     1147000000    6.909544021e-02    3.179691732e-01
     1147500000    4.985266551e-02    3.248254657e-01
     1148000000    2.970354818e-02    3.300381303e-01
     1148500000    9.714829735e-03    3.341141045e-01
     1149000000   -1.113137789e-02    3.374187946e-01
     1149500000   -2.954746410e-02    3.393772542e-01
     1150000000   -5.197315663e-02    3.398588896e-01
     1150500000   -7.225187868e-02    3.393404186e-01
     1151000000   -9.294944257e-02    3.375996053e-01
     1151500000   -1.134895608e-01    3.348545134e-01
     1152000000   -1.332388222e-01    3.305402696e-01
     1152500000   -1.536816210e-01    3.250256777e-01
     1153000000   -1.741278321e-01    3.181875348e-01
     1153500000   -1.942149252e-01    3.098033369e-01
     1154000000   -2.132015377e-01    3.003921509e-01
     1154500000   -2.309052646e-01    2.901920080e-01
     1155000000   -2.494482994e-01    2.780739367e-01
     1155500000   -2.668330371e-01    2.650578022e-01
     1156000000   -2.833012938e-01    2.510028183e-01
     1156500000   -2.987661064e-01    2.359088361e-01
     1157000000   -3.139288723e-01    2.198446542e-01
     1157500000   -3.280116022e-01    2.021692544e-01
     1158000000   -3.406232595e-01    1.849664748e-01
     1158500000   -3.532708287e-01    1.654428542e-01
     1159000000   -3.633936048e-01    1.464164108e-01
     1159500000   -3.733947277e-01    1.251658797e-01
     1160000000   -3.813396096e-01    1.055243090e-01
     1160500000   -3.894423246e-01    8.149139583e-02
     1161000000   -3.949865401e-01    6.160768121e-02
     1161500000   -3.999581039e-01    3.657554090e-02
     1162000000   -4.032072425e-01    1.528590638e-02
     1162500000   -4.052520990e-01   -7.265872322e-03
     1163000000   -4.054740369e-01   -3.240342066e-02
     1163500000   -4.047363997e-01   -5.416515842e-02
     1164000000   -4.022267759e-01   -7.940243185e-02
     1164500000   -3.985247314e-01   -1.003336981e-01
     1165000000   -3.929983675e-01   -1.258748472e-01
     1165500000   -3.863077760e-01   -1.474494338e-01
     1166000000   -3.780819774e-01   -1.711473316e-01
     1166500000   -3.684398532e-01   -1.937137097e-01
     1167000000   -3.579910696e-01   -2.142521292e-01
     1167500000   -3.456917405e-01   -2.362421900e-01
     1168000000   -3.322853446e-01   -2.569600940e-01
     1168500000   -3.173168898e-01   -2.769896984e-01
     1169000000   -3.012392223e-01   -2.956949770e-01
     1169500000   -2.839457989e-01   -3.144350648e-01
     1170000000   -2.664778233e-01   -3.308133781e-01
     1170500000   -2.465707362e-01   -3.469852805e-01
     1171000000   -2.259138823e-01   -3.625350296e-01
     1171500000   -2.052120119e-01   -3.761362731e-01
     1172000000   -1.825928539e-01   -3.887878060e-01
     1172500000   -1.602585614e-01   -3.995993733e-01
     1173000000   -1.362105757e-01   -4.100194871e-01
     1173500000   -1.117558256e-01   -4.177948236e-01
     1174000000   -8.886995167e-02   -4.244874120e-01
     1174500000   -6.101855263e-02   -4.308084548e-01
     1175000000   -3.716067597e-02   -4.342888892e-01
     1175500000   -9.060797282e-03   -4.368643165e-01
     1176000000    1.542269532e-02   -4.376933277e-01
     1176500000    4.276798293e-02   -4.372116625e-01
     1177000000    7.054878771e-02   -4.344575703e-01
     1177500000    9.477259964e-02   -4.311160147e-01
     1178000000    1.218626499e-01   -4.259516299e-01
     1178500000    1.477108747e-01   -4.186051190e-01
     1179000000    1.733690202e-01   -4.105170965e-01
     1179500000    1.978946924e-01   -4.004778266e-01
     1180000000    2.230821103e-01   -3.886671364e-01
     1180500000    2.470754087e-01   -3.755248487e-01
     1181000000    2.703173459e-01   -3.615960181e-01
     1181500000    2.920362949e-01   -3.458447456e-01
     1182000000    3.141351044e-01   -3.281247020e-01
     1182500000    3.348439634e-01   -3.097370267e-01
     1183000000    3.537558317e-01   -2.903690338e-01
     1183500000    3.725118041e-01   -2.686857879e-01
     1184000000    3.886953592e-01   -2.476377338e-01
     1184500000    4.049228728e-01   -2.234876007e-01
     1185000000    4.186594486e-01   -2.009764016e-01
     1185500000    4.322537482e-01   -1.748385131e-01
     1186000000    4.437617660e-01   -1.493268162e-01
     1186500000    4.529772699e-01   -1.241506785e-01
     1187000000    4.613690376e-01   -9.644910693e-02
     1187500000    4.683677852e-01   -6.878878176e-02
     1188000000    4.732612967e-01   -4.122129083e-02
     1188500000    4.761715531e-01   -1.215412002e-02
     1189000000    4.780915380e-01    1.593525149e-02
     1189500000    4.782548547e-01    4.367425293e-02
     1190000000    4.759412408e-01    7.461042702e-02
     1190500000    4.723049104e-01    1.030379757e-01
     1191000000    4.678309560e-01    1.292767525e-01
     1191500000    4.602671266e-01    1.591283083e-01
     1192000000    4.514841437e-01    1.864423156e-01
     1192500000    4.416346550e-01    2.135499716e-01
     1193000000    4.284375608e-01    2.414018810e-01
     1193500000    4.150709510e-01    2.671635747e-01
     1194000000    4.002711773e-01    2.918607593e-01
     1194500000    3.836517632e-01    3.157177567e-01
     1195000000    3.657489419e-01    3.390413821e-01
     1195500000    3.457105756e-01    3.618305624e-01
     1196000000    3.252112865e-01    3.825994134e-01
     1196500000    3.024362028e-01    4.026748836e-01
     1197000000    2.786010504e-01    4.217266440e-01
     1197500000    2.533393204e-01    4.393752217e-01
     1198000000    2.284855247e-01    4.548970759e-01
     1198500000    2.014046162e-01    4.692825973e-01
     1199000000    1.747064590e-01    4.813775420e-01
     1199500000    1.458312124e-01    4.924721420e-01
     1200000000    1.171106324e-01    5.019746423e-01
