! NanoVNA-App
! Date: 2026-05-22 21:35:33
! Start: 400MHz Stop: 1GHz Points: 401
! S-Parameter data: F S11
# Hz S RI R 50
!     Frequency           S11_Real           S11_Imag
      400000000   -7.983092070e-01   -2.735741138e-01
      401500000   -7.445423603e-01   -4.059743285e-01
      403000000   -6.676596403e-01   -5.274862051e-01
      404500000   -5.702314377e-01   -6.351643205e-01
      406000000   -4.561697543e-01   -7.241036892e-01
      407500000   -3.275367022e-01   -7.932360172e-01
      409000000   -1.883396655e-01   -8.391720057e-01
      410500000   -4.298196360e-02   -8.621875644e-01
      412000000    1.037971005e-01   -8.602665663e-01
      413500000    2.486641705e-01   -8.331901431e-01
      415000000    3.859583437e-01   -7.824542522e-01
      416500000    5.135128498e-01   -7.080976963e-01
      418000000    6.269310713e-01   -6.131878495e-01
      419500000    7.230606675e-01   -5.003341436e-01
      421000000    7.977380157e-01   -3.720223010e-01
      422500000    8.506816626e-01   -2.344140708e-01
      424000000    8.792751431e-01   -8.751595020e-02
      425500000    8.832441568e-01    6.200544536e-02
      427000000    8.619143367e-01    2.099307925e-01
      428500000    8.164320588e-01    3.515130281e-01
      430000000    7.466495633e-01    4.834599793e-01
      431500000    6.562045813e-01    6.017356515e-01
      433000000    5.451619625e-01    7.044327855e-01
      434500000    4.211942852e-01    7.856469750e-01
      436000000    2.828090191e-01    8.451620936e-01
      437500000    1.367593855e-01    8.808026314e-01
      439000000   -1.355310343e-02    8.913527727e-01
      440500000   -1.639739722e-01    8.757469058e-01
      442000000   -3.090019822e-01    8.362366557e-01
      443500000   -4.461125731e-01    7.728131413e-01
      445000000   -5.703997612e-01    6.868530512e-01
      446500000   -6.781561375e-01    5.810508728e-01
      448000000   -7.666290402e-01    4.606820643e-01
      449500000   -8.342697620e-01    3.254620135e-01
      451000000   -8.772338629e-01    1.798342466e-01
      452500000   -8.956994414e-01    2.987199649e-02
      454000000   -8.882328272e-01   -1.202628165e-01
      455500000   -8.561094403e-01   -2.677687407e-01
      457000000   -7.990138531e-01   -4.088413417e-01
      458500000   -7.189204693e-01   -5.381291509e-01
      460000000   -6.197718382e-01   -6.522663832e-01
      461500000   -5.017962456e-01   -7.472448349e-01
      463000000   -3.703393638e-01   -8.220053911e-01
      464500000   -2.293238193e-01   -8.731365800e-01
      466000000   -7.813185453e-02   -9.002922177e-01
      467500000    7.232597470e-02   -9.024187922e-01
      469000000    2.226387262e-01   -8.784239888e-01
      470500000    3.662492931e-01   -8.301032782e-01
      472000000    4.992484450e-01   -7.583745718e-01
      473500000    6.190750599e-01   -6.664990187e-01
      475000000    7.220748663e-01   -5.541692972e-01
      476500000    8.045580387e-01   -4.284233451e-01
      478000000    8.653900623e-01   -2.873437405e-01
      479500000    9.015076756e-01   -1.419797540e-01
      481000000    9.124836326e-01    9.779123589e-03
      482500000    8.990257978e-01    1.605374217e-01
      484000000    8.605870605e-01    3.073714674e-01
      485500000    7.977433205e-01    4.460462630e-01
      487000000    7.133766413e-01    5.703469515e-01
      488500000    6.095596552e-01    6.809392571e-01
      490000000    4.884731770e-01    7.724780440e-01
      491500000    3.542281389e-01    8.426752090e-01
      493000000    2.113626748e-01    8.896406293e-01
      494500000    6.253348291e-02    9.120392203e-01
      496000000   -8.910775930e-02    9.105849266e-01
      497500000   -2.379243076e-01    8.824037313e-01
      499000000   -3.787666559e-01    8.321824670e-01
      500500000   -5.104998350e-01    7.582033277e-01
      502000000   -6.274092197e-01    6.644011140e-01
      503500000   -7.271813154e-01    5.535964370e-01
      505000000   -8.090608120e-01    4.246096313e-01
      506500000   -8.672358990e-01    2.877755761e-01
      508000000   -9.024196863e-01    1.419733316e-01
      509500000   -9.131204486e-01   -7.315495051e-03
      511000000   -8.989039063e-01   -1.557225287e-01
      512500000   -8.615458608e-01   -3.000629246e-01
      514000000   -8.003736734e-01   -4.365185499e-01
      515500000   -7.187409997e-01   -5.606737733e-01
      517000000   -6.166983247e-01   -6.701482534e-01
      518500000   -4.992240667e-01   -7.604417205e-01
      520000000   -3.701595664e-01   -8.304984570e-01
      521500000   -2.299812734e-01   -8.792684078e-01
      523000000   -8.477558196e-02   -9.044118524e-01
      524500000    6.263796240e-02   -9.057841301e-01
      526000000    2.064973265e-01   -8.833899498e-01
      527500000    3.473848701e-01   -8.372147083e-01
      529000000    4.765206575e-01   -7.696011662e-01
      530500000    5.943835974e-01   -6.820147038e-01
      532000000    6.943593621e-01   -5.774177313e-01
      533500000    7.771762609e-01   -4.585660696e-01
      535000000    8.399783969e-01   -3.273288012e-01
      536500000    8.802672029e-01   -1.874192506e-01
      538000000    8.984797597e-01   -4.569919780e-02
      539500000    8.926351666e-01    9.781459719e-02
      541000000    8.638983965e-01    2.393931448e-01
      542500000    8.148669600e-01    3.711549044e-01
      544000000    7.428516746e-01    4.965273738e-01
      545500000    6.536912322e-01    6.072083712e-01
      547000000    5.489303470e-01    7.019078732e-01
      548500000    4.309437275e-01    7.775178552e-01
      550000000    3.015731573e-01    8.341640830e-01
      551500000    1.663640589e-01    8.696113825e-01
      553000000    2.713967673e-02    8.824760318e-01
      554500000   -1.106226370e-01    8.741155267e-01
      556000000   -2.466160357e-01    8.431575298e-01
      557500000   -3.729274869e-01    7.927016020e-01
      559000000   -4.916207492e-01    7.219837904e-01
      560500000   -5.951799750e-01    6.357691288e-01
      562000000   -6.850537658e-01    5.340987444e-01
      563500000   -7.578769326e-01    4.183722138e-01
      565000000   -8.099804521e-01    2.970454097e-01
      566500000   -8.438639641e-01    1.670055091e-01
      568000000   -8.557612896e-01    3.512645885e-02
      569500000   -8.481209278e-01   -9.586980194e-02
      571000000   -8.201890588e-01   -2.247636467e-01
      572500000   -7.728772759e-01   -3.467492759e-01
      574000000   -7.084018588e-01   -4.578223228e-01
      575500000   -6.288217902e-01   -5.560980439e-01
      577000000   -5.328761935e-01   -6.434450746e-01
      578500000   -4.283228815e-01   -7.123904228e-01
      580000000   -3.137259483e-01   -7.652356029e-01
      581500000   -1.944756657e-01   -7.996872663e-01
      583000000   -7.253171504e-02   -8.148510456e-01
      584500000    5.066845194e-02   -8.115290403e-01
      586000000    1.694926172e-01   -7.900432944e-01
      587500000    2.838100493e-01   -7.504947782e-01
      589000000    3.884710670e-01   -6.967623234e-01
      590500000    4.860035181e-01   -6.270443201e-01
      592000000    5.691321492e-01   -5.452778339e-01
      593500000    6.381924748e-01   -4.533278644e-01
      595000000    6.932299733e-01   -3.526570201e-01
      596500000    7.315753102e-01   -2.473344654e-01
      598000000    7.533773780e-01   -1.400429457e-01
      599500000    7.593507767e-01   -3.057135269e-02
      601000000    7.492978573e-01    7.870388031e-02
      602500000    7.243428826e-01    1.818603873e-01
      604000000    6.849786043e-01    2.783287466e-01
      605500000    6.321475506e-01    3.687194288e-01
      607000000    5.691301823e-01    4.467198849e-01
      608500000    4.945771694e-01    5.157712102e-01
      610000000    4.149338901e-01    5.701460242e-01
      611500000    3.256215453e-01    6.144310236e-01
      613000000    2.347603887e-01    6.433799267e-01
      614500000    1.429589689e-01    6.592833996e-01
      616000000    4.924724996e-02    6.627139449e-01
      617500000   -4.130745679e-02    6.525833607e-01
      619000000   -1.300208420e-01    6.307931542e-01
      620500000   -2.103389353e-01    5.985955000e-01
      622000000   -2.857523561e-01    5.555455685e-01
      623500000   -3.513586521e-01    5.050045252e-01
      625000000   -4.108079970e-01    4.460841119e-01
      626500000   -4.568869472e-01    3.834712207e-01
      628000000   -4.951439202e-01    3.143886030e-01
      629500000   -5.219711065e-01    2.426387519e-01
      631000000   -5.401352048e-01    1.693060249e-01
      632500000   -5.490043759e-01    9.718988091e-02
      634000000   -5.481077433e-01    2.756693028e-02
      635500000   -5.392839313e-01   -3.962482139e-02
      637000000   -5.209817886e-01   -1.031173617e-01
      638500000   -4.955972135e-01   -1.612348408e-01
      640000000   -4.642802775e-01   -2.141507864e-01
      641500000   -4.272479415e-01   -2.596861720e-01
      643000000   -3.846548796e-01   -3.003435135e-01
      644500000   -3.397837281e-01   -3.331372738e-01
      646000000   -2.923998237e-01   -3.594152033e-01
      647500000   -2.430303842e-01   -3.802100718e-01
      649000000   -1.929837763e-01   -3.948799372e-01
      650500000   -1.446404606e-01   -4.034845233e-01
      652000000   -9.879042208e-02   -4.059113562e-01
      653500000   -5.235049501e-02   -4.032993913e-01
      655000000   -9.929293767e-03   -3.952881992e-01
      656500000    3.163858876e-02   -3.829700649e-01
      658000000    6.906492263e-02   -3.677897751e-01
      659500000    1.045816243e-01   -3.485295475e-01
      661000000    1.353283674e-01   -3.268553615e-01
      662500000    1.633615345e-01   -3.039866090e-01
      664000000    1.877625436e-01   -2.784599066e-01
      665500000    2.094178051e-01   -2.517763972e-01
      667000000    2.277241498e-01   -2.244447768e-01
      668500000    2.432478219e-01   -1.966951191e-01
      670000000    2.560627759e-01   -1.684108675e-01
      671500000    2.658332288e-01   -1.407985687e-01
      673000000    2.733888924e-01   -1.121462658e-01
      674500000    2.786820829e-01   -8.446218818e-02
      676000000    2.819219530e-01   -5.653603375e-02
      677500000    2.833296955e-01   -2.937479317e-02
      679000000    2.819323838e-01   -1.833464368e-03
      680500000    2.799404860e-01    2.486482821e-02
      682000000    2.754171789e-01    5.053146183e-02
      683500000    2.702081501e-01    7.639087737e-02
      685000000    2.626318336e-01    1.010450125e-01
      686500000    2.529272437e-01    1.254670769e-01
      688000000    2.420568615e-01    1.483246833e-01
      689500000    2.288833559e-01    1.703517586e-01
      691000000    2.145023048e-01    1.912233084e-01
      692500000    1.973099262e-01    2.111762762e-01
      694000000    1.789508313e-01    2.284160256e-01
      695500000    1.575190127e-01    2.456440330e-01
      697000000    1.343444139e-01    2.598240972e-01
      698500000    1.094697714e-01    2.722596228e-01
      700000000    8.111529797e-02    2.839063406e-01
      701500000    5.413844064e-02    2.921842337e-01
      703000000    2.379551157e-02    2.993236780e-01
      704500000   -5.667778663e-03    3.023890853e-01
      706000000   -3.536794335e-02    3.023201525e-01
      707500000   -6.610333174e-02    2.986719012e-01
      709000000   -9.752505273e-02    2.915297747e-01
      710500000   -1.273088455e-01    2.810358107e-01
      712000000   -1.582554877e-01    2.669534683e-01
      713500000   -1.863647103e-01    2.501937151e-01
      715000000   -2.128311098e-01    2.308801562e-01
      716500000   -2.367677838e-01    2.082520425e-01
      718000000   -2.584033012e-01    1.826581359e-01
      719500000   -2.764762938e-01    1.544448286e-01
      721000000   -2.908205986e-01    1.226310730e-01
      722500000   -3.016954660e-01    9.032980353e-02
      724000000   -3.091958761e-01    5.522675812e-02
      725500000   -3.119682074e-01    2.018576115e-02
      727000000   -3.113071620e-01   -1.603835449e-02
      728500000   -3.067923486e-01   -5.283303186e-02
      730000000   -2.980464399e-01   -8.848344535e-02
      731500000   -2.858436704e-01   -1.230071932e-01
      733000000   -2.682907283e-01   -1.563355029e-01
      734500000   -2.488553226e-01   -1.856685579e-01
      736000000   -2.243521661e-01   -2.125163376e-01
      737500000   -1.959150136e-01   -2.364877462e-01
      739000000   -1.646108031e-01   -2.573049664e-01
      740500000   -1.310473382e-01   -2.745235562e-01
      742000000   -9.643933177e-02   -2.881620824e-01
      743500000   -5.974764377e-02   -2.984074056e-01
      745000000   -2.402012981e-02   -3.033359349e-01
      746500000    1.203356311e-02   -3.033619225e-01
      748000000    4.811572284e-02   -2.987409234e-01
      749500000    8.197388798e-02   -2.897670269e-01
      751000000    1.153090522e-01   -2.760166228e-01
      752500000    1.467819810e-01   -2.578401268e-01
      754000000    1.749665141e-01   -2.366858125e-01
      755500000    2.003679276e-01   -2.123938650e-01
      757000000    2.225276977e-01   -1.852424443e-01
      758500000    2.408629507e-01   -1.561082602e-01
      760000000    2.546510398e-01   -1.250691861e-01
      761500000    2.631882429e-01   -9.343577921e-02
      763000000    2.675291598e-01   -6.148111075e-02
      764500000    2.676150799e-01   -2.823473699e-02
      766000000    2.630876601e-01    3.636594862e-03
      767500000    2.543646097e-01    3.378665447e-02
      769000000    2.410962731e-01    6.166559458e-02
      770500000    2.230148464e-01    8.689166605e-02
      772000000    2.012264878e-01    1.099486351e-01
      773500000    1.766248196e-01    1.289446205e-01
      775000000    1.485127509e-01    1.450567096e-01
      776500000    1.193815470e-01    1.567730904e-01
      778000000    8.786534518e-02    1.645379364e-01
      779500000    5.546122044e-02    1.682078987e-01
      781000000    2.403406799e-02    1.688375175e-01
      782500000   -6.219027098e-03    1.643458605e-01
      784000000   -3.532154113e-02    1.559554040e-01
      785500000   -6.168790162e-02    1.442231536e-01
      787000000   -8.515173197e-02    1.284357607e-01
      788500000   -1.049139723e-01    1.103111282e-01
      790000000   -1.203248501e-01    8.928868920e-02
      791500000   -1.306502670e-01    6.530437618e-02
      793000000   -1.365022510e-01    3.947372735e-02
      794500000   -1.374608278e-01    1.203453820e-02
      796000000   -1.342369318e-01   -1.588760503e-02
      797500000   -1.261694133e-01   -4.347919300e-02
      799000000   -1.138370410e-01   -7.063027471e-02
      800500000   -9.771602601e-02   -9.523412585e-02
      802000000   -7.787926495e-02   -1.181746274e-01
      803500000   -5.471149459e-02   -1.380533576e-01
      805000000   -2.923087962e-02   -1.541083157e-01
      806500000   -2.219622955e-03   -1.666177660e-01
      808000000    2.642792650e-02   -1.746103019e-01
      809500000    5.491366610e-02   -1.779863387e-01
      811000000    8.421154320e-02   -1.762111932e-01
      812500000    1.111741439e-01   -1.710490733e-01
      814000000    1.367796063e-01   -1.613405496e-01
      815500000    1.589601487e-01   -1.463823766e-01
      817000000    1.780969054e-01   -1.269477010e-01
      818500000    1.938185245e-01   -1.035505459e-01
      820000000    2.060401589e-01   -7.716144621e-02
      821500000    2.136194110e-01   -4.865567014e-02
      823000000    2.169871181e-01   -1.891868748e-02
      824500000    2.146465629e-01    1.158538088e-02
      826000000    2.081989646e-01    4.209894687e-02
      827500000    1.958002001e-01    7.235337049e-02
      829000000    1.790950447e-01    1.009476483e-01
      830500000    1.583739221e-01    1.278834194e-01
      832000000    1.348871887e-01    1.519086212e-01
      833500000    1.090060696e-01    1.719378978e-01
      835000000    8.093306422e-02    1.865211576e-01
      836500000    5.034853891e-02    1.954370886e-01
      838000000    1.876447164e-02    1.990965754e-01
      839500000   -1.359255053e-02    1.982766837e-01
      841000000   -4.522103444e-02    1.915650517e-01
      842500000   -7.570385188e-02    1.807195991e-01
      844000000   -1.043217182e-01    1.652256548e-01
      845500000   -1.289626658e-01    1.458080113e-01
      847000000   -1.499618292e-01    1.226083413e-01
      848500000   -1.659494340e-01    9.659080952e-02
      850000000   -1.769062132e-01    6.776361167e-02
      851500000   -1.822879314e-01    3.663290665e-02
      853000000   -1.822842062e-01    5.078580230e-03
      854500000   -1.772176474e-01   -2.669854276e-02
      856000000   -1.668509543e-01   -5.689130723e-02
      857500000   -1.514443904e-01   -8.503280580e-02
      859000000   -1.314931363e-01   -1.097033843e-01
      860500000   -1.070635244e-01   -1.301280558e-01
      862000000   -7.840937376e-02   -1.464156210e-01
      863500000   -4.661935568e-02   -1.565552056e-01
      865000000   -1.197451912e-02   -1.622545421e-01
      866500000    2.387014963e-02   -1.622000188e-01
      868000000    5.920432881e-02   -1.569755524e-01
      869500000    9.348937124e-02   -1.457230747e-01
      871000000    1.253756434e-01   -1.289455146e-01
      872500000    1.545801461e-01   -1.065219790e-01
      874000000    1.794305742e-01   -7.923832536e-02
      875500000    1.996638924e-01   -4.811323434e-02
      877000000    2.139255702e-01   -1.315584220e-02
      878500000    2.223026752e-01    2.431654371e-02
      880000000    2.230519652e-01    6.427975744e-02
      881500000    2.182355672e-01    1.042407751e-01
      883000000    2.059901059e-01    1.435621083e-01
      884500000    1.864653081e-01    1.815756559e-01
      886000000    1.612167060e-01    2.160608768e-01
      887500000    1.303330064e-01    2.468083799e-01
      889000000    9.301921725e-02    2.727508843e-01
      890500000    5.256674066e-02    2.921255827e-01
      892000000    6.448865868e-03    3.053660691e-01
      893500000   -4.262654856e-02    3.110866547e-01
      895000000   -9.280291200e-02    3.095132709e-01
      896500000   -1.441114247e-01    3.011527359e-01
      898000000   -1.930427253e-01    2.861956954e-01
      899500000   -2.401455641e-01    2.635496855e-01
      901000000   -2.822785974e-01    2.332241684e-01
      902500000   -3.184531331e-01    1.968724728e-01
      904000000   -3.495621383e-01    1.529756784e-01
      905500000   -3.730440438e-01    1.033038199e-01
      907000000   -3.899685740e-01    4.854567349e-02
      908500000   -3.984704316e-01   -7.199424319e-03
      910000000   -3.980723917e-01   -6.501986086e-02
      911500000   -3.891418576e-01   -1.231264547e-01
      913000000   -3.709647059e-01   -1.797273010e-01
      914500000   -3.438840806e-01   -2.327758372e-01
      916000000   -3.082910180e-01   -2.818186879e-01
      917500000   -2.637539208e-01   -3.267320991e-01
      919000000   -2.144016922e-01   -3.622606993e-01
      920500000   -1.564621627e-01   -3.925630748e-01
      922000000   -9.548484534e-02   -4.128769636e-01
      923500000   -3.018477559e-02   -4.249731004e-01
      925000000    3.854127973e-02   -4.284408689e-01
      926500000    1.041174605e-01   -4.213959277e-01
      928000000    1.706206650e-01   -4.045020640e-01
      929500000    2.323904186e-01   -3.777992129e-01
      931000000    2.912457287e-01   -3.403549790e-01
      932500000    3.434793055e-01   -2.943839729e-01
      934000000    3.880652189e-01   -2.417848408e-01
      935500000    4.248877466e-01   -1.827626079e-01
      937000000    4.524107575e-01   -1.183743849e-01
      938500000    4.699104726e-01   -4.935368150e-02
      940000000    4.765413702e-01    2.219984308e-02
      941500000    4.717109501e-01    9.432046860e-02
      943000000    4.557481110e-01    1.634171754e-01
      944500000    4.282297194e-01    2.334713489e-01
      946000000    3.906773329e-01    2.979013920e-01
      947500000    3.449970484e-01    3.555745482e-01
      949000000    2.887884676e-01    4.061241150e-01
      950500000    2.258110046e-01    4.481094480e-01
      952000000    1.565268934e-01    4.797371924e-01
      953500000    8.185860515e-02    5.001780391e-01
      955000000    6.620177533e-03    5.091057420e-01
      956500000   -7.463957369e-02    5.065892339e-01
      958000000   -1.511574090e-01    4.919268489e-01
      959500000   -2.249391824e-01    4.660442173e-01
      961000000   -2.955059409e-01    4.279735386e-01
      962500000   -3.598631918e-01    3.786685765e-01
      964000000   -4.173471332e-01    3.199218512e-01
      965500000   -4.637135267e-01    2.524729073e-01
      967000000   -5.008075833e-01    1.798799336e-01
      968500000   -5.259193182e-01    1.006177366e-01
      970000000   -5.386086702e-01    1.974915527e-02
      971500000   -5.388640761e-01   -6.338956207e-02
      973000000   -5.254800320e-01   -1.456202418e-01
      974500000   -4.995121956e-01   -2.251200229e-01
      976000000   -4.603543580e-01   -3.007801771e-01
      977500000   -4.090984166e-01   -3.698453605e-01
      979000000   -3.502262533e-01   -4.282023609e-01
      980500000   -2.774874866e-01   -4.814327657e-01
      982000000   -1.997722834e-01   -5.209406018e-01
      983500000   -1.172106415e-01   -5.482134819e-01
      985000000   -2.950002812e-02   -5.623880625e-01
      986500000    5.930588767e-02   -5.626556277e-01
      988000000    1.472229511e-01   -5.496215820e-01
      989500000    2.328263372e-01   -5.236121416e-01
      991000000    3.141484857e-01   -4.828636944e-01
      992500000    3.870993853e-01   -4.306343496e-01
      994000000    4.515695870e-01   -3.680044115e-01
      995500000    5.063062310e-01   -2.933033109e-01
      997000000    5.485489368e-01   -2.104535401e-01
      998500000    5.760603547e-01   -1.247478127e-01
     1000000000    5.893614292e-01   -3.238245100e-02
