! NanoVNA-App
! Date: 2026-05-22 19:09:22
! Start: 800MHz Stop: 1.2GHz Points: 401
! S-Parameter data: F S11
# Hz S RI R 50
!     Frequency           S11_Real           S11_Imag
      800000000    4.476084933e-02    5.997096896e-01
      801000000   -1.654898934e-02    5.988728404e-01
      802000000   -7.798659801e-02    5.916333795e-01
      803000000   -1.378785372e-01    5.781314969e-01
      804000000   -1.958611459e-01    5.586299896e-01
      805000000   -2.508936524e-01    5.337998271e-01
      806000000   -3.021108508e-01    5.035147667e-01
      807000000   -3.499667048e-01    4.681465030e-01
      808000000   -3.935233653e-01    4.285252690e-01
      809000000   -4.323610663e-01    3.847472370e-01
      810000000   -4.667995274e-01    3.367474079e-01
      811000000   -4.943345189e-01    2.867655158e-01
      812000000   -5.167407393e-01    2.346208245e-01
      813000000   -5.335623026e-01    1.797881573e-01
      814000000   -5.445821285e-01    1.245158762e-01
      815000000   -5.499558449e-01    6.788072735e-02
      816000000   -5.487857461e-01    1.151658315e-02
      817000000   -5.427249074e-01   -4.288391769e-02
      818000000   -5.312590003e-01   -9.711839259e-02
      819000000   -5.143234134e-01   -1.492925435e-01
      820000000   -4.926759303e-01   -1.982684284e-01
      821000000   -4.656838179e-01   -2.456928641e-01
      822000000   -4.344665706e-01   -2.883265615e-01
      823000000   -4.009059966e-01   -3.263311386e-01
      824000000   -3.628481328e-01   -3.619247079e-01
      825000000   -3.234633207e-01   -3.908839226e-01
      826000000   -2.803740501e-01   -4.157562554e-01
      827000000   -2.360154986e-01   -4.351208806e-01
      828000000   -1.896448284e-01   -4.490982890e-01
      829000000   -1.436096579e-01   -4.588263333e-01
      830000000   -9.665742517e-02   -4.629087746e-01
      831000000   -4.977390915e-02   -4.612432718e-01
      832000000   -4.860233516e-03   -4.550584853e-01
      833000000    3.976526856e-02   -4.443250299e-01
      834000000    8.138730377e-02   -4.284556210e-01
      835000000    1.217224002e-01   -4.089199305e-01
      836000000    1.585340351e-01   -3.856200576e-01
      837000000    1.912619621e-01   -3.589396775e-01
      838000000    2.219503075e-01   -3.284861147e-01
      839000000    2.480825335e-01   -2.953674495e-01
      840000000    2.703427076e-01   -2.601736486e-01
      841000000    2.891378999e-01   -2.235316932e-01
      842000000    3.032527566e-01   -1.863443404e-01
      843000000    3.125492036e-01   -1.477550864e-01
      844000000    3.175159395e-01   -1.101647466e-01
      845000000    3.178250194e-01   -7.237430662e-02
      846000000    3.136409819e-01   -3.541569039e-02
      847000000    3.058272302e-01    8.364234818e-04
      848000000    2.941615880e-01    3.456222266e-02
      849000000    2.787480950e-01    6.754206866e-02
      850000000    2.599304020e-01    9.706870466e-02
      851000000    2.381919026e-01    1.239857003e-01
      852000000    2.140085697e-01    1.472003609e-01
      853000000    1.870647222e-01    1.679572910e-01
      854000000    1.588621289e-01    1.851819605e-01
      855000000    1.290420592e-01    1.979165375e-01
      856000000    9.846208990e-02    2.074643523e-01
      857000000    6.787478924e-02    2.131229192e-01
      858000000    3.649835661e-02    2.150139660e-01
      859000000    5.656905472e-03    2.125711143e-01
      860000000   -2.412225306e-02    2.072719932e-01
      861000000   -5.307527259e-02    1.986712366e-01
      862000000   -8.053953201e-02    1.863171309e-01
      863000000   -1.054416001e-01    1.709570885e-01
      864000000   -1.279291809e-01    1.528813392e-01
      865000000   -1.480096877e-01    1.325101107e-01
      866000000   -1.647305638e-01    1.101352498e-01
      867000000   -1.786213368e-01    8.576464653e-02
      868000000   -1.892209798e-01    5.967283994e-02
      869000000   -1.968593150e-01    3.285514563e-02
      870000000   -2.007454783e-01    6.079437211e-03
      871000000   -2.016413063e-01   -2.106340230e-02
      872000000   -1.991363466e-01   -4.927045479e-02
      873000000   -1.934282631e-01   -7.590182871e-02
      874000000   -1.841004640e-01   -1.012667641e-01
      875000000   -1.725132316e-01   -1.250119507e-01
      876000000   -1.579538733e-01   -1.470927149e-01
      877000000   -1.411148012e-01   -1.670502722e-01
      878000000   -1.217717007e-01   -1.848841906e-01
      879000000   -1.011346430e-01   -1.990288794e-01
      880000000   -7.825383544e-02   -2.108630687e-01
      881000000   -5.466300994e-02   -2.191219181e-01
      882000000   -3.045523353e-02   -2.241812497e-01
      883000000   -5.762043875e-03   -2.259556651e-01
      884000000    1.966344938e-02   -2.244449258e-01
      885000000    4.509186372e-02   -2.197960168e-01
      886000000    6.868186593e-02   -2.120215744e-01
      887000000    9.174405038e-02   -2.006498575e-01
      888000000    1.140551344e-01   -1.867236644e-01
      889000000    1.337561607e-01   -1.699334532e-01
      890000000    1.515899301e-01   -1.511276811e-01
      891000000    1.671508402e-01   -1.297057718e-01
      892000000    1.795519292e-01   -1.063400432e-01
      893000000    1.900888830e-01   -8.138091862e-02
      894000000    1.971292347e-01   -5.581656098e-02
      895000000    2.015526295e-01   -2.898669988e-02
      896000000    2.027315944e-01   -1.844583196e-03
      897000000    2.007879913e-01    2.433654107e-02
      898000000    1.954954565e-01    5.153330788e-02
      899000000    1.871839911e-01    7.641115040e-02
      900000000    1.755704284e-01    1.010816321e-01
      901000000    1.613083482e-01    1.235829592e-01
      902000000    1.438082904e-01    1.436363459e-01
      903000000    1.236777827e-01    1.623357087e-01
      904000000    1.021294072e-01    1.767047942e-01
      905000000    7.759137452e-02    1.889461875e-01
      906000000    5.157808959e-02    1.982280910e-01
      907000000    2.439320274e-02    2.035738826e-01
      908000000   -3.966898192e-03    2.059005499e-01
      909000000   -3.410610184e-02    2.054675668e-01
      910000000   -6.437299401e-02    2.015277892e-01
      911000000   -9.330324829e-02    1.949642152e-01
      912000000   -1.222038716e-01    1.838353276e-01
      913000000   -1.479383558e-01    1.709002852e-01
      914000000   -1.717336774e-01    1.543728262e-01
      915000000   -1.928236485e-01    1.342550963e-01
      916000000   -2.132702768e-01    1.108605042e-01
      917000000   -2.297043502e-01    8.598722517e-02
      918000000   -2.435052991e-01    5.830117315e-02
      919000000   -2.541311681e-01    2.940582298e-02
      920000000   -2.607216537e-01   -1.427732874e-03
      921000000   -2.634590864e-01   -3.229800612e-02
      922000000   -2.633655369e-01   -6.485211104e-02
      923000000   -2.579195201e-01   -9.630370885e-02
      924000000   -2.486915588e-01   -1.285707057e-01
      925000000   -2.356026918e-01   -1.593234688e-01
      926000000   -2.174833417e-01   -1.894578189e-01
      927000000   -1.964139193e-01   -2.181327045e-01
      928000000   -1.718199104e-01   -2.443396151e-01
      929000000   -1.444683820e-01   -2.676369250e-01
      930000000   -1.158438697e-01   -2.882082462e-01
      931000000   -8.230052143e-02   -3.061050177e-01
      932000000   -4.757301137e-02   -3.201097548e-01
      933000000   -1.083762851e-02   -3.297035694e-01
      934000000    2.814893238e-02   -3.351781368e-01
      935000000    6.971462071e-02   -3.369211555e-01
      936000000    1.073708162e-01   -3.337055147e-01
      937000000    1.485040933e-01   -3.261391819e-01
      938000000    1.870539337e-01   -3.139247298e-01
      939000000    2.233840227e-01   -2.969404757e-01
      940000000    2.601103783e-01   -2.752769589e-01
      941000000    2.929512560e-01   -2.491334677e-01
      942000000    3.229094744e-01   -2.184098512e-01
      943000000    3.503787518e-01   -1.852155775e-01
      944000000    3.735131323e-01   -1.475230902e-01
      945000000    3.945653737e-01   -1.082465798e-01
      946000000    4.115321934e-01   -6.496289372e-02
      947000000    4.218619168e-01   -2.019495890e-02
      948000000    4.287331998e-01    2.677695453e-02
      949000000    4.286650121e-01    7.418914139e-02
      950000000    4.236123264e-01    1.223955676e-01
      951000000    4.144397676e-01    1.703931242e-01
      952000000    4.005056024e-01    2.171081752e-01
      953000000    3.814269006e-01    2.636169195e-01
      954000000    3.586552739e-01    3.055473268e-01
      955000000    3.287531734e-01    3.473434746e-01
      956000000    2.950772941e-01    3.858264983e-01
      957000000    2.569268346e-01    4.209151566e-01
      958000000    2.159429789e-01    4.508759379e-01
      959000000    1.701824367e-01    4.767892957e-01
      960000000    1.212214977e-01    4.988620579e-01
      961000000    6.932511181e-02    5.134038329e-01
      962000000    1.583834365e-02    5.228788257e-01
      963000000   -3.694088012e-02    5.264944434e-01
      964000000   -9.344077110e-02    5.243889093e-01
      965000000   -1.477261633e-01    5.162642598e-01
      966000000   -2.023334056e-01    5.022540689e-01
      967000000   -2.563890219e-01    4.820988178e-01
      968000000   -3.084632456e-01    4.561445415e-01
      969000000   -3.575419784e-01    4.241262376e-01
      970000000   -4.024113119e-01    3.873648345e-01
      971000000   -4.453256428e-01    3.454527557e-01
      972000000   -4.825678766e-01    2.990166843e-01
      973000000   -5.142978430e-01    2.486755401e-01
      974000000   -5.408018827e-01    1.955425292e-01
      975000000   -5.621178150e-01    1.380717307e-01
      976000000   -5.771569014e-01    7.916475087e-02
      977000000   -5.867407918e-01    1.693861373e-02
      978000000   -5.889638066e-01   -4.368418828e-02
      979000000   -5.848115683e-01   -1.056510881e-01
      980000000   -5.736718178e-01   -1.691868752e-01
      981000000   -5.560951829e-01   -2.292970866e-01
      982000000   -5.322074294e-01   -2.882904410e-01
      983000000   -5.007046461e-01   -3.454931974e-01
      984000000   -4.634178579e-01   -3.984223306e-01
      985000000   -4.211319089e-01   -4.459390044e-01
      986000000   -3.736390173e-01   -4.893640876e-01
      987000000   -3.213153780e-01   -5.275548697e-01
      988000000   -2.644391060e-01   -5.603712201e-01
      989000000   -2.050711364e-01   -5.869826674e-01
      990000000   -1.414946914e-01   -6.065389514e-01
      991000000   -7.522078604e-02   -6.199360490e-01
      992000000   -8.987338282e-03   -6.260247231e-01
      993000000    5.866989121e-02   -6.245599389e-01
      994000000    1.273505241e-01   -6.159324646e-01
      995000000    1.934765130e-01   -6.006026864e-01
      996000000    2.592419386e-01   -5.767879486e-01
      997000000    3.228176832e-01   -5.463961959e-01
      998000000    3.813515902e-01   -5.105667114e-01
      999000000    4.373513162e-01   -4.668474495e-01
     1000000000    4.882963002e-01   -4.189505279e-01
     1001000000    5.342699885e-01   -3.643452525e-01
     1002000000    5.746426582e-01   -3.063054085e-01
     1003000000    6.079306006e-01   -2.441513091e-01
     1004000000    6.348375678e-01   -1.777585298e-01
     1005000000    6.534107924e-01   -1.104000434e-01
     1006000000    6.651512384e-01   -4.034986719e-02
     1007000000    6.687338948e-01    3.270292655e-02
     1008000000    6.650829315e-01    1.019285247e-01
     1009000000    6.509748697e-01    1.756133586e-01
     1010000000    6.320737600e-01    2.426644117e-01
     1011000000    6.050561070e-01    3.101917803e-01
     1012000000    5.701466203e-01    3.729297221e-01
     1013000000    5.282226801e-01    4.327961504e-01
     1014000000    4.796475768e-01    4.877691865e-01
     1015000000    4.265032411e-01    5.369111896e-01
     1016000000    3.666419983e-01    5.813491344e-01
     1017000000    3.024054766e-01    6.186563373e-01
     1018000000    2.353247553e-01    6.484602094e-01
     1019000000    1.639240086e-01    6.710036993e-01
     1020000000    9.041916579e-02    6.861032844e-01
     1021000000    1.651194319e-02    6.929324865e-01
     1022000000   -5.867661163e-02    6.910556555e-01
     1023000000   -1.329642534e-01    6.821725965e-01
     1024000000   -2.054562569e-01    6.644545197e-01
     1025000000   -2.754022181e-01    6.397200823e-01
     1026000000   -3.447274864e-01    6.064822674e-01
     1027000000   -4.076365530e-01    5.667847395e-01
     1028000000   -4.677078128e-01    5.189025402e-01
     1029000000   -5.204825401e-01    4.654452205e-01
     1030000000   -5.680276752e-01    4.068041742e-01
     1031000000   -6.081569791e-01    3.433580101e-01
     1032000000   -6.408917308e-01    2.761381269e-01
     1033000000   -6.676955223e-01    2.035020590e-01
     1034000000   -6.854768395e-01    1.301805228e-01
     1035000000   -6.945755482e-01    5.415549129e-02
     1036000000   -6.959566474e-01   -2.311284654e-02
     1037000000   -6.887029409e-01   -9.843564779e-02
     1038000000   -6.732473969e-01   -1.732254773e-01
     1039000000   -6.493976116e-01   -2.464322746e-01
     1040000000   -6.182125211e-01   -3.160468042e-01
     1041000000   -5.793705583e-01   -3.817443550e-01
     1042000000   -5.330327749e-01   -4.431093931e-01
     1043000000   -4.805466533e-01   -4.991715848e-01
     1044000000   -4.217823446e-01   -5.486360192e-01
     1045000000   -3.590997458e-01   -5.921364427e-01
     1046000000   -2.907166779e-01   -6.276804805e-01
     1047000000   -2.214102000e-01   -6.554855704e-01
     1048000000   -1.459033787e-01   -6.749169230e-01
     1049000000   -7.064371556e-02   -6.861535311e-01
     1050000000    6.515585352e-03   -6.899093390e-01
     1051000000    8.181762695e-02   -6.843864322e-01
     1052000000    1.583161950e-01   -6.699249744e-01
     1053000000    2.322845161e-01   -6.469953060e-01
     1054000000    2.996842563e-01   -6.184074283e-01
     1055000000    3.663485050e-01   -5.804795027e-01
     1056000000    4.289363921e-01   -5.340278745e-01
     1057000000    4.833929837e-01   -4.839528799e-01
     1058000000    5.334853530e-01   -4.265359342e-01
     1059000000    5.761805773e-01   -3.642778695e-01
     1060000000    6.124765277e-01   -2.956948876e-01
     1061000000    6.397981048e-01   -2.255162746e-01
     1062000000    6.599259973e-01   -1.511953622e-01
     1063000000    6.702688932e-01   -7.717794180e-02
     1064000000    6.729395986e-01    3.563830687e-04
     1065000000    6.673009396e-01    7.475195080e-02
     1066000000    6.531560421e-01    1.491016150e-01
     1067000000    6.306843758e-01    2.232315093e-01
     1068000000    5.987004042e-01    2.938866615e-01
     1069000000    5.617495775e-01    3.581602275e-01
     1070000000    5.160048008e-01    4.202828407e-01
     1071000000    4.645847082e-01    4.751265645e-01
     1072000000    4.062985778e-01    5.250107050e-01
     1073000000    3.440366089e-01    5.666818619e-01
     1074000000    2.767573297e-01    6.014180779e-01
     1075000000    2.067001909e-01    6.285356879e-01
     1076000000    1.341481358e-01    6.462634206e-01
     1077000000    5.980216712e-02    6.568765640e-01
     1078000000   -1.582443900e-02    6.580639482e-01
     1079000000   -9.075504541e-02    6.513550282e-01
     1080000000   -1.643729061e-01    6.356750727e-01
     1081000000   -2.366391271e-01    6.116778851e-01
     1082000000   -3.049751222e-01    5.797781944e-01
     1083000000   -3.682016432e-01    5.410034060e-01
     1084000000   -4.275424182e-01    4.951219261e-01
     1085000000   -4.825413823e-01    4.414856434e-01
     1086000000   -5.289606452e-01    3.837847114e-01
     1087000000   -5.699418187e-01    3.196583688e-01
     1088000000   -6.020942330e-01    2.541311681e-01
     1089000000   -6.277535558e-01    1.814496368e-01
     1090000000   -6.444712281e-01    1.095004678e-01
     1091000000   -6.530258060e-01    3.494399413e-02
     1092000000   -6.520330906e-01   -3.895583004e-02
     1093000000   -6.439199448e-01   -1.123702601e-01
     1094000000   -6.258459091e-01   -1.847707927e-01
     1095000000   -5.998027325e-01   -2.543257177e-01
     1096000000   -5.660309792e-01   -3.199846148e-01
     1097000000   -5.243323445e-01   -3.827595413e-01
     1098000000   -4.766452312e-01   -4.394792914e-01
     1099000000   -4.209608734e-01   -4.913572967e-01
     1100000000   -3.628472984e-01   -5.342967510e-01
     1101000000   -2.984880209e-01   -5.720235705e-01
     1102000000   -2.296888530e-01   -6.028676629e-01
     1103000000   -1.594722569e-01   -6.245507002e-01
     1104000000   -8.366238326e-02   -6.391550303e-01
     1105000000   -1.011969242e-02   -6.443196535e-01
     1106000000    6.417461485e-02   -6.415352225e-01
     1107000000    1.379346102e-01   -6.296379566e-01
     1108000000    2.100095302e-01   -6.102049947e-01
     1109000000    2.786448896e-01   -5.827016234e-01
     1110000000    3.438964188e-01   -5.469377041e-01
     1111000000    4.042683840e-01   -5.045142770e-01
     1112000000    4.593079984e-01   -4.549318254e-01
     1113000000    5.095657110e-01   -3.987440169e-01
     1114000000    5.499726534e-01   -3.402276635e-01
     1115000000    5.856900811e-01   -2.738480866e-01
     1116000000    6.127923131e-01   -2.048826963e-01
     1117000000    6.315178871e-01   -1.344657540e-01
     1118000000    6.425926089e-01   -6.093778834e-02
     1119000000    6.454781294e-01    1.270152070e-02
     1120000000    6.396436691e-01    8.517149091e-02
     1121000000    6.257942915e-01    1.573177129e-01
     1122000000    6.026619673e-01    2.280321866e-01
     1123000000    5.725754499e-01    2.949407399e-01
     1124000000    5.339124799e-01    3.594604731e-01
     1125000000    4.889378250e-01    4.178364873e-01
     1126000000    4.378362298e-01    4.694381356e-01
     1127000000    3.810706139e-01    5.149624348e-01
     1128000000    3.188483417e-01    5.556563735e-01
     1129000000    2.517199218e-01    5.882930756e-01
     1130000000    1.839134246e-01    6.123359203e-01
     1131000000    1.119154915e-01    6.287690401e-01
     1132000000    3.966160491e-02    6.368491650e-01
     1133000000   -3.439741954e-02    6.375185251e-01
     1134000000   -1.073808521e-01    6.283542514e-01
     1135000000   -1.770635843e-01    6.118651032e-01
     1136000000   -2.464145124e-01    5.872508287e-01
     1137000000   -3.095036447e-01    5.559834838e-01
     1138000000   -3.705441356e-01    5.159703493e-01
     1139000000   -4.256799221e-01    4.709950984e-01
     1140000000   -4.753014445e-01    4.181633592e-01
     1141000000   -5.206900239e-01    3.589561880e-01
     1142000000   -5.536214113e-01    3.002342880e-01
     1143000000   -5.843605399e-01    2.318465263e-01
     1144000000   -6.048613191e-01    1.631744653e-01
     1145000000   -6.170188189e-01    9.476839006e-02
     1146000000   -6.220917106e-01    2.289836481e-02
     1147000000   -6.177645922e-01   -4.607175291e-02
     1148000000   -6.063606143e-01   -1.182958856e-01
     1149000000   -5.862022638e-01   -1.852996647e-01
     1150000000   -5.589519739e-01   -2.515224814e-01
     1151000000   -5.238726735e-01   -3.129992783e-01
     1152000000   -4.823032618e-01   -3.702706099e-01
     1153000000   -4.341050088e-01   -4.224133193e-01
     1154000000   -3.810091615e-01   -4.669409990e-01
     1155000000   -3.231893778e-01   -5.068788528e-01
     1156000000   -2.602881193e-01   -5.400608778e-01
     1157000000   -1.958870590e-01   -5.647520423e-01
     1158000000   -1.273532212e-01   -5.827671885e-01
     1159000000   -5.901913717e-02   -5.911980867e-01
     1160000000    9.540747851e-03   -5.924566984e-01
     1161000000    7.865524292e-02   -5.853345990e-01
     1162000000    1.446061581e-01   -5.702158809e-01
     1163000000    2.090094239e-01   -5.471341610e-01
     1164000000    2.720893323e-01   -5.165797472e-01
     1165000000    3.284310699e-01   -4.798908532e-01
     1166000000    3.807711005e-01   -4.369077384e-01
     1167000000    4.295286536e-01   -3.867786229e-01
     1168000000    4.708537161e-01   -3.326344490e-01
     1169000000    5.055098534e-01   -2.740711868e-01
     1170000000    5.334587693e-01   -2.117509246e-01
     1171000000    5.533693433e-01   -1.476623714e-01
     1172000000    5.659535527e-01   -8.066350967e-02
     1173000000    5.708150268e-01   -1.398631558e-02
     1174000000    5.673120022e-01    5.269589648e-02
     1175000000    5.564504862e-01    1.209568307e-01
     1176000000    5.377027392e-01    1.830694526e-01
     1177000000    5.123428702e-01    2.427093983e-01
     1178000000    4.789438546e-01    3.030658662e-01
     1179000000    4.404083192e-01    3.547981977e-01
     1180000000    3.954727650e-01    4.024053514e-01
     1181000000    3.446972370e-01    4.457427263e-01
     1182000000    2.896106541e-01    4.823300242e-01
     1183000000    2.319024354e-01    5.108247995e-01
     1184000000    1.700149328e-01    5.329309106e-01
     1185000000    1.052407473e-01    5.486242175e-01
     1186000000    4.235255346e-02    5.541999936e-01
     1187000000   -2.221731097e-02    5.536341071e-01
     1188000000   -8.728570491e-02    5.452210903e-01
     1189000000   -1.499073654e-01    5.297672749e-01
     1190000000   -2.113638222e-01    5.059056282e-01
     1191000000   -2.665018141e-01    4.771914780e-01
     1192000000   -3.223023415e-01    4.407011569e-01
     1193000000   -3.699316382e-01    3.990025818e-01
     1194000000   -4.132586122e-01    3.512687981e-01
     1195000000   -4.505487382e-01    2.996652126e-01
     1196000000   -4.813075066e-01    2.436800301e-01
     1197000000   -5.052847862e-01    1.838604957e-01
     1198000000   -5.219153762e-01    1.229005530e-01
     1199000000   -5.304507613e-01    6.104334816e-02
     1200000000   -5.330423117e-01   -2.777858404e-03
