! NanoVNA-App
! Date: 2026-05-22 19:08:34
! Start: 1GHz Stop: 1.7GHz Points: 401
! S-Parameter data: F S11
# Hz S RI R 50
!     Frequency           S11_Real           S11_Imag
     1000000000    4.867135882e-01   -4.181041121e-01
     1001750000    5.623314381e-01   -3.205835521e-01
     1003500000    6.191157103e-01   -2.114880383e-01
     1005250000    6.542181969e-01   -9.317229688e-02
     1007000000    6.653814316e-01    3.106621653e-02
     1008750000    6.533684134e-01    1.530980468e-01
     1010500000    6.169088483e-01    2.729323506e-01
     1012250000    5.576556921e-01    3.855385482e-01
     1014000000    4.781564772e-01    4.833325148e-01
     1015750000    3.803730905e-01    5.659874082e-01
     1017500000    2.676760852e-01    6.298374534e-01
     1019250000    1.456873715e-01    6.706336737e-01
     1021000000    1.693203300e-02    6.878771782e-01
     1022750000   -1.121546403e-01    6.809750199e-01
     1024500000   -2.399719656e-01    6.482760906e-01
     1026250000   -3.574687541e-01    5.943706036e-01
     1028000000   -4.646492004e-01    5.150027871e-01
     1029750000   -5.524234772e-01    4.196301699e-01
     1031500000   -6.223350167e-01    3.067087829e-01
     1033250000   -6.685823798e-01    1.854198426e-01
     1035000000   -6.906321049e-01    5.419759080e-02
     1036750000   -6.874446273e-01   -8.052199334e-02
     1038500000   -6.581242085e-01   -2.085813731e-01
     1040250000   -6.057338715e-01   -3.299494386e-01
     1042000000   -5.293863416e-01   -4.411332309e-01
     1043750000   -4.342094362e-01   -5.338010192e-01
     1045500000   -3.232081532e-01   -6.077686548e-01
     1047250000   -1.992347240e-01   -6.589372158e-01
     1049000000   -7.076390088e-02   -6.836178899e-01
     1050750000    6.376634538e-02   -6.836767197e-01
     1052500000    1.952349842e-01   -6.566055417e-01
     1054250000    3.171229661e-01   -6.068006158e-01
     1056000000    4.274514318e-01   -5.323780179e-01
     1057750000    5.204877853e-01   -4.389203787e-01
     1059500000    5.930665135e-01   -3.289736211e-01
     1061250000    6.429435015e-01   -2.056435794e-01
     1063000000    6.673650146e-01   -7.625067979e-02
     1064750000    6.667897105e-01    5.526467040e-02
     1066500000    6.395156980e-01    1.877942532e-01
     1068250000    5.882165432e-01    3.086622655e-01
     1070000000    5.142403841e-01    4.182849228e-01
     1071750000    4.200784564e-01    5.111210942e-01
     1073500000    3.113211691e-01    5.832388997e-01
     1075250000    1.876995265e-01    6.317602396e-01
     1077000000    5.829515681e-02    6.550177336e-01
     1078750000   -7.348526269e-02    6.519251466e-01
     1080500000   -2.002601624e-01    6.235260367e-01
     1082250000   -3.209000230e-01    5.694887638e-01
     1084000000   -4.280184507e-01    4.932708442e-01
     1085750000   -5.173524618e-01    3.984652758e-01
     1087500000   -5.871435404e-01    2.862086296e-01
     1089250000   -6.317980886e-01    1.645225435e-01
     1091000000   -6.519700289e-01    3.641896322e-02
     1092750000   -6.454862356e-01   -9.303390980e-02
     1094500000   -6.123341918e-01   -2.191094607e-01
     1096250000   -5.559118390e-01   -3.364844918e-01
     1098000000   -4.742308259e-01   -4.396737218e-01
     1099750000   -3.766941130e-01   -5.247114301e-01
     1101500000   -2.636520565e-01   -5.886417031e-01
     1103250000   -1.389683038e-01   -6.289563775e-01
     1105000000   -9.771583602e-03   -6.445167065e-01
     1106750000    1.195431873e-01   -6.336315870e-01
     1108500000    2.455912232e-01   -5.974299908e-01
     1110250000    3.598319292e-01   -5.380321741e-01
     1112000000    4.605928361e-01   -4.553097188e-01
     1113750000    5.413044095e-01   -3.544563949e-01
     1115500000    6.000798941e-01   -2.402979732e-01
     1117250000    6.360163093e-01   -1.151413769e-01
     1119000000    6.458075643e-01    1.425160188e-02
     1120750000    6.300178766e-01    1.424884200e-01
     1122500000    5.886646509e-01    2.641948164e-01
     1124250000    5.239926577e-01    3.753896654e-01
     1126000000    4.383240640e-01    4.717515111e-01
     1127750000    3.358095884e-01    5.491791964e-01
     1129500000    2.176063061e-01    6.048452854e-01
     1131250000    9.385997802e-02    6.351937056e-01
     1133000000   -3.452202305e-02    6.408189535e-01
     1134750000   -1.597796381e-01    6.216046214e-01
     1136500000   -2.803193033e-01    5.766667128e-01
     1138250000   -3.858056962e-01    5.105680227e-01
     1140000000   -4.788634777e-01    4.216147661e-01
     1141750000   -5.483065248e-01    3.200238347e-01
     1143500000   -5.998307467e-01    2.011707723e-01
     1145250000   -6.226947308e-01    8.037561923e-02
     1147000000   -6.224620342e-01   -4.500932246e-02
     1148750000   -5.971505642e-01   -1.683387011e-01
     1150500000   -5.475707650e-01   -2.825255096e-01
     1152250000   -4.767408073e-01   -3.842539191e-01
     1154000000   -3.866361976e-01   -4.703760147e-01
     1155750000   -2.824752629e-01   -5.354102850e-01
     1157500000   -1.681373119e-01   -5.779603720e-01
     1159250000   -4.625807703e-02   -5.972905159e-01
     1161000000    7.507566363e-02   -5.907505155e-01
     1162750000    1.912591606e-01   -5.590412021e-01
     1164500000    2.990640998e-01   -5.050485134e-01
     1166250000    3.934617043e-01   -4.308535159e-01
     1168000000    4.716237783e-01   -3.385318220e-01
     1169750000    5.292075872e-01   -2.337597460e-01
     1171500000    5.643828511e-01   -1.185655296e-01
     1173250000    5.753203630e-01   -7.094881730e-04
     1175000000    5.617125034e-01    1.128844991e-01
     1176750000    5.251477361e-01    2.275798619e-01
     1178500000    4.669583738e-01    3.274981081e-01
     1180250000    3.896412253e-01    4.131207764e-01
     1182000000    2.967912555e-01    4.821013212e-01
     1183750000    1.931315064e-01    5.292885900e-01
     1185500000    8.062708378e-02    5.547795892e-01
     1187250000   -3.357810155e-02    5.558391809e-01
     1189000000   -1.455502659e-01    5.339795351e-01
     1190750000   -2.509992123e-01    4.899573624e-01
     1192500000   -3.461462259e-01    4.256652892e-01
     1194250000   -4.212802947e-01    3.457564116e-01
     1196000000   -4.802362621e-01    2.505291402e-01
     1197750000   -5.195688605e-01    1.439287066e-01
     1199500000   -5.347304940e-01    3.434304893e-02
     1201250000   -5.284841061e-01   -7.694248110e-02
     1203000000   -4.990940094e-01   -1.858696342e-01
     1204750000   -4.487584233e-01   -2.829762995e-01
     1206500000   -3.798222840e-01   -3.681412041e-01
     1208250000   -2.956829965e-01   -4.367555380e-01
     1210000000   -1.983180195e-01   -4.873582721e-01
     1211750000   -9.402021021e-02   -5.155003071e-01
     1213500000    1.332295779e-02   -5.216888189e-01
     1215250000    1.201162115e-01   -5.053519011e-01
     1217000000    2.223594040e-01   -4.679395854e-01
     1218750000    3.137262166e-01   -4.097166061e-01
     1220500000    3.907129765e-01   -3.351356983e-01
     1222250000    4.519038498e-01   -2.462904900e-01
     1224000000    4.925039411e-01   -1.470758617e-01
     1225750000    5.127841234e-01   -4.185815901e-02
     1227500000    5.110160112e-01    6.475111842e-02
     1229250000    4.875229597e-01    1.671911478e-01
     1231000000    4.428381026e-01    2.620380223e-01
     1232750000    3.786661029e-01    3.482603729e-01
     1234500000    3.001772463e-01    4.164080620e-01
     1236250000    2.063340843e-01    4.704960883e-01
     1238000000    1.086418629e-01    5.018003583e-01
     1239750000    3.538812743e-03    5.134249926e-01
     1241500000   -1.005367339e-01    5.026469827e-01
     1243250000   -2.003456950e-01    4.708761871e-01
     1245000000   -2.920208275e-01    4.197240174e-01
     1246750000   -3.712477386e-01    3.509086370e-01
     1248500000   -4.329512715e-01    2.696987987e-01
     1250250000   -4.785290658e-01    1.755706668e-01
     1252000000   -5.042908192e-01    7.411348075e-02
     1253750000   -5.080713034e-01   -2.835687995e-02
     1255500000   -4.917537272e-01   -1.283529848e-01
     1257250000   -4.553509057e-01   -2.249402851e-01
     1259000000   -4.002629220e-01   -3.105904460e-01
     1260750000   -3.305132985e-01   -3.799820840e-01
     1262500000   -2.446305603e-01   -4.384040534e-01
     1264250000   -1.530155540e-01   -4.749809206e-01
     1266000000   -5.458584428e-02   -4.932332635e-01
     1267750000    4.464619234e-02   -4.903356731e-01
     1269500000    1.411033422e-01   -4.677998722e-01
     1271250000    2.294234633e-01   -4.264200330e-01
     1273000000    3.089221716e-01   -3.669162691e-01
     1274750000    3.735666871e-01   -2.934319377e-01
     1276500000    4.226968288e-01   -2.080110610e-01
     1278250000    4.530198872e-01   -1.165322959e-01
     1280000000    4.650052488e-01   -1.879548095e-02
     1281750000    4.570497870e-01    7.617367059e-02
     1283500000    4.303092062e-01    1.692810506e-01
     1285250000    3.863929212e-01    2.532615066e-01
     1287000000    3.264900148e-01    3.267436624e-01
     1288750000    2.541458309e-01    3.856952488e-01
     1290500000    1.741561145e-01    4.280438423e-01
     1292250000    8.440069854e-02    4.530452788e-01
     1294000000   -5.248219706e-03    4.590577185e-01
     1295750000   -9.490543604e-02    4.460935891e-01
     1297500000   -1.789801568e-01    4.145193696e-01
     1299250000   -2.532252967e-01    3.677185774e-01
     1301000000   -3.167026043e-01    3.064814806e-01
     1302750000   -3.683721423e-01    2.325216234e-01
     1304500000   -4.022426605e-01    1.525324285e-01
     1306250000   -4.204764664e-01    6.599698961e-02
     1308000000   -4.205896258e-01   -2.023955062e-02
     1309750000   -4.033103585e-01   -1.058259904e-01
     1311500000   -3.702801466e-01   -1.829516888e-01
     1313250000   -3.207428455e-01   -2.531766593e-01
     1315000000   -2.617221475e-01   -3.092099130e-01
     1316750000   -1.905064285e-01   -3.540228009e-01
     1318500000   -1.120818406e-01   -3.839427829e-01
     1320250000   -3.265563399e-02   -3.963477910e-01
     1322000000    4.831053689e-02   -3.926592171e-01
     1323750000    1.250238270e-01   -3.728721738e-01
     1325500000    1.957895458e-01   -3.382977545e-01
     1327250000    2.576801777e-01   -2.899356186e-01
     1329000000    3.069665134e-01   -2.317782193e-01
     1330750000    3.436224163e-01   -1.648622304e-01
     1332500000    3.664115369e-01   -9.298283607e-02
     1334250000    3.735892773e-01   -1.827516407e-02
     1336000000    3.660888374e-01    5.561610684e-02
     1337750000    3.442055881e-01    1.243665442e-01
     1339500000    3.089222908e-01    1.883608699e-01
     1341250000    2.620946765e-01    2.421583682e-01
     1343000000    2.061954588e-01    2.851686776e-01
     1344750000    1.460988969e-01    3.149102926e-01
     1346500000    7.748928666e-02    3.325747550e-01
     1348250000    1.062331535e-02    3.358990848e-01
     1350000000   -5.543174967e-02    3.254679143e-01
     1351750000   -1.163701564e-01    3.022412956e-01
     1353500000   -1.717959344e-01    2.676083148e-01
     1355250000   -2.174369991e-01    2.237615436e-01
     1357000000   -2.531499267e-01    1.725783050e-01
     1358750000   -2.772422433e-01    1.174609363e-01
     1360500000   -2.899135947e-01    5.493763462e-02
     1362250000   -2.903577089e-01   -3.865548177e-03
     1364000000   -2.790027857e-01   -6.178447604e-02
     1365750000   -2.571371496e-01   -1.150092930e-01
     1367500000   -2.260050476e-01   -1.621369272e-01
     1369250000   -1.883165240e-01   -2.004972696e-01
     1371000000   -1.429965943e-01   -2.300484627e-01
     1372750000   -9.683839232e-02   -2.480876744e-01
     1374500000   -4.681331664e-02   -2.556430101e-01
     1376250000    2.052096883e-03   -2.524812222e-01
     1378000000    4.807785526e-02   -2.391852736e-01
     1379750000    9.026823193e-02   -2.165117413e-01
     1381500000    1.262231171e-01   -1.870835274e-01
     1383250000    1.549921632e-01   -1.513379365e-01
     1385000000    1.751191020e-01   -1.115951315e-01
     1386750000    1.871922910e-01   -7.007990777e-02
     1388500000    1.895524114e-01   -2.573517896e-02
     1390250000    1.836273074e-01    1.442173962e-02
     1392000000    1.696275622e-01    5.261776224e-02
     1393750000    1.498959064e-01    8.585169911e-02
     1395500000    1.237102002e-01    1.141753048e-01
     1397250000    9.358569980e-02    1.351179630e-01
     1399000000    6.187487394e-02    1.489225626e-01
     1400750000    2.876652963e-02    1.546029150e-01
     1402500000   -3.059992334e-03    1.535099894e-01
     1404250000   -3.407244384e-02    1.443166733e-01
     1406000000   -6.110415980e-02    1.298024952e-01
     1407750000   -8.410146832e-02    1.100674421e-01
     1409500000   -1.015368402e-01    8.680478483e-02
     1411250000   -1.131507158e-01    6.006322429e-02
     1413000000   -1.187965870e-01    3.275133669e-02
     1414750000   -1.183420718e-01    5.597146228e-03
     1416500000   -1.119599566e-01   -2.027471550e-02
     1418250000   -1.004985571e-01   -4.387968406e-02
     1420000000   -8.495151252e-02   -6.359189749e-02
     1421750000   -6.526858360e-02   -7.948310673e-02
     1423500000   -4.503995925e-02   -9.025137126e-02
     1425250000   -2.325942926e-02   -9.624835849e-02
     1427000000   -7.901471108e-04   -9.668593109e-02
     1428750000    1.866399683e-02   -9.283015132e-02
     1430500000    3.688547015e-02   -8.302183449e-02
     1432250000    5.212279037e-02   -6.907904893e-02
     1434000000    6.391256303e-02   -5.265456438e-02
     1435750000    7.209797204e-02   -3.442445025e-02
     1437500000    7.642298192e-02   -1.527611632e-02
     1439250000    7.605978101e-02    4.128259607e-03
     1441000000    7.198474556e-02    2.192758769e-02
     1442750000    6.456813961e-02    3.824425861e-02
     1444500000    5.311736837e-02    5.231307819e-02
     1446250000    4.072532803e-02    6.259041280e-02
     1448000000    2.632265165e-02    6.950309873e-02
     1449750000    1.055474486e-02    7.268045098e-02
     1451500000   -5.549512338e-03    7.187107205e-02
     1453250000   -2.049425431e-02    6.829563528e-02
     1455000000   -3.395721689e-02    6.087808684e-02
     1456750000   -4.581769183e-02    5.220504478e-02
     1458500000   -5.518324301e-02    4.083988070e-02
     1460250000   -6.179820374e-02    2.800730988e-02
     1462000000   -6.491596252e-02    1.509234123e-02
     1463750000   -6.490796059e-02    1.518720295e-03
     1465500000   -6.196772680e-02   -1.132383570e-02
     1467250000   -5.689284950e-02   -2.303915471e-02
     1469000000   -5.002804101e-02   -3.394868597e-02
     1470750000   -4.120215029e-02   -4.245988652e-02
     1472500000   -3.222965449e-02   -4.900534824e-02
     1474250000   -2.315047570e-02   -5.248343572e-02
     1476000000   -1.271994226e-02   -5.333195254e-02
     1477750000   -3.046971979e-03   -5.183568969e-02
     1479500000    5.989340134e-03   -4.916024953e-02
     1481250000    1.371346507e-02   -4.496810585e-02
     1483000000    2.041807584e-02   -3.973642364e-02
     1484750000    2.531467378e-02   -3.368379176e-02
     1486500000    2.895845659e-02   -2.739810385e-02
     1488250000    3.045622259e-02   -2.071790025e-02
     1490000000    3.154605627e-02   -1.501490735e-02
     1491750000    3.180219233e-02   -1.007029787e-02
     1493500000    3.138860688e-02   -5.839221179e-03
     1495250000    3.062898852e-02   -2.641334897e-03
     1497000000    2.979759127e-02   -6.792211207e-04
     1498750000    2.929588966e-02    6.893090322e-04
     1500500000    2.859587036e-02    1.453818171e-03
     1502250000    2.873787843e-02    2.332009841e-03
     1504000000    2.933565155e-02    2.704089275e-03
     1505750000    3.050470538e-02    3.348119324e-03
     1507500000    3.180859610e-02    5.060247146e-03
     1509250000    3.312775120e-02    8.003169671e-03
     1511000000    3.498389944e-02    1.191807259e-02
     1512750000    3.672173247e-02    1.650441810e-02
     1514500000    3.800896183e-02    2.218686230e-02
     1516250000    3.744237497e-02    2.915431000e-02
     1518000000    3.529084101e-02    3.628026322e-02
     1519750000    3.178845719e-02    4.415005445e-02
     1521500000    2.634935826e-02    5.210473761e-02
     1523250000    1.886891946e-02    5.955088884e-02
     1525000000    9.615315124e-03    6.565081328e-02
     1526750000   -1.583006582e-03    7.044701278e-02
     1528500000   -1.416390575e-02    7.277725637e-02
     1530250000   -2.807495557e-02    7.171185315e-02
     1532000000   -4.245300964e-02    6.746185571e-02
     1533750000   -5.730075017e-02    5.978640914e-02
     1535500000   -7.171610743e-02    4.896384478e-02
     1537250000   -8.502045274e-02    3.547299281e-02
     1539000000   -9.553335607e-02    1.909879781e-02
     1540750000   -1.030528173e-01    4.165860882e-04
     1542500000   -1.068342924e-01   -2.071092650e-02
     1544250000   -1.062623784e-01   -4.272634909e-02
     1546000000   -1.010965928e-01   -6.550084054e-02
     1547750000   -9.182990342e-02   -8.696448058e-02
     1549500000   -7.712468505e-02   -1.067236662e-01
     1551250000   -5.870841444e-02   -1.234085113e-01
     1553000000   -3.529461846e-02   -1.369465888e-01
     1554750000   -8.380757645e-03   -1.460975707e-01
     1556500000    1.922259666e-02   -1.495276242e-01
     1558250000    4.810404032e-02   -1.475731432e-01
     1560000000    7.933469862e-02   -1.389688402e-01
     1561750000    1.066392213e-01   -1.253931671e-01
     1563500000    1.317014396e-01   -1.054675281e-01
     1565250000    1.528610140e-01   -7.984557003e-02
     1567000000    1.690454483e-01   -4.929463565e-02
     1568750000    1.789404750e-01   -1.639489271e-02
     1570500000    1.824049354e-01    2.106554434e-02
     1572250000    1.780237108e-01    5.761489272e-02
     1574000000    1.667322069e-01    9.388923645e-02
     1575750000    1.479212791e-01    1.274042875e-01
     1577500000    1.220214665e-01    1.568577141e-01
     1579250000    8.930902928e-02    1.813831180e-01
     1581000000    5.079541728e-02    1.994871646e-01
     1582750000    8.933192119e-03    2.099515200e-01
     1584500000   -3.514654189e-02    2.126053423e-01
     1586250000   -7.738108188e-02    2.068300247e-01
     1588000000   -1.219795495e-01    1.907914579e-01
     1589750000   -1.596533358e-01    1.682062000e-01
     1591500000   -1.939764917e-01    1.364591867e-01
     1593250000   -2.204459459e-01    9.774988890e-02
     1595000000   -2.388119698e-01    5.422846973e-02
     1596750000   -2.481084168e-01    5.827338900e-03
     1598500000   -2.470437139e-01   -4.302537814e-02
     1600250000   -2.356642485e-01   -9.340623766e-02
     1602000000   -2.136266530e-01   -1.425033212e-01
     1603750000   -1.830328405e-01   -1.862837076e-01
     1605500000   -1.443473697e-01   -2.238957882e-01
     1607250000   -9.802459180e-02   -2.541294694e-01
     1609000000   -4.698561132e-02   -2.747466266e-01
     1610750000    8.467012085e-03   -2.843987048e-01
     1612500000    6.360627711e-02   -2.828364670e-01
     1614250000    1.185471267e-01   -2.691344917e-01
     1616000000    1.707895249e-01   -2.440137565e-01
     1617750000    2.165890485e-01   -2.088086009e-01
     1619500000    2.546343803e-01   -1.632221490e-01
     1621250000    2.829108238e-01   -1.110813096e-01
     1623000000    3.013471663e-01   -5.237811059e-02
     1624750000    3.082286119e-01    8.964880370e-03
     1626500000    3.027047813e-01    7.446695864e-02
     1628250000    2.854387462e-01    1.352172196e-01
     1630000000    2.565002739e-01    1.922771931e-01
     1631750000    2.161189914e-01    2.428972721e-01
     1633500000    1.674508750e-01    2.837266326e-01
     1635250000    1.092900187e-01    3.146557808e-01
     1637000000    4.756855965e-02    3.327971101e-01
     1638750000   -1.795793697e-02    3.375654817e-01
     1640500000   -8.341922611e-02    3.295609653e-01
     1642250000   -1.467367709e-01    3.070629835e-01
     1644000000   -2.033279389e-01    2.718802094e-01
     1645750000   -2.540589273e-01    2.275547981e-01
     1647500000   -2.945302725e-01    1.725945026e-01
     1649250000   -3.244633973e-01    1.062775254e-01
     1651000000   -3.398056924e-01    3.996845707e-02
     1652750000   -3.416582644e-01   -3.068187460e-02
     1654500000   -3.297152817e-01   -1.002620682e-01
     1656250000   -3.041552603e-01   -1.669483781e-01
     1658000000   -2.655879855e-01   -2.265900075e-01
     1659750000   -2.153304815e-01   -2.774411738e-01
     1661500000   -1.556946784e-01   -3.178014755e-01
     1663250000   -8.969920129e-02   -3.445107341e-01
     1665000000   -1.958220825e-02   -3.577920794e-01
     1666750000    5.364984646e-02   -3.565317094e-01
     1668500000    1.240003482e-01   -3.414295018e-01
     1670250000    1.904925555e-01   -3.101786375e-01
     1672000000    2.477778792e-01   -2.686931789e-01
     1673750000    2.976327240e-01   -2.132212073e-01
     1675500000    3.340000808e-01   -1.516889334e-01
     1677250000    3.577337265e-01   -8.143752068e-02
     1679000000    3.678876460e-01   -9.243509732e-03
     1680750000    3.620056212e-01    6.629236788e-02
     1682500000    3.412462473e-01    1.379255056e-01
     1684250000    3.081972301e-01    2.024514824e-01
     1686000000    2.608633935e-01    2.601878345e-01
     1687750000    2.041841298e-01    3.064809442e-01
     1689500000    1.379649788e-01    3.403196633e-01
     1691250000    6.712121516e-02    3.603532910e-01
     1693000000   -7.596790325e-03    3.650296926e-01
     1694750000   -8.081182092e-02    3.551714718e-01
     1696500000   -1.519488245e-01    3.297013044e-01
     1698250000   -2.163594663e-01    2.908564806e-01
     1700000000   -2.702270448e-01    2.415934652e-01
