! NanoVNA-App
! Date: 2026-05-22 19:20:17
! Start: 4.8GHz Stop: 6GHz Points: 401
! S-Parameter data: F S11
# Hz S RI R 50
!     Frequency           S11_Real           S11_Imag
     4800000000    1.926217787e-02    8.225765079e-02
     4803000000   -9.387790225e-03    9.662590921e-02
     4806000000   -3.738645837e-02    9.948147833e-02
     4809000000   -6.499852985e-02    9.395063668e-02
     4812000000   -8.537274599e-02    7.509361953e-02
     4815000000   -9.854030609e-02    5.187470093e-02
     4818000000   -9.680344909e-02    2.668259479e-02
     4821000000   -9.042965621e-02    3.091838444e-03
     4824000000   -7.017762959e-02   -9.638922289e-03
     4827000000   -4.902852327e-02   -1.768330485e-02
     4830000000   -2.486452088e-02   -1.545053069e-02
     4833000000   -5.040588789e-03   -7.822892512e-04
     4836000000    8.755691350e-03    1.851776615e-02
     4839000000    1.370485593e-02    4.304163530e-02
     4842000000    7.280371152e-03    6.947219372e-02
     4845000000   -7.282197475e-03    8.856815845e-02
     4848000000   -3.196685016e-02    1.000611410e-01
     4851000000   -5.821745470e-02    1.029233709e-01
     4854000000   -8.424223214e-02    9.520740807e-02
     4857000000   -1.064057797e-01    7.238632441e-02
     4860000000   -1.208355501e-01    4.623770714e-02
     4863000000   -1.195080876e-01    1.061792113e-02
     4866000000   -1.081329361e-01   -2.129453234e-02
     4869000000   -8.083645999e-02   -5.035653338e-02
     4872000000   -4.991405085e-02   -7.021220028e-02
     4875000000   -7.637096103e-03   -7.360200584e-02
     4878000000    3.406344354e-02   -6.575971097e-02
     4881000000    6.856547296e-02   -3.977921233e-02
     4884000000    9.755116701e-02   -8.786546066e-03
     4887000000    1.097056121e-01    3.372710943e-02
     4890000000    1.131769493e-01    7.654504478e-02
     4893000000    9.736599773e-02    1.180812716e-01
     4896000000    6.776844710e-02    1.533454657e-01
     4899000000    2.868871391e-02    1.748380959e-01
     4902000000   -1.750692353e-02    1.774384677e-01
     4905000000   -5.941345170e-02    1.687414646e-01
     4908000000   -9.732177854e-02    1.455859989e-01
     4911000000   -1.206696779e-01    1.078746542e-01
     4914000000   -1.315939575e-01    6.584690511e-02
     4917000000   -1.262816787e-01    2.383522503e-02
     4920000000   -1.061089411e-01   -1.464254502e-02
     4923000000   -7.241775095e-02   -3.922834247e-02
     4926000000   -3.359553218e-02   -5.674205348e-02
     4929000000    7.590939291e-03   -5.120493099e-02
     4932000000    4.367538542e-02   -3.646775708e-02
     4935000000    7.081247121e-02   -7.829804905e-03
     4938000000    9.762398154e-02    2.492889762e-02
     4941000000    8.726867288e-02    6.522224098e-02
     4944000000    8.011838794e-02    1.026963741e-01
     4947000000    5.181159824e-02    1.245722547e-01
     4950000000    1.700056903e-02    1.416739672e-01
     4953000000   -1.889049076e-02    1.420774758e-01
     4956000000   -5.102177337e-02    1.254020631e-01
     4959000000   -7.817342877e-02    1.001370251e-01
     4962000000   -8.905719966e-02    6.387773901e-02
     4965000000   -9.016232193e-02    2.698474191e-02
     4968000000   -7.354530692e-02   -9.121131152e-03
     4971000000   -4.621399194e-02   -3.870832548e-02
     4974000000   -8.075097576e-03   -5.099812895e-02
     4977000000    3.319382295e-02   -5.593673512e-02
     4980000000    7.245607674e-02   -4.275921360e-02
     4983000000    1.000563502e-01   -1.404290460e-02
     4986000000    1.218186393e-01    2.000064775e-02
     4989000000    1.240399256e-01    6.155228242e-02
     4992000000    1.097661704e-01    1.011771932e-01
     4995000000    8.071057498e-02    1.293769181e-01
     4998000000    4.381027818e-02    1.493435502e-01
     5001000000   -1.175635494e-03    1.511071175e-01
     5004000000   -4.471704736e-02    1.385712475e-01
     5007000000   -7.482352108e-02    1.077475995e-01
     5010000000   -9.620937705e-02    6.615970284e-02
     5013000000   -1.076030955e-01    1.885828935e-02
     5016000000   -9.511337429e-02   -2.833015099e-02
     5019000000   -6.898295134e-02   -7.232213765e-02
     5022000000   -2.530230395e-02   -9.908469021e-02
     5025000000    2.323394641e-02   -1.160878986e-01
     5028000000    7.764782757e-02   -1.144953966e-01
     5031000000    1.197858006e-01   -8.866772801e-02
     5034000000    1.552831084e-01   -5.195942894e-02
     5037000000    1.769374609e-01   -5.817694124e-03
     5040000000    1.735350639e-01    4.568001255e-02
     5043000000    1.574201137e-01    9.223512560e-02
     5046000000    1.248011291e-01    1.316679269e-01
     5049000000    7.921842486e-02    1.539154649e-01
     5052000000    2.862786874e-02    1.612033397e-01
     5055000000   -2.056915127e-02    1.460379064e-01
     5058000000   -6.244384125e-02    1.164310500e-01
     5061000000   -9.247126430e-02    7.433912158e-02
     5064000000   -1.006662473e-01    2.481810190e-02
     5067000000   -9.179379046e-02   -2.562370524e-02
     5070000000   -6.577025354e-02   -7.019466162e-02
     5073000000   -2.721844241e-02   -1.013797075e-01
     5076000000    2.117102779e-02   -1.150069758e-01
     5079000000    6.913145632e-02   -1.120831370e-01
     5082000000    1.126282513e-01   -9.155105054e-02
     5085000000    1.472791731e-01   -5.473195389e-02
     5088000000    1.602573246e-01   -8.161846548e-03
     5091000000    1.578124762e-01    3.704041615e-02
     5094000000    1.357340366e-01    8.048302680e-02
     5097000000    1.020345762e-01    1.165310964e-01
     5100000000    5.696617812e-02    1.320911646e-01
     5103000000    8.910319768e-03    1.290647537e-01
     5106000000   -3.738773242e-02    1.100685745e-01
     5109000000   -7.342293113e-02    7.583041489e-02
     5112000000   -9.727715701e-02    2.879607864e-02
     5115000000   -9.597352892e-02   -1.863376983e-02
     5118000000   -8.113091439e-02   -6.578259915e-02
     5121000000   -5.246494710e-02   -1.108868867e-01
     5124000000   -9.275467135e-03   -1.311756670e-01
     5127000000    4.299601540e-02   -1.439130306e-01
     5130000000    8.627732098e-02   -1.293657124e-01
     5133000000    1.294664890e-01   -1.029131189e-01
     5136000000    1.536193043e-01   -6.483632326e-02
     5139000000    1.634570211e-01   -1.702672616e-02
     5142000000    1.562252641e-01    2.905097790e-02
     5145000000    1.325934380e-01    7.088122517e-02
     5148000000    9.207518399e-02    1.011956036e-01
     5151000000    4.770423099e-02    1.107392460e-01
     5154000000   -7.894366281e-04    1.044680551e-01
     5157000000   -4.239697382e-02    8.025249094e-02
     5160000000   -7.534512877e-02    4.246047884e-02
     5163000000   -8.753904700e-02   -1.736209495e-03
     5166000000   -8.634511381e-02   -5.010227114e-02
     5169000000   -6.346744299e-02   -8.882261813e-02
     5172000000   -3.037376143e-02   -1.239144579e-01
     5175000000    1.467077248e-02   -1.415669322e-01
     5178000000    6.256570667e-02   -1.389273554e-01
     5181000000    1.094678864e-01   -1.214108840e-01
     5184000000    1.348707080e-01   -8.540023118e-02
     5187000000    1.547399014e-01   -3.813692182e-02
     5190000000    1.534110755e-01    1.396363042e-02
     5193000000    1.329223514e-01    5.256805196e-02
     5196000000    9.702875465e-02    9.092970192e-02
     5199000000    4.778684303e-02    1.148779094e-01
     5202000000   -5.541722756e-03    1.182746440e-01
     5205000000   -5.344289541e-02    1.014137045e-01
     5208000000   -9.881585836e-02    6.813050807e-02
     5211000000   -1.241162494e-01    2.394132875e-02
     5214000000   -1.361731440e-01   -2.929906361e-02
     5217000000   -1.277669519e-01   -8.357787132e-02
     5220000000   -1.010742038e-01   -1.279483438e-01
     5223000000   -5.942289159e-02   -1.628997773e-01
     5226000000   -7.588530891e-03   -1.777662784e-01
     5229000000    4.155952111e-02   -1.735143065e-01
     5232000000    8.822949976e-02   -1.521511674e-01
     5235000000    1.236925125e-01   -1.131750122e-01
     5238000000    1.413617134e-01   -6.837081164e-02
     5241000000    1.418806016e-01   -1.895358227e-02
     5244000000    1.239837110e-01    2.983374521e-02
     5247000000    8.975642920e-02    6.501334906e-02
     5250000000    4.494172335e-02    8.692134917e-02
     5253000000   -1.391133876e-03    9.089944512e-02
     5256000000   -4.434548318e-02    7.693511248e-02
     5259000000   -8.462630957e-02    4.853260890e-02
     5262000000   -1.134494767e-01    1.354076085e-03
     5265000000   -1.132787764e-01   -3.541200608e-02
     5268000000   -1.035823524e-01   -8.451743424e-02
     5271000000   -7.685397565e-02   -1.169449165e-01
     5274000000   -3.896795958e-02   -1.393384039e-01
     5277000000    4.332324956e-03   -1.456574798e-01
     5280000000    4.767451435e-02   -1.365080923e-01
     5283000000    8.712033927e-02   -1.074395850e-01
     5286000000    1.074589044e-01   -7.158740610e-02
     5289000000    1.163524538e-01   -2.494146489e-02
     5292000000    1.058953553e-01    2.422757819e-02
     5295000000    8.133910596e-02    6.043012813e-02
     5298000000    4.362547025e-02    8.685342968e-02
     5301000000   -1.205677749e-03    9.683706611e-02
     5304000000   -4.618716240e-02    9.238885343e-02
     5307000000   -8.845788985e-02    6.807246804e-02
     5310000000   -1.172753572e-01    3.465922549e-02
     5313000000   -1.310030818e-01   -9.401284158e-03
     5316000000   -1.277117878e-01   -5.574859306e-02
     5319000000   -1.091232002e-01   -9.369982779e-02
     5322000000   -7.344719023e-02   -1.249110624e-01
     5325000000   -3.395054117e-02   -1.416351944e-01
     5328000000    1.463601459e-02   -1.404221952e-01
     5331000000    5.480281636e-02   -1.234680042e-01
     5334000000    8.907299489e-02   -9.025895596e-02
     5337000000    1.072645709e-01   -4.964480177e-02
     5340000000    1.095414311e-01   -2.105520340e-03
     5343000000    9.431935102e-02    4.229355231e-02
     5346000000    6.466929615e-02    7.743911445e-02
     5349000000    2.477175370e-02    9.976790845e-02
     5352000000   -2.217851579e-02    1.050734222e-01
     5355000000   -6.226945668e-02    9.472643584e-02
     5358000000   -9.797026962e-02    7.193090767e-02
     5361000000   -1.229320019e-01    3.609126806e-02
     5364000000   -1.312201023e-01   -4.209489562e-03
     5367000000   -1.287994683e-01   -4.333497211e-02
     5370000000   -9.805563837e-02   -9.064678848e-02
     5373000000   -7.623958588e-02   -1.093640402e-01
     5376000000   -2.755648270e-02   -1.228399873e-01
     5379000000    1.810347196e-03   -1.209625825e-01
     5382000000    4.572054744e-02   -9.683962911e-02
     5385000000    7.252534479e-02   -6.714729220e-02
     5388000000    8.440366387e-02   -2.072016522e-02
     5391000000    8.319275081e-02    1.894886605e-02
     5394000000    7.955799997e-02    3.966555744e-02
     5397000000    3.508945927e-02    8.279736340e-02
     5400000000    1.857132593e-04    9.570405632e-02
     5403000000   -3.524463251e-02    9.531582147e-02
     5406000000   -6.546749920e-02    8.414910734e-02
     5409000000   -9.607045352e-02    5.427297950e-02
     5412000000   -1.090880856e-01    2.020616643e-02
     5415000000   -1.088557243e-01   -1.395489369e-02
     5418000000   -9.494362772e-02   -4.953258112e-02
     5421000000   -6.500496715e-02   -7.451217622e-02
     5424000000   -3.167439997e-02   -8.745613694e-02
     5427000000    5.684253760e-03   -8.766134828e-02
     5430000000    3.842297569e-02   -7.432031631e-02
     5433000000    6.782935560e-02   -4.318292812e-02
     5436000000    8.094136417e-02   -6.963479333e-03
     5439000000    8.303415030e-02    2.707275748e-02
     5442000000    6.793445349e-02    6.539906561e-02
     5445000000    3.988714144e-02    9.489945322e-02
     5448000000    3.984128591e-03    1.116752550e-01
     5451000000   -3.858930245e-02    1.121742353e-01
     5454000000   -7.161826640e-02    1.043376327e-01
     5457000000   -1.051575989e-01    7.419662178e-02
     5460000000   -1.246512681e-01    3.976029903e-02
     5463000000   -1.314425319e-01    2.117302647e-04
     5466000000   -1.224149987e-01   -4.165315256e-02
     5469000000   -8.946830034e-02   -8.124706894e-02
     5472000000   -6.555698067e-02   -1.051913872e-01
     5475000000   -1.586223207e-02   -1.143643335e-01
     5478000000    2.679365873e-02   -1.082749367e-01
     5481000000    6.626991183e-02   -8.960205317e-02
     5484000000    9.339840710e-02   -5.983228609e-02
     5487000000    1.074280292e-01   -2.093641646e-02
     5490000000    1.037654802e-01    2.583689429e-02
     5493000000    1.011678949e-01    5.726706237e-02
     5496000000    6.638610363e-02    8.830348402e-02
     5499000000    3.783620149e-02    1.076789200e-01
     5502000000   -5.502298009e-03    1.051647365e-01
     5505000000   -3.928072751e-02    9.928274155e-02
     5508000000   -6.711803377e-02    7.563070953e-02
     5511000000   -8.641007543e-02    4.795071483e-02
     5514000000   -8.671671897e-02    7.865037769e-03
     5517000000   -8.239118010e-02   -2.280176431e-02
     5520000000   -5.108191073e-02   -5.235916749e-02
     5523000000   -2.856107615e-02   -6.912881881e-02
     5526000000    6.476880983e-03   -7.124504447e-02
     5529000000    3.806109354e-02   -6.237207353e-02
     5532000000    6.336446851e-02   -3.619544953e-02
     5535000000    7.748378813e-02   -8.726385422e-03
     5538000000    8.305855840e-02    2.092171460e-02
     5541000000    6.978324801e-02    5.648365244e-02
     5544000000    4.349130020e-02    8.116795868e-02
     5547000000    1.203078404e-02    9.611916542e-02
     5550000000   -3.354481608e-02    9.064342827e-02
     5553000000   -5.799647421e-02    8.694437891e-02
     5556000000   -8.925611526e-02    5.315942317e-02
     5559000000   -1.033505797e-01    1.432045549e-02
     5562000000   -1.088196933e-01   -2.162602544e-02
     5565000000   -9.521058202e-02   -6.444525719e-02
     5568000000   -6.858713180e-02   -9.712010622e-02
     5571000000   -2.889612690e-02   -1.180171594e-01
     5574000000    1.110256184e-02   -1.266905516e-01
     5577000000    5.583595484e-02   -1.185379475e-01
     5580000000    9.356096387e-02   -9.641122818e-02
     5583000000    1.202925593e-01   -5.795991421e-02
     5586000000    1.384060383e-01   -2.051309310e-02
     5589000000    1.291507632e-01    2.882741392e-02
     5592000000    1.153353527e-01    6.912927330e-02
     5595000000    8.728801459e-02    1.031628400e-01
     5598000000    3.797668591e-02    1.155624613e-01
     5601000000   -4.306542687e-03    1.217331588e-01
     5604000000   -4.579165950e-02    1.129123271e-01
     5607000000   -8.008060604e-02    8.557754755e-02
     5610000000   -1.019942388e-01    4.780194536e-02
     5613000000   -1.034268215e-01    4.095816985e-03
     5616000000   -9.903015941e-02   -3.216339275e-02
     5619000000   -7.480942458e-02   -6.693275273e-02
     5622000000   -4.289968312e-02   -8.642620593e-02
     5625000000   -5.193392280e-03   -9.324612468e-02
     5628000000    3.256646171e-02   -7.820604742e-02
     5631000000    6.531237811e-02   -7.292832434e-02
     5634000000    7.965329289e-02   -2.092769928e-02
     5637000000    8.709441870e-02    1.533793751e-02
     5640000000    7.997523248e-02    5.085834861e-02
     5643000000    4.548475146e-02    8.247088641e-02
     5646000000    1.706563495e-02    1.065640971e-01
     5649000000   -2.842027321e-02    1.094987541e-01
     5652000000   -6.934665889e-02    1.062631235e-01
     5655000000   -1.049263701e-01    6.310799718e-02
     5658000000   -1.346035749e-01    3.812846541e-02
     5661000000   -1.461913437e-01   -7.545430679e-03
     5664000000   -1.292812675e-01   -5.771526322e-02
     5667000000   -1.044191122e-01   -9.543098509e-02
     5670000000   -7.996053994e-02   -1.369245648e-01
     5673000000   -2.521473356e-02   -1.457011998e-01
     5676000000    2.487205900e-02   -1.440383792e-01
     5679000000    7.360358536e-02   -1.284749210e-01
     5682000000    1.063295379e-01   -8.311526477e-02
     5685000000    1.393142641e-01   -4.496463388e-02
     5688000000    1.389554888e-01    8.617292158e-03
     5691000000    1.155649126e-01    5.583549663e-02
     5694000000    1.006633416e-01    1.050863415e-01
     5697000000    5.405227467e-02    1.264440566e-01
     5700000000    5.318831187e-03    1.339657009e-01
     5703000000   -4.408622161e-02    1.348944753e-01
     5706000000   -8.626879752e-02    1.080301180e-01
     5709000000   -1.197725311e-01    7.278597355e-02
     5712000000   -1.231559664e-01    2.268874645e-02
     5715000000   -1.201168150e-01   -2.148116380e-02
     5718000000   -1.036959887e-01   -6.757776439e-02
     5721000000   -6.548189372e-02   -9.737341851e-02
     5724000000   -2.041105740e-02   -1.135242656e-01
     5727000000    3.060992062e-02   -1.147270575e-01
     5730000000    7.103795558e-02   -8.510433137e-02
     5733000000    1.042222455e-01   -4.978498816e-02
     5736000000    1.201290488e-01   -1.797621488e-03
     5739000000    1.245289668e-01    4.634108394e-02
     5742000000    1.050965860e-01    9.453769773e-02
     5745000000    6.547607481e-02    1.252891868e-01
     5748000000    2.650682814e-02    1.611340642e-01
     5751000000   -2.536312677e-02    1.459130794e-01
     5754000000   -8.763571084e-02    1.569426060e-01
     5757000000   -1.106658950e-01    1.052552983e-01
     5760000000   -1.501041353e-01    6.637347490e-02
     5763000000   -1.652567536e-01    1.272830460e-02
     5766000000   -1.585610658e-01   -4.142907634e-02
     5769000000   -1.225720197e-01   -8.235105127e-02
     5772000000   -8.138511330e-02   -1.210955232e-01
     5775000000   -2.962876670e-02   -1.301317960e-01
     5778000000    2.569656447e-02   -1.378491521e-01
     5781000000    6.769578904e-02   -1.074519530e-01
     5784000000    1.131988689e-01   -7.202143222e-02
     5787000000    1.275313199e-01   -2.187489346e-02
     5790000000    1.280589849e-01    2.803587355e-02
     5793000000    1.144372970e-01    7.780786604e-02
     5796000000    7.796120644e-02    1.125752181e-01
     5799000000    3.327386826e-02    1.460288912e-01
     5802000000   -1.380330697e-02    1.355141103e-01
     5805000000   -6.505256146e-02    1.248376220e-01
     5808000000   -1.013269573e-01    9.068277478e-02
     5811000000   -1.213981733e-01    4.568563402e-02
     5814000000   -1.371389627e-01   -9.034445509e-03
     5817000000   -1.157656014e-01   -5.587998033e-02
     5820000000   -7.961868495e-02   -9.288676083e-02
     5823000000   -3.637607768e-02   -1.210784093e-01
     5826000000    1.882998832e-02   -1.314098537e-01
     5829000000    7.312055677e-02   -1.235998869e-01
     5832000000    1.190076694e-01   -9.017921984e-02
     5835000000    1.472310573e-01   -4.306415468e-02
     5838000000    1.651123911e-01    1.213775948e-02
     5841000000    1.557306051e-01    6.761527061e-02
     5844000000    1.294585168e-01    1.141855344e-01
     5847000000    8.513978869e-02    1.565386504e-01
     5850000000    3.308136389e-02    1.734079421e-01
     5853000000   -2.520829439e-02    1.737280488e-01
     5856000000   -7.958981395e-02    1.541731209e-01
     5859000000   -1.290218979e-01    1.129007861e-01
     5862000000   -1.519283801e-01    6.205881014e-02
     5865000000   -1.554878950e-01    4.841710441e-03
     5868000000   -1.419853121e-01   -4.826345667e-02
     5871000000   -1.116023734e-01   -1.020062193e-01
     5874000000   -6.298890710e-02   -1.328182518e-01
     5877000000   -1.414702926e-02   -1.394528747e-01
     5880000000    4.914041236e-02   -1.404097229e-01
     5883000000    9.554892778e-02   -1.100731418e-01
     5886000000    1.347551048e-01   -6.588668376e-02
     5889000000    1.404309720e-01   -1.810397208e-02
     5892000000    1.332511604e-01    2.265722677e-02
     5895000000    1.153111011e-01    7.544855773e-02
     5898000000    7.509949803e-02    1.196099818e-01
     5901000000    3.515319526e-02    1.234821305e-01
     5904000000   -2.281454578e-02    1.237494722e-01
     5907000000   -6.436456740e-02    1.006075442e-01
     5910000000   -9.624715149e-02    6.562918425e-02
     5913000000   -1.182572320e-01    1.376319677e-02
     5916000000   -1.151665896e-01   -3.410375118e-02
     5919000000   -9.213969857e-02   -8.034967631e-02
     5922000000   -5.552135780e-02   -1.166816130e-01
     5925000000   -9.393149987e-03   -1.369061768e-01
     5928000000    4.621437937e-02   -1.410788596e-01
     5931000000    9.236273915e-02   -1.205475926e-01
     5934000000    1.390805840e-01   -8.319038898e-02
     5937000000    1.526643336e-01   -3.955556452e-02
     5940000000    1.670731604e-01    2.525854483e-02
     5943000000    1.477767676e-01    6.705077738e-02
     5946000000    1.138683408e-01    1.188801527e-01
     5949000000    6.442695856e-02    1.479785442e-01
     5952000000    2.087984979e-02    1.480899006e-01
     5955000000   -5.427163467e-02    1.477419436e-01
     5958000000   -7.476677746e-02    1.186176911e-01
     5961000000   -1.311470270e-01    6.892345101e-02
     5964000000   -1.396825463e-01    2.385388128e-02
     5967000000   -1.414307803e-01   -4.149077088e-02
     5970000000   -1.169369295e-01   -8.953800797e-02
     5973000000   -7.840748876e-02   -1.253667325e-01
     5976000000   -2.715551108e-02   -1.466801763e-01
     5979000000    1.630161703e-02   -1.460578591e-01
     5982000000    7.022555172e-02   -1.317116469e-01
     5985000000    1.126566008e-01   -9.807015955e-02
     5988000000    1.369600743e-01   -4.927174002e-02
     5991000000    1.429098696e-01    8.022782393e-03
     5994000000    1.243029684e-01    4.782051593e-02
     5997000000    9.019900858e-02    8.976466209e-02
     6000000000    4.440267012e-02    1.127661392e-01
