! NanoVNA-App
! Date: 2026-05-22 19:30:35
! Start: 800MHz Stop: 1.2GHz Points: 401
! S-Parameter data: F S11
# Hz S RI R 50
!     Frequency           S11_Real           S11_Imag
      800000000    4.551463723e-01   -2.033352703e-01
      801000000    4.736698270e-01   -1.408164799e-01
      802000000    4.843522012e-01   -7.728967071e-02
      803000000    4.874793291e-01   -1.273163594e-02
      804000000    4.826871157e-01    5.202085897e-02
      805000000    4.702256322e-01    1.134006381e-01
      806000000    4.509263933e-01    1.725354642e-01
      807000000    4.236235917e-01    2.295904011e-01
      808000000    3.912109733e-01    2.797438800e-01
      809000000    3.515494466e-01    3.271701336e-01
      810000000    3.068516254e-01    3.683028221e-01
      811000000    2.565258741e-01    4.038741589e-01
      812000000    2.048657686e-01    4.309374690e-01
      813000000    1.485054195e-01    4.523968995e-01
      814000000    9.092665464e-02    4.667803943e-01
      815000000    3.264028952e-02    4.727427065e-01
      816000000   -2.601867355e-02    4.713248909e-01
      817000000   -8.318445832e-02    4.636166096e-01
      818000000   -1.383174360e-01    4.487881362e-01
      819000000   -1.908020228e-01    4.264633358e-01
      820000000   -2.400416732e-01    3.980119526e-01
      821000000   -2.854320407e-01    3.638553917e-01
      822000000   -3.242104053e-01    3.243865371e-01
      823000000   -3.583664000e-01    2.807052732e-01
      824000000   -3.864132762e-01    2.319116443e-01
      825000000   -4.090995491e-01    1.805737019e-01
      826000000   -4.241167009e-01    1.279279590e-01
      827000000   -4.327121079e-01    7.276587933e-02
      828000000   -4.341406226e-01    1.721983217e-02
      829000000   -4.300164282e-01   -3.738024086e-02
      830000000   -4.184851050e-01   -9.094290435e-02
      831000000   -4.008396566e-01   -1.420378983e-01
      832000000   -3.771481812e-01   -1.898823231e-01
      833000000   -3.474361897e-01   -2.349796295e-01
      834000000   -3.137738407e-01   -2.747821212e-01
      835000000   -2.746563256e-01   -3.097268343e-01
      836000000   -2.327778488e-01   -3.394934237e-01
      837000000   -1.865809858e-01   -3.634818792e-01
      838000000   -1.388892531e-01   -3.810685873e-01
      839000000   -8.963306248e-02   -3.926690221e-01
      840000000   -4.021203518e-02   -3.976952136e-01
      841000000    1.229743566e-02   -3.973196149e-01
      842000000    6.090652570e-02   -3.901504874e-01
      843000000    1.087830365e-01   -3.769113719e-01
      844000000    1.535753608e-01   -3.584212661e-01
      845000000    1.955715120e-01   -3.344215453e-01
      846000000    2.337583154e-01   -3.056269288e-01
      847000000    2.683540285e-01   -2.718589902e-01
      848000000    2.977315784e-01   -2.347971052e-01
      849000000    3.217662573e-01   -1.954524666e-01
      850000000    3.407168388e-01   -1.517672092e-01
      851000000    3.545027077e-01   -1.077226177e-01
      852000000    3.622974455e-01   -6.257446855e-02
      853000000    3.649596870e-01   -1.653560624e-02
      854000000    3.618482649e-01    2.780701406e-02
      855000000    3.533246815e-01    7.098274678e-02
      856000000    3.395226896e-01    1.116320565e-01
      857000000    3.206967413e-01    1.497776061e-01
      858000000    2.967248261e-01    1.846864223e-01
      859000000    2.684605122e-01    2.155860662e-01
      860000000    2.372694314e-01    2.416224182e-01
      861000000    2.026219517e-01    2.639460862e-01
      862000000    1.648928821e-01    2.810697258e-01
      863000000    1.255154014e-01    2.941782475e-01
      864000000    8.455065638e-02    3.025359511e-01
      865000000    4.418271035e-02    3.054242730e-01
      866000000    3.080501687e-03    3.038450480e-01
      867000000   -3.514376283e-02    2.971794605e-01
      868000000   -7.320925593e-02    2.856976092e-01
      869000000   -1.079519242e-01    2.703137100e-01
      870000000   -1.396406591e-01    2.506935298e-01
      871000000   -1.688396782e-01    2.273654938e-01
      872000000   -1.936978698e-01    2.003608644e-01
      873000000   -2.149632573e-01    1.710089147e-01
      874000000   -2.319256067e-01    1.385545582e-01
      875000000   -2.449847311e-01    1.052909642e-01
      876000000   -2.537893951e-01    7.200177014e-02
      877000000   -2.582128048e-01    3.672049195e-02
      878000000   -2.577011287e-01    3.107408760e-03
      879000000   -2.533480227e-01   -2.837958373e-02
      880000000   -2.438838184e-01   -5.889637396e-02
      881000000   -2.306494117e-01   -8.793345094e-02
      882000000   -2.135855258e-01   -1.135210693e-01
      883000000   -1.938458085e-01   -1.364182532e-01
      884000000   -1.698050946e-01   -1.570939869e-01
      885000000   -1.440981477e-01   -1.741818488e-01
      886000000   -1.167898551e-01   -1.872304082e-01
      887000000   -8.788067102e-02   -1.968731731e-01
      888000000   -5.897813290e-02   -2.019788325e-01
      889000000   -2.963456698e-02   -2.042981386e-01
      890000000   -1.730212825e-03   -2.024445832e-01
      891000000    2.588563040e-02   -1.963130385e-01
      892000000    5.178134888e-02   -1.868517101e-01
      893000000    7.570099831e-02   -1.741866171e-01
      894000000    9.775207937e-02   -1.577889323e-01
      895000000    1.166120023e-01   -1.389302760e-01
      896000000    1.317436695e-01   -1.189395413e-01
      897000000    1.444777250e-01   -9.631560743e-02
      898000000    1.542197615e-01   -7.241484523e-02
      899000000    1.597131342e-01   -4.822876677e-02
      900000000    1.618484259e-01   -2.404017374e-02
      901000000    1.604139805e-01    3.686563578e-04
      902000000    1.558604836e-01    2.363679931e-02
      903000000    1.481268406e-01    4.601240531e-02
      904000000    1.369430721e-01    6.592664868e-02
      905000000    1.233014911e-01    8.397397399e-02
      906000000    1.071841642e-01    9.991874546e-02
      907000000    8.933137357e-02    1.130825728e-01
      908000000    7.037850469e-02    1.224610433e-01
      909000000    4.979486391e-02    1.287127137e-01
      910000000    2.822384238e-02    1.322110742e-01
      911000000    7.193776313e-03    1.320908070e-01
      912000000   -1.325773261e-02    1.287604868e-01
      913000000   -3.299485892e-02    1.217187792e-01
      914000000   -5.186167732e-02    1.118850783e-01
      915000000   -6.847970933e-02    9.925624728e-02
      916000000   -8.336465061e-02    8.377961069e-02
      917000000   -9.518671036e-02    6.676934659e-02
      918000000   -1.042971388e-01    4.695769027e-02
      919000000   -1.103669405e-01    2.583962493e-02
      920000000   -1.136969849e-01    4.099096637e-03
      921000000   -1.137856916e-01   -1.926805265e-02
      922000000   -1.103427410e-01   -4.108029604e-02
      923000000   -1.034996882e-01   -6.273753196e-02
      924000000   -9.397992492e-02   -8.286972344e-02
      925000000   -8.039142936e-02   -1.024399102e-01
      926000000   -6.430527568e-02   -1.192726642e-01
      927000000   -4.581765458e-02   -1.338860393e-01
      928000000   -2.485012636e-02   -1.454490423e-01
      929000000   -2.210815437e-03   -1.534059793e-01
      930000000    2.183187194e-02   -1.584989130e-01
      931000000    4.792599380e-02   -1.600775123e-01
      932000000    7.339781523e-02   -1.577239931e-01
      933000000    9.892360866e-02   -1.516423374e-01
      934000000    1.240908727e-01   -1.421884447e-01
      935000000    1.478995532e-01   -1.286042780e-01
      936000000    1.693769097e-01   -1.121769324e-01
      937000000    1.889191568e-01   -9.147069603e-02
      938000000    2.053489089e-01   -6.772768497e-02
      939000000    2.190156430e-01   -4.121985286e-02
      940000000    2.286363989e-01   -1.351549011e-02
      941000000    2.350018322e-01    1.715934835e-02
      942000000    2.364724874e-01    4.860240221e-02
      943000000    2.349445075e-01    8.080417663e-02
      944000000    2.281349003e-01    1.127078906e-01
      945000000    2.174262255e-01    1.444205493e-01
      946000000    2.016092539e-01    1.755003929e-01
      947000000    1.821597815e-01    2.033780217e-01
      948000000    1.589321196e-01    2.297779620e-01
      949000000    1.315369308e-01    2.521467805e-01
      950000000    1.005369574e-01    2.717015743e-01
      951000000    6.705515832e-02    2.866964340e-01
      952000000    3.062320873e-02    2.973391712e-01
      953000000   -6.781931967e-03    3.032163978e-01
      954000000   -4.733609408e-02    3.042100072e-01
      955000000   -8.749483526e-02    2.996922433e-01
      956000000   -1.280914694e-01    2.899268270e-01
      957000000   -1.678726077e-01    2.751153409e-01
      958000000   -2.065416127e-01    2.547080517e-01
      959000000   -2.432211488e-01    2.292755693e-01
      960000000   -2.776386142e-01    2.000912279e-01
      961000000   -3.077977896e-01    1.650160402e-01
      962000000   -3.338420391e-01    1.271138191e-01
      963000000   -3.555886149e-01    8.542703092e-02
      964000000   -3.721850812e-01    4.100001231e-02
      965000000   -3.828970194e-01   -6.632746197e-03
      966000000   -3.880788684e-01   -5.525470152e-02
      967000000   -3.871480525e-01   -1.045498177e-01
      968000000   -3.798710108e-01   -1.532841027e-01
      969000000   -3.658900261e-01   -2.022220045e-01
      970000000   -3.459241688e-01   -2.497851253e-01
      971000000   -3.208140433e-01   -2.939558923e-01
      972000000   -2.884999216e-01   -3.369312286e-01
      973000000   -2.512581646e-01   -3.741128445e-01
      974000000   -2.091726661e-01   -4.069576561e-01
      975000000   -1.625786424e-01   -4.356667101e-01
      976000000   -1.131025553e-01   -4.568688273e-01
      977000000   -5.958517641e-02   -4.726814032e-01
      978000000   -4.136071075e-03   -4.822337627e-01
      979000000    5.368649215e-02   -4.840924740e-01
      980000000    1.117500514e-01   -4.794288278e-01
      981000000    1.684381664e-01   -4.669156969e-01
      982000000    2.254342437e-01   -4.477274716e-01
      983000000    2.798136175e-01   -4.212301075e-01
      984000000    3.313742578e-01   -3.874632418e-01
      985000000    3.786011636e-01   -3.478127420e-01
      986000000    4.173515141e-01   -2.999085188e-01
      987000000    4.545982182e-01   -2.492472529e-01
      988000000    4.857969284e-01   -1.937467456e-01
      989000000    5.102337599e-01   -1.344466954e-01
      990000000    5.273391008e-01   -7.105562836e-02
      991000000    5.371472239e-01   -6.715558004e-03
      992000000    5.386329293e-01    5.788292736e-02
      993000000    5.321299434e-01    1.260322183e-01
      994000000    5.178902745e-01    1.906030625e-01
      995000000    4.949100912e-01    2.548130453e-01
      996000000    4.644724131e-01    3.151047230e-01
      997000000    4.264037311e-01    3.722109199e-01
      998000000    3.809854686e-01    4.250544906e-01
      999000000    3.299108744e-01    4.717898965e-01
     1000000000    2.726966441e-01    5.129907727e-01
     1001000000    2.097031176e-01    5.474038720e-01
     1002000000    1.430595666e-01    5.747285485e-01
     1003000000    7.392521948e-02    5.922054052e-01
     1004000000    1.179860206e-03    6.018484831e-01
     1005000000   -7.140709460e-02    6.032209396e-01
     1006000000   -1.451265216e-01    5.954179168e-01
     1007000000   -2.182029635e-01    5.783728361e-01
     1008000000   -2.857732773e-01    5.533019900e-01
     1009000000   -3.549539149e-01    5.182862878e-01
     1010000000   -4.168041050e-01    4.766027033e-01
     1011000000   -4.742426574e-01    4.266646206e-01
     1012000000   -5.252654552e-01    3.696826100e-01
     1013000000   -5.695917606e-01    3.062521517e-01
     1014000000   -6.051868796e-01    2.373758107e-01
     1015000000   -6.337838173e-01    1.647600830e-01
     1016000000   -6.528254151e-01    8.866366744e-02
     1017000000   -6.621125340e-01    9.431286715e-03
     1018000000   -6.621949077e-01   -7.048308849e-02
     1019000000   -6.529412866e-01   -1.491343081e-01
     1020000000   -6.339952350e-01   -2.271345258e-01
     1021000000   -6.045358181e-01   -3.047717512e-01
     1022000000   -5.681482553e-01   -3.765582442e-01
     1023000000   -5.201573968e-01   -4.453679621e-01
     1024000000   -4.661765397e-01   -5.060292482e-01
     1025000000   -4.041415751e-01   -5.606928468e-01
     1026000000   -3.354708552e-01   -6.079387069e-01
     1027000000   -2.627561390e-01   -6.474617720e-01
     1028000000   -1.839021742e-01   -6.769416332e-01
     1029000000   -1.021429673e-01   -6.976140141e-01
     1030000000   -1.732283086e-02   -7.080441117e-01
     1031000000    6.757149845e-02   -7.078595161e-01
     1032000000    1.512278765e-01   -6.975876689e-01
     1033000000    2.354929894e-01   -6.756938696e-01
     1034000000    3.152816594e-01   -6.454387903e-01
     1035000000    3.917375803e-01   -6.045457125e-01
     1036000000    4.634609520e-01   -5.543169975e-01
     1037000000    5.283539891e-01   -4.960284829e-01
     1038000000    5.861617327e-01   -4.300570190e-01
     1039000000    6.359135509e-01   -3.586155474e-01
     1040000000    6.774337292e-01   -2.784665525e-01
     1041000000    7.078676224e-01   -1.958405226e-01
     1042000000    7.293913960e-01   -1.091179103e-01
     1043000000    7.396828532e-01   -2.166892402e-02
     1044000000    7.392203212e-01    6.940947473e-02
     1045000000    7.276712060e-01    1.570849121e-01
     1046000000    7.050489783e-01    2.455066293e-01
     1047000000    6.718714833e-01    3.293396533e-01
     1048000000    6.285154819e-01    4.096698165e-01
     1049000000    5.766219497e-01    4.836450219e-01
     1050000000    5.163138509e-01    5.514726639e-01
     1051000000    4.461242855e-01    6.111605763e-01
     1052000000    3.710011840e-01    6.612700224e-01
     1053000000    2.886168361e-01    7.038261294e-01
     1054000000    2.018323690e-01    7.353121638e-01
     1055000000    1.114059165e-01    7.568077445e-01
     1056000000    1.991490833e-02    7.660399079e-01
     1057000000   -7.234501094e-02    7.648099661e-01
     1058000000   -1.658816785e-01    7.522889972e-01
     1059000000   -2.545760274e-01    7.283841372e-01
     1060000000   -3.416075408e-01    6.945335269e-01
     1061000000   -4.244018793e-01    6.487504244e-01
     1062000000   -4.996276498e-01    5.942096710e-01
     1063000000   -5.694753528e-01    5.299307704e-01
     1064000000   -6.310429573e-01    4.569185972e-01
     1065000000   -6.817212105e-01    3.793908954e-01
     1066000000   -7.232486010e-01    2.948529422e-01
     1067000000   -7.551322579e-01    2.049571723e-01
     1068000000   -7.743993998e-01    1.128348559e-01
     1069000000   -7.838796377e-01    1.604257151e-02
     1070000000   -7.810872197e-01   -7.822786272e-02
     1071000000   -7.668790221e-01   -1.718643010e-01
     1072000000   -7.406358719e-01   -2.651074529e-01
     1073000000   -7.042247057e-01   -3.531890213e-01
     1074000000   -6.567537189e-01   -4.363014996e-01
     1075000000   -5.994819403e-01   -5.148162246e-01
     1076000000   -5.325749516e-01   -5.842657089e-01
     1077000000   -4.587912560e-01   -6.451767087e-01
     1078000000   -3.763746917e-01   -6.980504990e-01
     1079000000   -2.915042341e-01   -7.382700443e-01
     1080000000   -1.974527836e-01   -7.694318295e-01
     1081000000   -1.035710424e-01   -7.891597152e-01
     1082000000   -7.308444940e-03   -7.959681153e-01
     1083000000    8.973579109e-02   -7.922010422e-01
     1084000000    1.872377247e-01   -7.748387456e-01
     1085000000    2.786857784e-01   -7.479352355e-01
     1086000000    3.686227798e-01   -7.082630396e-01
     1087000000    4.515942931e-01   -6.588326693e-01
     1088000000    5.291352272e-01   -5.989807248e-01
     1089000000    5.990260839e-01   -5.297707915e-01
     1090000000    6.604208946e-01   -4.519691169e-01
     1091000000    7.100358605e-01   -3.697693646e-01
     1092000000    7.495034337e-01   -2.803664804e-01
     1093000000    7.798912525e-01   -1.878514141e-01
     1094000000    7.971199155e-01   -9.042620659e-02
     1095000000    8.029875159e-01    6.306804251e-03
     1096000000    7.966862321e-01    1.041076407e-01
     1097000000    7.777249217e-01    2.012769133e-01
     1098000000    7.465155721e-01    2.966163456e-01
     1099000000    7.057496905e-01    3.842021227e-01
     1100000000    6.529908180e-01    4.672715068e-01
     1101000000    5.913979411e-01    5.443615913e-01
     1102000000    5.196781158e-01    6.133693457e-01
     1103000000    4.408969879e-01    6.714903116e-01
     1104000000    3.547503650e-01    7.210273743e-01
     1105000000    2.643087506e-01    7.588163614e-01
     1106000000    1.698174328e-01    7.861502171e-01
     1107000000    6.978926063e-02    8.005818725e-01
     1108000000   -2.862387337e-02    8.037074804e-01
     1109000000   -1.275313795e-01    7.937474251e-01
     1110000000   -2.238789350e-01    7.725253701e-01
     1111000000   -3.159221709e-01    7.400845289e-01
     1112000000   -4.048382640e-01    6.957564354e-01
     1113000000   -4.868282676e-01    6.416373849e-01
     1114000000   -5.631906986e-01    5.755933523e-01
     1115000000   -6.277673244e-01    5.049410462e-01
     1116000000   -6.872649193e-01    4.197292924e-01
     1117000000   -7.332867980e-01    3.345418870e-01
     1118000000   -7.686417103e-01    2.426294833e-01
     1119000000   -7.934190631e-01    1.456976384e-01
     1120000000   -8.052546382e-01    4.780435190e-02
     1121000000   -8.041416407e-01   -5.197687820e-02
     1122000000   -7.928854823e-01   -1.507505625e-01
     1123000000   -7.669649720e-01   -2.469935417e-01
     1124000000   -7.320732474e-01   -3.373107612e-01
     1125000000   -6.825453639e-01   -4.284576774e-01
     1126000000   -6.280132532e-01   -5.053657889e-01
     1127000000   -5.596939325e-01   -5.793481469e-01
     1128000000   -4.834371209e-01   -6.448375583e-01
     1129000000   -3.996790946e-01   -7.001153827e-01
     1130000000   -3.122707009e-01   -7.431111336e-01
     1131000000   -2.187003046e-01   -7.751200795e-01
     1132000000   -1.215091348e-01   -7.961369157e-01
     1133000000   -2.259347588e-02   -8.040598035e-01
     1134000000    7.924958318e-02   -7.996472716e-01
     1135000000    1.737660617e-01   -7.838029861e-01
     1136000000    2.709158957e-01   -7.551020980e-01
     1137000000    3.601438403e-01   -7.168690562e-01
     1138000000    4.467858970e-01   -6.651846170e-01
     1139000000    5.255115628e-01   -6.035978794e-01
     1140000000    5.937453508e-01   -5.367774367e-01
     1141000000    6.576799154e-01   -4.548000991e-01
     1142000000    7.076320052e-01   -3.728162944e-01
     1143000000    7.484722733e-01   -2.798196673e-01
     1144000000    7.773483992e-01   -1.841415465e-01
     1145000000    7.939457297e-01   -8.676563948e-02
     1146000000    7.978814244e-01    1.056715380e-02
     1147000000    7.901481986e-01    1.118812934e-01
     1148000000    7.698944807e-01    2.077950686e-01
     1149000000    7.398852110e-01    3.004415035e-01
     1150000000    6.944666505e-01    3.920321167e-01
     1151000000    6.413918138e-01    4.751262665e-01
     1152000000    5.780868530e-01    5.491077304e-01
     1153000000    5.044755340e-01    6.183335185e-01
     1154000000    4.238417149e-01    6.756150126e-01
     1155000000    3.377000690e-01    7.228157520e-01
     1156000000    2.440094203e-01    7.595744133e-01
     1157000000    1.501463354e-01    7.837464213e-01
     1158000000    5.001575127e-02    7.957997322e-01
     1159000000   -4.600358754e-02    7.970259786e-01
     1160000000   -1.458768845e-01    7.842601538e-01
     1161000000   -2.401368618e-01    7.608107328e-01
     1162000000   -3.346257508e-01    7.232326865e-01
     1163000000   -4.197649658e-01    6.774731278e-01
     1164000000   -5.006734729e-01    6.186160445e-01
     1165000000   -5.746185184e-01    5.502154231e-01
     1166000000   -6.373093128e-01    4.753372967e-01
     1167000000   -6.922265291e-01    3.902125955e-01
     1168000000   -7.347465158e-01    3.031567037e-01
     1169000000   -7.668669820e-01    2.085451186e-01
     1170000000   -7.862953544e-01    1.119907126e-01
     1171000000   -7.943122387e-01    1.236011460e-02
     1172000000   -7.890519500e-01   -8.772110194e-02
     1173000000   -7.719696760e-01   -1.836900413e-01
     1174000000   -7.428035736e-01   -2.795350254e-01
     1175000000   -7.024152279e-01   -3.691307306e-01
     1176000000   -6.492614150e-01   -4.546155334e-01
     1177000000   -5.885593295e-01   -5.317122936e-01
     1178000000   -5.172614455e-01   -6.003342867e-01
     1179000000   -4.367183447e-01   -6.618476510e-01
     1180000000   -3.522957563e-01   -7.113830447e-01
     1181000000   -2.607364058e-01   -7.502219677e-01
     1182000000   -1.654914767e-01   -7.768300772e-01
     1183000000   -6.655682623e-02   -7.919439077e-01
     1184000000    3.185632452e-02   -7.948901653e-01
     1185000000    1.315258592e-01   -7.846492529e-01
     1186000000    2.279408425e-01   -7.624722123e-01
     1187000000    3.232332766e-01   -7.275235057e-01
     1188000000    4.103529453e-01   -6.836068630e-01
     1189000000    4.951173961e-01   -6.246280670e-01
     1190000000    5.688285828e-01   -5.611827970e-01
     1191000000    6.353741884e-01   -4.842365384e-01
     1192000000    6.906271577e-01   -4.034166932e-01
     1193000000    7.368224859e-01   -3.130030930e-01
     1194000000    7.705951929e-01   -2.195275724e-01
     1195000000    7.930578589e-01   -1.191294193e-01
     1196000000    8.030988574e-01   -2.106528170e-02
     1197000000    8.003959060e-01    7.882501930e-02
     1198000000    7.851446867e-01    1.784140915e-01
     1199000000    7.584059238e-01    2.753652632e-01
     1200000000    7.195922136e-01    3.659127653e-01
