! NanoVNA-App
! Date: 2026-05-22 17:19:06
! Start: 2.3GHz Stop: 2.6GHz Points: 401
! S-Parameter data: F S11
# Hz S RI R 50
!     Frequency           S11_Real           S11_Imag
     2300000000    4.822973534e-02    6.166791171e-02
     2300750000    4.488121718e-02    6.423860043e-02
     2301500000    4.151410237e-02    6.609995663e-02
     2302250000    3.728714585e-02    6.884631515e-02
     2303000000    3.275713325e-02    7.072943449e-02
     2303750000    2.875484154e-02    7.237379998e-02
     2304500000    2.436087467e-02    7.367689162e-02
     2305250000    1.876605861e-02    7.530200481e-02
     2306000000    1.379952114e-02    7.685239613e-02
     2306750000    8.671630174e-03    7.729344815e-02
     2307500000    3.913850058e-03    7.779067755e-02
     2308250000   -2.673981246e-03    7.826625556e-02
     2309000000   -6.885794457e-03    7.799216360e-02
     2309750000   -1.300411485e-02    7.751964778e-02
     2310500000   -1.903748140e-02    7.646329701e-02
     2311250000   -2.433389425e-02    7.543449849e-02
     2312000000   -3.013943695e-02    7.414977998e-02
     2312750000   -3.488313034e-02    7.293721288e-02
     2313500000   -4.118286073e-02    6.994557381e-02
     2314250000   -4.696998000e-02    6.726002693e-02
     2315000000   -5.259651318e-02    6.426467001e-02
     2315750000   -5.895726755e-02    5.997747928e-02
     2316500000   -6.222426519e-02    5.744340271e-02
     2317250000   -6.722643226e-02    5.265543610e-02
     2318000000   -7.258281112e-02    4.718059674e-02
     2318750000   -7.672918588e-02    4.209427908e-02
     2319500000   -8.068191260e-02    3.749293089e-02
     2320250000   -8.391066641e-02    3.212522343e-02
     2321000000   -8.771318942e-02    2.313483134e-02
     2321750000   -9.026342630e-02    2.003291436e-02
     2322500000   -9.284540266e-02    9.918130003e-03
     2323250000   -9.443456680e-02    2.224885859e-03
     2324000000   -9.687808901e-02   -2.305086935e-03
     2324750000   -9.712273628e-02   -1.187819242e-02
     2325500000   -9.710739553e-02   -2.069528773e-02
     2326250000   -9.698019922e-02   -2.693921328e-02
     2327000000   -9.477405995e-02   -3.726057708e-02
     2327750000   -9.514825791e-02   -4.238156974e-02
     2328500000   -9.009931237e-02   -5.405484885e-02
     2329250000   -8.892980218e-02   -5.954449996e-02
     2330000000   -8.347179741e-02   -6.870446354e-02
     2330750000   -8.025304228e-02   -7.601376623e-02
     2331500000   -7.610236853e-02   -8.248820901e-02
     2332250000   -6.895034760e-02   -9.015761316e-02
     2333000000   -6.196298078e-02   -9.708318859e-02
     2333750000   -5.444702134e-02   -1.035906971e-01
     2334500000   -4.741796851e-02   -1.089234948e-01
     2335250000   -3.904896602e-02   -1.140996814e-01
     2336000000   -2.947718464e-02   -1.182947382e-01
     2336750000   -1.949897222e-02   -1.218739524e-01
     2337500000   -1.044911984e-02   -1.249282286e-01
     2338250000    2.748010447e-04   -1.274983287e-01
     2339000000    1.077645738e-02   -1.286774278e-01
     2339750000    2.157205343e-02   -1.290997267e-01
     2340500000    3.392113373e-02   -1.284544170e-01
     2341250000    4.460137710e-02   -1.274483651e-01
     2342000000    5.513846874e-02   -1.253597438e-01
     2342750000    6.589345634e-02   -1.228543147e-01
     2343500000    7.706905156e-02   -1.187592894e-01
     2344250000    8.814498782e-02   -1.123572215e-01
     2345000000    9.788488597e-02   -1.072234586e-01
     2345750000    1.069201156e-01   -1.021472216e-01
     2346500000    1.169985905e-01   -9.174736589e-02
     2347250000    1.251616925e-01   -8.484527469e-02
     2348000000    1.332217306e-01   -7.351254672e-02
     2348750000    1.412201971e-01   -6.454987824e-02
     2349500000    1.472813338e-01   -5.416346341e-02
     2350250000    1.531193852e-01   -4.251053184e-02
     2351000000    1.575571150e-01   -2.988277189e-02
     2351750000    1.610042751e-01   -1.696442440e-02
     2352500000    1.621316373e-01   -1.710854005e-03
     2353250000    1.653230190e-01    9.254120290e-03
     2354000000    1.654787362e-01    2.223425359e-02
     2354750000    1.632586718e-01    3.811339289e-02
     2355500000    1.632010192e-01    4.990786687e-02
     2356250000    1.566784978e-01    6.656427681e-02
     2357000000    1.535048634e-01    7.834686339e-02
     2357750000    1.479489207e-01    9.220955521e-02
     2358500000    1.408488899e-01    1.055926755e-01
     2359250000    1.337818950e-01    1.179079264e-01
     2360000000    1.211555153e-01    1.308514178e-01
     2360750000    1.129582375e-01    1.419744492e-01
     2361500000    1.014278978e-01    1.521664113e-01
     2362250000    8.825629950e-02    1.621134877e-01
     2363000000    7.621069252e-02    1.709944159e-01
     2363750000    6.142361090e-02    1.785498112e-01
     2364500000    4.699264094e-02    1.850534976e-01
     2365250000    3.149104491e-02    1.905533969e-01
     2366000000    1.638623513e-02    1.942919493e-01
     2366750000   -8.825367549e-04    1.966726780e-01
     2367500000   -1.738041639e-02    1.976526827e-01
     2368250000   -3.413313255e-02    1.970610619e-01
     2369000000   -5.069101602e-02    1.955712587e-01
     2369750000   -6.709870696e-02    1.922726482e-01
     2370500000   -8.351566643e-02    1.876649559e-01
     2371250000   -1.002259105e-01    1.814292669e-01
     2372000000   -1.158587486e-01    1.731106937e-01
     2372750000   -1.312973946e-01    1.637260914e-01
     2373500000   -1.453762650e-01    1.524402946e-01
     2374250000   -1.585115790e-01    1.418983489e-01
     2375000000   -1.709177047e-01    1.287458837e-01
     2375750000   -1.818314493e-01    1.145858467e-01
     2376500000   -1.920410842e-01    9.739498794e-02
     2377250000   -2.015419155e-01    8.265826106e-02
     2378000000   -2.086820900e-01    6.442801654e-02
     2378750000   -2.137941569e-01    4.461836070e-02
     2379500000   -2.190829515e-01    2.752300166e-02
     2380250000   -2.213201076e-01    8.136739954e-03
     2381000000   -2.231405973e-01   -1.050900947e-02
     2381750000   -2.224111706e-01   -3.032253683e-02
     2382500000   -2.196545452e-01   -5.004908144e-02
     2383250000   -2.181233764e-01   -6.792309880e-02
     2384000000   -2.086097896e-01   -8.996574581e-02
     2384750000   -2.040401697e-01   -1.064696833e-01
     2385500000   -1.960143447e-01   -1.241210774e-01
     2386250000   -1.827828884e-01   -1.422660351e-01
     2387000000   -1.724698544e-01   -1.582210511e-01
     2387750000   -1.600440741e-01   -1.733663529e-01
     2388500000   -1.435623467e-01   -1.880101264e-01
     2389250000   -1.291294843e-01   -2.006657273e-01
     2390000000   -1.113829613e-01   -2.116791755e-01
     2390750000   -9.554620832e-02   -2.225212902e-01
     2391500000   -7.336407155e-02   -2.305275202e-01
     2392250000   -5.468738079e-02   -2.370302230e-01
     2393000000   -3.249399737e-02   -2.414444834e-01
     2393750000   -1.316547953e-02   -2.454986721e-01
     2394500000    8.460332640e-03   -2.463238835e-01
     2395250000    3.012447618e-02   -2.459958047e-01
     2396000000    5.174975470e-02   -2.431362718e-01
     2396750000    7.313964516e-02   -2.392950952e-01
     2397500000    9.551560134e-02   -2.310125232e-01
     2398250000    1.157576293e-01   -2.235933989e-01
     2399000000    1.355928928e-01   -2.142415196e-01
     2399750000    1.550715864e-01   -2.023102194e-01
     2400500000    1.742410660e-01   -1.882134825e-01
     2401250000    1.914768368e-01   -1.733730435e-01
     2402000000    2.069887370e-01   -1.564534307e-01
     2402750000    2.213410884e-01   -1.367990822e-01
     2403500000    2.341884524e-01   -1.188745573e-01
     2404250000    2.460394204e-01   -9.878420085e-02
     2405000000    2.552611232e-01   -7.608959079e-02
     2405750000    2.628706098e-01   -5.408763513e-02
     2406500000    2.681854665e-01   -3.110076673e-02
     2407250000    2.707317173e-01   -7.485930808e-03
     2408000000    2.731490433e-01    1.522259414e-02
     2408750000    2.719569802e-01    3.984647617e-02
     2409500000    2.685512900e-01    6.360399723e-02
     2410250000    2.625705898e-01    8.798155189e-02
     2411000000    2.550861239e-01    1.107206568e-01
     2411750000    2.447416633e-01    1.341371238e-01
     2412500000    2.349367440e-01    1.578979194e-01
     2413250000    2.206435651e-01    1.790395826e-01
     2414000000    2.061629146e-01    1.988738477e-01
     2414750000    1.895765811e-01    2.175647318e-01
     2415500000    1.700389236e-01    2.345281094e-01
     2416250000    1.501207352e-01    2.496114075e-01
     2417000000    1.277180016e-01    2.628428936e-01
     2417750000    1.053171754e-01    2.747566998e-01
     2418500000    8.155225962e-02    2.841576636e-01
     2419250000    5.716881901e-02    2.918351889e-01
     2420000000    3.135697916e-02    2.969173789e-01
     2420750000    5.217974540e-03    2.993069291e-01
     2421500000   -2.101812325e-02    2.998497188e-01
     2422250000   -4.675931484e-02    2.981376648e-01
     2423000000   -7.307396829e-02    2.945094705e-01
     2423750000   -9.875239432e-02    2.880599499e-01
     2424500000   -1.242717803e-01    2.801176310e-01
     2425250000   -1.482103318e-01    2.674837112e-01
     2426000000   -1.718577445e-01    2.543401718e-01
     2426750000   -1.936429590e-01    2.393183559e-01
     2427500000   -2.148797363e-01    2.218038589e-01
     2428250000   -2.341300398e-01    2.030931264e-01
     2429000000   -2.513800561e-01    1.825594753e-01
     2429750000   -2.674446404e-01    1.596888751e-01
     2430500000   -2.806556523e-01    1.350283176e-01
     2431250000   -2.925712466e-01    1.115485430e-01
     2432000000   -3.021183312e-01    8.418997377e-02
     2432750000   -3.098909557e-01    5.829044059e-02
     2433500000   -3.140712082e-01    2.943720482e-02
     2434250000   -3.170298636e-01    4.108465277e-03
     2435000000   -3.154819906e-01   -2.651968226e-02
     2435750000   -3.133085072e-01   -5.381050706e-02
     2436500000   -3.071778119e-01   -8.203160763e-02
     2437250000   -3.015138805e-01   -1.077311113e-01
     2438000000   -2.891314328e-01   -1.359830648e-01
     2438750000   -2.786689103e-01   -1.600676626e-01
     2439500000   -2.623801529e-01   -1.854390949e-01
     2440250000   -2.458501607e-01   -2.086950392e-01
     2441000000   -2.253432870e-01   -2.302439809e-01
     2441750000   -2.049104273e-01   -2.499599010e-01
     2442500000   -1.843473017e-01   -2.679401338e-01
     2443250000   -1.600136310e-01   -2.837437689e-01
     2444000000   -1.320737004e-01   -2.971884906e-01
     2444750000   -1.058814377e-01   -3.091461360e-01
     2445500000   -7.782191783e-02   -3.175599873e-01
     2446250000   -4.879563674e-02   -3.236772716e-01
     2447000000   -2.183488756e-02   -3.279547095e-01
     2447750000    7.964568213e-03   -3.296960592e-01
     2448500000    3.828081116e-02   -3.276238143e-01
     2449250000    6.686822325e-02   -3.240048289e-01
     2450000000    9.739128500e-02   -3.163771629e-01
     2450750000    1.247955561e-01   -3.073019087e-01
     2451500000    1.527644396e-01   -2.959980369e-01
     2452250000    1.793179065e-01   -2.815120220e-01
     2453000000    2.045760602e-01   -2.644169331e-01
     2453750000    2.283662409e-01   -2.455627918e-01
     2454500000    2.501172721e-01   -2.248699665e-01
     2455250000    2.701861560e-01   -2.024264485e-01
     2456000000    2.881674170e-01   -1.774905920e-01
     2456750000    3.041329980e-01   -1.505202353e-01
     2457500000    3.171248138e-01   -1.242193580e-01
     2458250000    3.285772502e-01   -9.744934738e-02
     2459000000    3.360831141e-01   -6.516529620e-02
     2459750000    3.414772153e-01   -3.548128158e-02
     2460500000    3.441473842e-01   -5.480267573e-03
     2461250000    3.445276022e-01    2.404578775e-02
     2462000000    3.405047357e-01    5.728401989e-02
     2462750000    3.350910842e-01    8.671687543e-02
     2463500000    3.286582232e-01    1.147778630e-01
     2464250000    3.151142895e-01    1.455688179e-01
     2465000000    3.019629419e-01    1.727070659e-01
     2465750000    2.849902809e-01    2.007209212e-01
     2466500000    2.678656876e-01    2.243519723e-01
     2467250000    2.452748418e-01    2.487078458e-01
     2468000000    2.227136344e-01    2.698090374e-01
     2468750000    1.985965371e-01    2.890354097e-01
     2469500000    1.707279384e-01    3.065590560e-01
     2470250000    1.435296237e-01    3.215665221e-01
     2471000000    1.137683764e-01    3.331595361e-01
     2471750000    8.245006204e-02    3.426848352e-01
     2472500000    5.192396045e-02    3.497439027e-01
     2473250000    1.925164275e-02    3.535310924e-01
     2474000000   -1.241659094e-02    3.552197218e-01
     2474750000   -4.449315369e-02    3.535590470e-01
     2475500000   -7.790447772e-02    3.481772840e-01
     2476250000   -1.084862947e-01    3.410819769e-01
     2477000000   -1.391272247e-01    3.311037719e-01
     2477750000   -1.689924002e-01    3.174377382e-01
     2478500000   -1.977430582e-01    3.023374379e-01
     2479250000   -2.241812050e-01    2.833796144e-01
     2480000000   -2.496896833e-01    2.625953555e-01
     2480750000   -2.728274167e-01    2.404794991e-01
     2481500000   -2.938339710e-01    2.158031762e-01
     2482250000   -3.124845028e-01    1.895630062e-01
     2483000000   -3.287757635e-01    1.605320722e-01
     2483750000   -3.425439894e-01    1.299140602e-01
     2484500000   -3.534618020e-01    9.844651073e-02
     2485250000   -3.615497649e-01    6.697158515e-02
     2486000000   -3.666431904e-01    3.346091136e-02
     2486750000   -3.691838682e-01    2.555519168e-04
     2487500000   -3.686148524e-01   -3.296162188e-02
     2488250000   -3.650273681e-01   -6.654250622e-02
     2489000000   -3.582782447e-01   -9.959699214e-02
     2489750000   -3.496366143e-01   -1.319605708e-01
     2490500000   -3.370905221e-01   -1.628689766e-01
     2491250000   -3.218466640e-01   -1.925991774e-01
     2492000000   -3.052783012e-01   -2.207210064e-01
     2492750000   -2.847908735e-01   -2.475383431e-01
     2493500000   -2.633675635e-01   -2.718013823e-01
     2494250000   -2.367514521e-01   -2.949244976e-01
     2495000000   -2.103972882e-01   -3.150524497e-01
     2495750000   -1.825204045e-01   -3.324106932e-01
     2496500000   -1.503796577e-01   -3.477771580e-01
     2497250000   -1.198793054e-01   -3.595695496e-01
     2498000000   -8.843469620e-02   -3.680520654e-01
     2498750000   -5.551816896e-02   -3.757989109e-01
     2499500000   -1.986834407e-02   -3.787798882e-01
     2500250000    1.388525683e-02   -3.784637451e-01
     2501000000    4.630434141e-02   -3.764175773e-01
     2501750000    8.151213825e-02   -3.698076606e-01
     2502500000    1.140630692e-01   -3.607930541e-01
     2503250000    1.465822309e-01   -3.493118584e-01
     2504000000    1.777874380e-01   -3.343298137e-01
     2504750000    2.067238092e-01   -3.182468414e-01
     2505500000    2.348087877e-01   -2.968844175e-01
     2506250000    2.604888082e-01   -2.744962573e-01
     2507000000    2.858694792e-01   -2.486065775e-01
     2507750000    3.067667782e-01   -2.223901749e-01
     2508500000    3.258461058e-01   -1.936050802e-01
     2509250000    3.428982794e-01   -1.641021818e-01
     2510000000    3.554515839e-01   -1.325147450e-01
     2510750000    3.667546809e-01   -9.801109880e-02
     2511500000    3.740422130e-01   -6.360758096e-02
     2512250000    3.787517846e-01   -3.019569255e-02
     2513000000    3.807322681e-01    4.368275870e-03
     2513750000    3.789757192e-01    3.851443157e-02
     2514500000    3.740989566e-01    7.413378358e-02
     2515250000    3.660582602e-01    1.083424911e-01
     2516000000    3.548635840e-01    1.416993737e-01
     2516750000    3.405893743e-01    1.737158597e-01
     2517500000    3.233954608e-01    2.050754428e-01
     2518250000    3.030056357e-01    2.341804355e-01
     2519000000    2.795198560e-01    2.623604834e-01
     2519750000    2.559104264e-01    2.869780064e-01
     2520500000    2.290895283e-01    3.097226322e-01
     2521250000    1.984566897e-01    3.306436539e-01
     2522000000    1.673327237e-01    3.484484851e-01
     2522750000    1.345977187e-01    3.629204333e-01
     2523500000    1.006206498e-01    3.743802011e-01
     2524250000    6.627348810e-02    3.832849562e-01
     2525000000    3.033811226e-02    3.888982534e-01
     2525750000   -5.778807215e-03    3.915107548e-01
     2526500000   -4.147597402e-02    3.905699849e-01
     2527250000   -7.710060477e-02    3.861986399e-01
     2528000000   -1.126905829e-01    3.782628775e-01
     2528750000   -1.460877955e-01    3.682708740e-01
     2529500000   -1.813444495e-01    3.528564572e-01
     2530250000   -2.114524245e-01    3.378962278e-01
     2531000000   -2.419542223e-01    3.178572357e-01
     2531750000   -2.706784606e-01    2.957614064e-01
     2532500000   -2.962318361e-01    2.711017430e-01
     2533250000   -3.197535276e-01    2.442112118e-01
     2534000000   -3.404488564e-01    2.157076299e-01
     2534750000   -3.591621220e-01    1.831141859e-01
     2535500000   -3.741058707e-01    1.506902874e-01
     2536250000   -3.861014843e-01    1.164267138e-01
     2537000000   -3.950683773e-01    8.106700331e-02
     2537750000   -4.000221193e-01    4.580492899e-02
     2538500000   -4.030482471e-01    9.922295809e-03
     2539250000   -4.017306864e-01   -2.678858861e-02
     2540000000   -3.972063363e-01   -6.303907186e-02
     2540750000   -3.894489706e-01   -9.967872500e-02
     2541500000   -3.786600530e-01   -1.346106231e-01
     2542250000   -3.644460142e-01   -1.690264940e-01
     2543000000   -3.469919860e-01   -2.018714845e-01
     2543750000   -3.269891739e-01   -2.329378724e-01
     2544500000   -3.048148155e-01   -2.619966865e-01
     2545250000   -2.789253294e-01   -2.894827127e-01
     2546000000   -2.502574325e-01   -3.147876561e-01
     2546750000   -2.216337472e-01   -3.362264633e-01
     2547500000   -1.892558485e-01   -3.559758961e-01
     2548250000   -1.547467113e-01   -3.731391430e-01
     2549000000   -1.220391467e-01   -3.853613138e-01
     2549750000   -8.427735418e-02   -3.961837888e-01
     2550500000   -4.828685895e-02   -4.027293324e-01
     2551250000   -9.847071953e-03   -4.059198201e-01
     2552000000    2.593425475e-02   -4.061999619e-01
     2552750000    6.376584619e-02   -4.020295441e-01
     2553500000    1.009343639e-01   -3.956538439e-01
     2554250000    1.374587119e-01   -3.846790195e-01
     2555000000    1.716890782e-01   -3.717808127e-01
     2555750000    2.069820911e-01   -3.547241390e-01
     2556500000    2.390475422e-01   -3.345963657e-01
     2557250000    2.675966620e-01   -3.136646152e-01
     2558000000    2.970257103e-01   -2.869157493e-01
     2558750000    3.217402697e-01   -2.597103417e-01
     2559500000    3.451042175e-01   -2.304391563e-01
     2560250000    3.658015132e-01   -1.972716451e-01
     2561000000    3.827968836e-01   -1.630523652e-01
     2561750000    3.970785737e-01   -1.282049716e-01
     2562500000    4.083421826e-01   -8.939004689e-02
     2563250000    4.146662056e-01   -5.519206077e-02
     2564000000    4.193445146e-01   -1.736871153e-02
     2564750000    4.196180999e-01    2.130834945e-02
     2565500000    4.171582460e-01    5.985451490e-02
     2566250000    4.106984735e-01    9.608914703e-02
     2567000000    4.005280733e-01    1.338047981e-01
     2567750000    3.875759542e-01    1.700035334e-01
     2568500000    3.715063930e-01    2.045363933e-01
     2569250000    3.511541486e-01    2.382186651e-01
     2570000000    3.286586404e-01    2.695723772e-01
     2570750000    3.039892912e-01    2.973969877e-01
     2571500000    2.756046355e-01    3.241544664e-01
     2572250000    2.470387667e-01    3.473889530e-01
     2573000000    2.134563029e-01    3.692082465e-01
     2573750000    1.793442070e-01    3.868448138e-01
     2574500000    1.438416541e-01    4.015603662e-01
     2575250000    1.068273112e-01    4.123944044e-01
     2576000000    6.884743273e-02    4.209367633e-01
     2576750000    3.109532222e-02    4.255076349e-01
     2577500000   -7.624466438e-03    4.265715778e-01
     2578250000   -4.714892805e-02    4.244672358e-01
     2579000000   -8.545787632e-02    4.178778529e-01
     2579750000   -1.235794947e-01    4.082361460e-01
     2580500000   -1.596296430e-01    3.954145014e-01
     2581250000   -1.966479272e-01    3.782920539e-01
     2582000000   -2.294531763e-01    3.593723476e-01
     2582750000   -2.614199519e-01    3.370761573e-01
     2583500000   -2.931035161e-01    3.117067516e-01
     2584250000   -3.192479908e-01    2.845946848e-01
     2585000000   -3.450678289e-01    2.535387278e-01
     2585750000   -3.662034869e-01    2.220436484e-01
     2586500000   -3.864879608e-01    1.863046587e-01
     2587250000   -4.017410278e-01    1.509995162e-01
     2588000000   -4.145118296e-01    1.142047644e-01
     2588750000   -4.233689010e-01    7.505177706e-02
     2589500000   -4.290240407e-01    3.497082740e-02
     2590250000   -4.309492111e-01   -2.608656883e-03
     2591000000   -4.284020364e-01   -4.179726914e-02
     2591750000   -4.240330160e-01   -8.210999519e-02
     2592500000   -4.145716429e-01   -1.205684617e-01
     2593250000   -4.022684991e-01   -1.563373804e-01
     2594000000   -3.856223822e-01   -1.951456964e-01
     2594750000   -3.677254021e-01   -2.273206115e-01
     2595500000   -3.441937864e-01   -2.633567452e-01
     2596250000   -3.195503354e-01   -2.925516963e-01
     2597000000   -2.924842238e-01   -3.200724423e-01
     2597750000   -2.606619895e-01   -3.471119702e-01
     2598500000   -2.296029627e-01   -3.687241971e-01
     2599250000   -1.940386742e-01   -3.897979259e-01
     2600000000   -1.583043188e-01   -4.055084288e-01
