! NanoVNA-App
! Date: 2026-05-22 17:27:32
! Start: 4.8GHz Stop: 6GHz Points: 401
! S-Parameter data: F S11
# Hz S RI R 50
!     Frequency           S11_Real           S11_Imag
     4800000000   -7.589473575e-02   -1.970998645e-01
     4803000000    2.993298462e-03   -2.119633406e-01
     4806000000    7.571979612e-02   -1.920059025e-01
     4809000000    1.418028176e-01   -1.503559947e-01
     4812000000    1.762823313e-01   -8.752354234e-02
     4815000000    1.992619187e-01   -1.487316098e-02
     4818000000    1.860497594e-01    5.346513912e-02
              0    3.040134907e-01   -1.937481947e-02
              0    3.056261837e-01   -1.855306514e-02
              0    3.072267771e-01   -1.593444310e-02
              0    3.084468842e-01   -1.480796840e-02
              0    3.102878928e-01   -1.326019783e-02
              0    3.117048144e-01   -1.139963511e-02
              0    3.135597408e-01   -1.006575301e-02
              0    3.148523569e-01   -8.054571226e-03
     4845000000   -1.463922709e-01   -6.695295870e-02
     4848000000   -1.102022752e-01   -1.152450889e-01
     4851000000   -6.043811888e-02   -1.413794160e-01
     4854000000   -6.058332510e-03   -1.493014097e-01
     4857000000    5.229602754e-02   -1.435589939e-01
     4860000000    8.963674307e-02   -1.106627062e-01
     4863000000    1.188390851e-01   -6.939952075e-02
     4866000000    1.336646974e-01   -2.162600495e-02
     4869000000    1.210979819e-01    1.992661133e-02
     4872000000    1.038823947e-01    6.254744530e-02
     4875000000    7.203598320e-02    9.603324533e-02
     4878000000    3.270769119e-02    1.082414985e-01
     4881000000   -7.293274160e-03    1.063172594e-01
     4884000000   -4.456884414e-02    9.407149255e-02
     4887000000   -7.345782220e-02    6.801946461e-02
     4890000000   -8.670445532e-02    3.698607907e-02
     4893000000   -9.119054675e-02    2.668346511e-03
     4896000000   -8.011478931e-02   -2.683570795e-02
     4899000000   -6.155475602e-02   -5.185296386e-02
     4902000000   -3.752333671e-02   -6.593095511e-02
     4905000000   -1.047301758e-02   -7.005375624e-02
     4908000000    1.377232838e-02   -6.462110579e-02
     4911000000    3.279590234e-02   -5.102145672e-02
     4914000000    4.381323606e-02   -3.285378218e-02
     4917000000    5.159641802e-02   -1.225330774e-02
     4920000000    4.722061008e-02    6.175082177e-03
     4923000000    3.828221560e-02    2.348295785e-02
     4926000000    2.597371675e-02    2.970131673e-02
     4929000000    1.138718706e-02    3.357228637e-02
     4932000000   -2.025857568e-03    3.252921253e-02
     4935000000   -7.374531589e-03    2.496059239e-02
     4938000000   -1.779114082e-02    1.638007723e-02
     4941000000   -1.668288000e-02    8.291427046e-03
     4944000000   -9.581825696e-03    6.399535574e-03
     4947000000   -1.057591476e-02   -4.880591761e-03
     4950000000   -3.937997390e-03    2.252762439e-03
     4953000000   -1.147925854e-03   -1.885649282e-03
     4956000000   -2.157362411e-03    3.693878651e-03
     4959000000   -1.287160558e-03    4.717134405e-03
     4962000000   -4.945394583e-03    7.090584375e-03
     4965000000   -1.116438117e-02    6.733012386e-03
     4968000000   -1.697974280e-02    4.838436376e-03
     4971000000   -2.078120783e-02   -4.507984035e-03
     4974000000   -2.176107094e-02   -1.150655467e-02
     4977000000   -1.841558330e-02   -2.363293618e-02
     4980000000   -1.003108453e-02   -3.303698078e-02
     4983000000    3.675188636e-03   -3.846798837e-02
     4986000000    1.538572740e-02   -3.806223720e-02
     4989000000    2.925246768e-02   -3.230269998e-02
     4992000000    4.367080703e-02   -2.039419115e-02
     4995000000    4.901134223e-02   -7.485651411e-03
     4998000000    5.192956328e-02    1.664373465e-02
     5001000000    4.370821640e-02    3.996781260e-02
     5004000000    3.105952963e-02    5.215106159e-02
     5007000000    4.242456984e-03    6.820033491e-02
     5010000000   -2.013111487e-02    6.893994659e-02
     5013000000   -4.282604530e-02    6.054572389e-02
     5016000000   -6.604589522e-02    4.403601587e-02
     5019000000   -8.015987277e-02    2.013446391e-02
     5022000000   -8.705623448e-02   -1.621048525e-02
     5025000000   -7.972675562e-02   -4.175992310e-02
     5028000000   -6.168783456e-02   -7.079863548e-02
     5031000000   -3.171179444e-02   -9.318116307e-02
     5034000000    2.163040219e-03   -1.012678593e-01
     5037000000    4.236977175e-02   -9.715978801e-02
     5040000000    7.544461638e-02   -7.765545696e-02
     5043000000    1.002423167e-01   -5.029399693e-02
     5046000000    1.149473563e-01   -9.032285772e-03
     5049000000    1.139010862e-01    3.591269627e-02
     5052000000    9.888449311e-02    7.459325343e-02
     5055000000    6.783974171e-02    1.091150865e-01
     5058000000    2.286229655e-02    1.299234480e-01
     5061000000   -2.271756344e-02    1.348615885e-01
     5064000000   -6.942122430e-02    1.222867221e-01
     5067000000   -1.118008122e-01    8.969189972e-02
     5070000000   -1.374547035e-01    4.898869246e-02
     5073000000   -1.473952532e-01   -3.425286151e-03
     5076000000   -1.366718709e-01   -5.676312372e-02
     5079000000   -1.089963913e-01   -1.028667316e-01
     5082000000   -6.340971589e-02   -1.367743313e-01
     5085000000   -9.096027352e-03   -1.542199403e-01
     5088000000    4.671530426e-02   -1.492723823e-01
     5091000000    1.002144217e-01   -1.264651716e-01
     5094000000    1.405016184e-01   -8.237329870e-02
     5097000000    1.652321368e-01   -2.846604027e-02
     5100000000    1.658051312e-01    3.377745301e-02
     5103000000    1.444840133e-01    9.106577933e-02
     5106000000    1.100223809e-01    1.372309029e-01
     5109000000    4.843949899e-02    1.654965729e-01
     5112000000   -1.280677039e-02    1.760458946e-01
     5115000000   -7.709753513e-02    1.605161726e-01
     5118000000   -1.307674944e-01    1.277895123e-01
     5121000000   -1.689943522e-01    7.094229758e-02
     5124000000   -1.826430410e-01    3.263779683e-03
     5127000000   -1.738765836e-01   -6.445925683e-02
     5130000000   -1.452236921e-01   -1.245916411e-01
     5133000000   -8.968099207e-02   -1.680329442e-01
     5136000000   -2.579223923e-02   -1.935056001e-01
     5139000000    4.722287878e-02   -1.878572106e-01
     5142000000    1.104982346e-01   -1.624210924e-01
     5145000000    1.628103107e-01   -1.102819070e-01
     5148000000    1.937499344e-01   -4.518372566e-02
     5151000000    1.974717379e-01    2.907782421e-02
     5154000000    1.750806868e-01    1.001028717e-01
     5157000000    1.270245314e-01    1.573563665e-01
     5160000000    6.275320053e-02    1.968173087e-01
     5163000000   -1.068887580e-02    2.100957781e-01
     5166000000   -8.672035486e-02    1.949724853e-01
     5169000000   -1.548568159e-01    1.571782827e-01
     5172000000   -1.966153979e-01    8.738976717e-02
     5175000000   -2.190284729e-01    1.480017975e-02
     5178000000   -2.152376473e-01   -6.510648876e-02
     5181000000   -1.790974587e-01   -1.354585141e-01
     5184000000   -1.238029525e-01   -1.952195168e-01
     5187000000   -4.719780758e-02   -2.223895043e-01
     5190000000    3.586895391e-02   -2.222724706e-01
     5193000000    1.151578873e-01   -2.018933147e-01
     5196000000    1.809228510e-01   -1.505446136e-01
     5199000000    2.141724676e-01   -7.224677503e-02
     5202000000    2.308584899e-01    6.640674546e-03
     5205000000    2.155288756e-01    8.931277692e-02
     5208000000    1.693879515e-01    1.574342400e-01
     5211000000    1.028846353e-01    2.097035050e-01
     5214000000    2.503090166e-02    2.289963663e-01
     5217000000   -5.949764699e-02    2.271145880e-01
     5220000000   -1.351724416e-01    1.900446415e-01
     5223000000   -1.929134130e-01    1.297414005e-01
     5226000000   -2.269433439e-01    5.283041671e-02
     5229000000   -2.310187221e-01   -2.929547057e-02
     5232000000   -2.046469003e-01   -1.091419980e-01
     5235000000   -1.552082896e-01   -1.747133732e-01
     5238000000   -8.354545385e-02   -2.185190320e-01
     5241000000   -5.924028810e-03   -2.272206247e-01
     5244000000    7.727371901e-02   -2.136924416e-01
     5247000000    1.446447968e-01   -1.723697037e-01
     5250000000    1.976572275e-01   -1.087663546e-01
     5253000000    2.315017432e-01   -3.015780263e-02
     5256000000    2.132911086e-01    4.219362885e-02
     5259000000    1.838132739e-01    1.147940978e-01
     5262000000    1.302290857e-01    1.775430590e-01
     5265000000    5.960147083e-02    1.970579922e-01
     5268000000   -1.896113902e-02    2.132559866e-01
     5271000000   -8.401200920e-02    1.820566803e-01
     5274000000   -1.581278890e-01    1.414691657e-01
     5277000000   -1.895592809e-01    7.761617005e-02
     5280000000   -2.032600343e-01    3.622647375e-03
     5283000000   -1.925160736e-01   -6.716781110e-02
     5286000000   -1.534111202e-01   -1.295213550e-01
     5289000000   -9.789580107e-02   -1.672816575e-01
     5292000000   -3.073137999e-02   -1.926496178e-01
     5295000000    3.904272243e-02   -1.849599481e-01
     5298000000    9.858811647e-02   -1.546382904e-01
     5301000000    1.468989402e-01   -1.078962237e-01
     5304000000    1.736288816e-01   -4.680301622e-02
     5307000000    1.755616814e-01    2.028808929e-02
     5310000000    1.558178067e-01    8.015137166e-02
     5313000000    1.124900505e-01    1.315118670e-01
     5316000000    5.956270546e-02    1.592007875e-01
     5319000000   -1.593679772e-03    1.669469029e-01
     5322000000   -6.241542846e-02    1.538430154e-01
     5325000000   -1.132586822e-01    1.207825914e-01
     5328000000   -1.511601210e-01    6.860171258e-02
     5331000000   -1.562059075e-01    1.799634658e-02
     5334000000   -1.505426317e-01   -4.199718311e-02
     5337000000   -1.224844083e-01   -9.435599297e-02
     5340000000   -7.774489373e-02   -1.268387735e-01
     5343000000   -2.728620917e-02   -1.484463662e-01
     5346000000    1.906850189e-02   -1.414473653e-01
     5349000000    7.171908766e-02   -1.218799055e-01
     5352000000    1.127385721e-01   -8.661516011e-02
     5355000000    1.405626684e-01   -3.485310450e-02
     5358000000    1.322544664e-01    5.287130480e-04
     5361000000    1.242506355e-01    6.881380081e-02
     5364000000    9.455247968e-02    8.609630913e-02
     5367000000    5.263889953e-02    1.181329563e-01
     5370000000    7.589193527e-03    1.254437715e-01
     5373000000   -4.037149996e-02    1.161524206e-01
     5376000000   -8.289552480e-02    9.109955281e-02
     5379000000   -1.058081985e-01    5.482328311e-02
     5382000000   -1.098361611e-01    1.459117327e-02
     5385000000   -1.138306633e-01   -4.568074271e-02
     5388000000   -8.954752982e-02   -6.193993986e-02
     5391000000   -4.963523895e-02   -1.121411547e-01
     5394000000   -2.031869814e-02   -1.037915051e-01
     5397000000    1.048104279e-02   -9.991758317e-02
     5400000000    4.654623568e-02   -8.728065342e-02
     5403000000    7.825867832e-02   -6.106590480e-02
     5406000000    9.017027915e-02   -3.210587427e-02
     5409000000    9.497239441e-02    5.754787941e-03
     5412000000    8.421783149e-02    2.974664047e-02
     5415000000    6.072384492e-02    6.065064669e-02
     5418000000    4.077142850e-02    6.980364770e-02
     5421000000    5.216628313e-03    7.820861787e-02
     5424000000   -1.154549606e-02    7.396057248e-02
     5427000000   -5.144174024e-02    5.071580037e-02
     5430000000   -6.208870187e-02    3.131908178e-02
     5433000000   -6.317994744e-02    1.208977867e-02
     5436000000   -6.143556535e-02   -1.463586930e-02
     5439000000   -4.938194156e-02   -3.433807567e-02
     5442000000   -3.722982481e-02   -4.252029955e-02
     5445000000   -6.185724400e-03   -5.739866197e-02
     5448000000    5.197663326e-03   -5.275629088e-02
     5451000000    2.114579454e-02   -4.461632296e-02
     5454000000    4.284873977e-02   -2.397431992e-02
     5457000000    3.932910040e-02   -1.307177637e-02
     5460000000    3.897078708e-02    5.847127177e-03
     5463000000    3.077264689e-02    1.704764180e-02
     5466000000    1.966731995e-02    2.575275674e-02
     5469000000    1.055272855e-02    2.867973037e-02
     5472000000   -2.670141635e-03    2.640668303e-02
     5475000000   -1.718483120e-02    2.061629668e-02
     5478000000   -1.120783109e-02    2.031798661e-02
     5481000000   -2.083893679e-02    8.440495003e-04
     5484000000   -1.619980112e-02   -2.220429247e-03
     5487000000   -1.145689934e-02   -1.017369051e-02
     5490000000   -5.058459006e-03   -1.126192510e-02
     5493000000   -2.849922050e-03   -7.291327696e-03
     5496000000    8.947280236e-03   -5.173550453e-03
     5499000000    7.026873063e-03    1.672455983e-04
     5502000000    1.408830937e-02    1.029787865e-02
     5505000000    7.036105730e-03    1.124210283e-02
     5508000000    9.188985568e-04    1.935513318e-02
     5511000000   -3.802648280e-03    5.028389394e-03
     5514000000   -1.028695237e-02    6.720512640e-03
     5517000000   -1.494681649e-02    2.165541286e-03
     5520000000   -1.288021170e-02   -7.131924853e-03
     5523000000   -6.310854573e-03   -1.364649367e-02
     5526000000   -4.111011047e-03   -1.892013475e-02
     5529000000    2.004007809e-03   -2.230014652e-02
     5532000000    1.521682739e-02   -3.212410258e-03
     5535000000    2.180037834e-02   -1.322952379e-02
     5538000000    3.230020404e-02   -7.712748833e-03
     5541000000    2.852713130e-02    9.689061902e-03
     5544000000    2.459562570e-02    2.208808251e-02
     5547000000    3.780020634e-03    2.991167642e-02
     5550000000    1.646046177e-03    4.136429727e-02
     5553000000   -2.374195680e-02    2.620873228e-02
     5556000000   -3.000936098e-02    3.498239815e-02
     5559000000   -4.243203998e-02    1.520321984e-02
     5562000000   -4.900547117e-02   -1.044251607e-03
     5565000000   -4.753771797e-02   -1.978187263e-02
     5568000000   -3.610723466e-02   -3.816012666e-02
     5571000000   -2.228854410e-02   -5.194639787e-02
     5574000000   -1.236628974e-03   -5.876365304e-02
     5577000000    2.596475556e-02   -5.430483073e-02
     5580000000    4.495799541e-02   -4.489703476e-02
     5583000000    6.332452595e-02   -2.355432324e-02
     5586000000    7.559204847e-02   -6.951959804e-03
     5589000000    6.854151189e-02    2.995460853e-02
     5592000000    6.596979499e-02    5.262753740e-02
     5595000000    4.260619730e-02    7.481332868e-02
     5598000000    1.291402709e-02    8.972901106e-02
     5601000000   -2.750317752e-02    8.146083355e-02
     5604000000   -5.608806387e-02    7.729804516e-02
     5607000000   -8.243203163e-02    4.700789601e-02
     5610000000   -9.905754030e-02    1.951271482e-02
     5613000000   -1.047140062e-01   -1.843016781e-02
     5616000000   -9.182646126e-02   -5.735352263e-02
     5619000000   -6.573133916e-02   -8.989872783e-02
     5622000000   -3.452339768e-02   -1.161346212e-01
     5625000000    1.339877024e-02   -1.161192432e-01
     5628000000    5.631634593e-02   -1.097487956e-01
     5631000000    9.461012483e-02   -9.494154155e-02
     5634000000    1.160275489e-01   -4.213983938e-02
     5637000000    1.330318898e-01    6.768087042e-04
     5640000000    1.286920905e-01    4.766685888e-02
     5643000000    1.029399335e-01    9.209294617e-02
     5646000000    6.851203740e-02    1.303807795e-01
     5649000000    1.039803121e-02    1.384624392e-01
     5652000000   -3.987038508e-02    1.548586637e-01
     5655000000   -9.118352830e-02    1.181566864e-01
     5658000000   -1.355274767e-01    8.214914799e-02
     5661000000   -1.524244547e-01    2.681972086e-02
     5664000000   -1.574920416e-01   -3.225534782e-02
     5667000000   -1.419121772e-01   -9.032935649e-02
     5670000000   -1.029183790e-01   -1.381120086e-01
     5673000000   -4.539258406e-02   -1.710222363e-01
     5676000000    2.248362079e-02   -1.768330187e-01
     5679000000    8.345583081e-02   -1.553526670e-01
     5682000000    1.454346180e-01   -1.223264784e-01
     5685000000    1.773980707e-01   -6.115979701e-02
     5688000000    1.975330412e-01    6.314236671e-03
     5691000000    1.820709258e-01    7.859916240e-02
     5694000000    1.450949162e-01    1.421983540e-01
     5697000000    8.524164557e-02    1.880316138e-01
     5700000000    1.167235244e-02    2.044375092e-01
     5703000000   -6.524897367e-02    2.003240138e-01
     5706000000   -1.355783641e-01    1.647232920e-01
     5709000000   -1.954648495e-01    1.083621904e-01
     5712000000   -2.180653214e-01    3.045842238e-02
     5715000000   -2.234555334e-01   -5.404756591e-02
     5718000000   -1.880637556e-01   -1.323617101e-01
     5721000000   -1.313913316e-01   -1.972327679e-01
     5724000000   -5.344349518e-02   -2.323202491e-01
     5727000000    3.595921025e-02   -2.411741167e-01
     5730000000    1.217321903e-01   -2.153123915e-01
     5733000000    1.940316409e-01   -1.580882967e-01
     5736000000    2.380368412e-01   -7.838300616e-02
     5739000000    2.593216598e-01    1.457236055e-02
     5742000000    2.405138016e-01    1.104369909e-01
     5745000000    1.856364906e-01    1.943981349e-01
     5748000000    1.076480448e-01    2.589220405e-01
     5751000000    9.437218308e-03    2.712172568e-01
     5754000000   -9.637636691e-02    2.685339451e-01
     5757000000   -1.721457094e-01    2.102566361e-01
     5760000000   -2.535718083e-01    1.335316151e-01
     5763000000   -2.762920856e-01    4.311356694e-02
     5766000000   -2.898471653e-01   -7.565583289e-02
     5769000000   -2.445840836e-01   -1.799809635e-01
     5772000000   -1.646901369e-01   -2.535802722e-01
     5775000000   -6.434450299e-02   -3.003186584e-01
     5778000000    4.578901455e-02   -3.047110736e-01
     5781000000    1.654122472e-01   -2.738207579e-01
     5784000000    2.434566021e-01   -1.972543150e-01
     5787000000    3.117953837e-01   -9.349182248e-02
     5790000000    3.262068033e-01    2.191632055e-02
     5793000000    3.002614677e-01    1.389484406e-01
     5796000000    2.317383885e-01    2.500690818e-01
     5799000000    1.319937408e-01    3.124333024e-01
     5802000000    1.074784528e-02    3.427444696e-01
     5805000000   -1.106920913e-01    3.242167532e-01
     5808000000   -2.291061282e-01    2.672390342e-01
     5811000000   -3.128465116e-01    1.675505936e-01
     5814000000   -3.581888676e-01    4.383849725e-02
     5817000000   -3.524338603e-01   -8.873078227e-02
     5820000000   -2.964830101e-01   -2.024390101e-01
     5823000000   -2.036514431e-01   -3.025923669e-01
     5826000000   -8.087107539e-02   -3.609698415e-01
     5829000000    5.932037905e-02   -3.717557490e-01
     5832000000    1.908049583e-01   -3.251240253e-01
     5835000000    2.923844755e-01   -2.363971323e-01
     5838000000    3.590507209e-01   -1.190474704e-01
     5841000000    3.860005438e-01    3.225305304e-02
     5844000000    3.501611352e-01    1.442191005e-01
     5847000000    2.683953941e-01    2.956237495e-01
     5850000000    1.558116823e-01    3.578805029e-01
     5853000000    6.249134429e-03    4.002587795e-01
     5856000000   -1.275210381e-01    3.745248318e-01
     5859000000   -2.622353435e-01    3.051903248e-01
     5862000000   -3.584493995e-01    1.902173460e-01
     5865000000   -4.041031897e-01    4.907353595e-02
     5868000000   -3.937401474e-01   -1.008204669e-01
     5871000000   -3.310359418e-01   -2.538239658e-01
     5874000000   -2.181071490e-01   -3.608089089e-01
     5877000000   -8.130133897e-02   -4.130112529e-01
     5880000000    7.954890281e-02   -4.173550606e-01
     5883000000    2.246626765e-01   -3.622818291e-01
     5886000000    3.491818607e-01   -2.538066208e-01
     5889000000    4.184594750e-01   -1.127356365e-01
     5892000000    4.272013903e-01    1.047598757e-02
     5895000000    3.946641088e-01    1.935158074e-01
     5898000000    2.883603871e-01    3.431897759e-01
     5901000000    1.755381227e-01    4.013743103e-01
     5904000000    4.282489419e-03    4.453856349e-01
     5907000000   -1.772773415e-01    4.186486006e-01
     5910000000   -3.004530966e-01    3.360897601e-01
     5913000000   -4.085953832e-01    1.978160739e-01
     5916000000   -4.539794922e-01    4.989779368e-02
     5919000000   -4.410300851e-01   -1.296302974e-01
     5922000000   -3.593111038e-01   -2.958772480e-01
     5925000000   -2.371522784e-01   -4.054729044e-01
     5928000000   -7.846850157e-02   -4.652675688e-01
     5931000000    1.126167327e-01   -4.627888799e-01
     5934000000    2.563371062e-01   -4.004782736e-01
     5937000000    3.925312459e-01   -2.785892785e-01
     5940000000    4.700286388e-01   -1.160353795e-01
     5943000000    4.844973385e-01    5.892267078e-02
     5946000000    4.345450699e-01    2.224588394e-01
     5949000000    3.076519072e-01    3.897195756e-01
     5952000000    1.687654555e-01    4.645043015e-01
     5955000000   -8.755899034e-03    4.978128374e-01
     5958000000   -2.021974176e-01    4.582179189e-01
     5961000000   -3.505782783e-01    3.604655862e-01
     5964000000   -4.652770460e-01    2.012239993e-01
     5967000000   -5.008080602e-01    6.443620473e-02
     5970000000   -4.810315669e-01   -1.688667685e-01
     5973000000   -3.825807273e-01   -3.442221284e-01
     5976000000   -2.707045972e-01   -4.371168017e-01
     5979000000   -6.097159907e-02   -5.142540336e-01
     5982000000    1.233555675e-01   -5.032408834e-01
     5985000000    3.050356805e-01   -4.235076904e-01
     5988000000    4.360277355e-01   -2.926172614e-01
     5991000000    5.120886564e-01   -1.280847937e-01
     5994000000    5.226604939e-01    8.164281398e-02
     5997000000    4.661309719e-01    2.598817945e-01
     6000000000    3.395064473e-01    4.123277664e-01
