! NanoVNA-App
! Date: 2026-05-22 17:27:46
! Start: 2.3GHz Stop: 2.6GHz Points: 401
! S-Parameter data: F S11
# Hz S RI R 50
!     Frequency           S11_Real           S11_Imag
     2300000000   -8.158837259e-02    1.077196449e-01
     2300750000   -8.907175064e-02    1.001800820e-01
     2301500000   -9.579887986e-02    9.182251245e-02
     2302250000   -1.027444378e-01    8.322948962e-02
     2303000000   -1.077752635e-01    7.343056798e-02
     2303750000   -1.130340993e-01    6.450618804e-02
     2304500000   -1.166669875e-01    5.488507450e-02
     2305250000   -1.195565090e-01    4.484171420e-02
     2306000000   -1.221818477e-01    3.488888964e-02
     2306750000   -1.256281883e-01    2.458058670e-02
     2307500000   -1.251423955e-01    1.484427601e-02
     2308250000   -1.261353344e-01    4.256528337e-03
     2309000000   -1.248080060e-01   -5.891466513e-03
     2309750000   -1.232842654e-01   -1.560702641e-02
     2310500000   -1.219929457e-01   -2.580039203e-02
     2311250000   -1.180065274e-01   -3.434307873e-02
     2312000000   -1.146553606e-01   -4.315770417e-02
     2312750000   -1.105862632e-01   -5.227626115e-02
     2313500000   -1.053600758e-01   -6.017750502e-02
     2314250000   -1.004046500e-01   -6.827192008e-02
     2315000000   -9.407521784e-02   -7.568610460e-02
     2315750000   -8.782315999e-02   -8.284254372e-02
     2316500000   -8.074014634e-02   -8.823649585e-02
     2317250000   -7.360904664e-02   -9.521856159e-02
     2318000000   -6.545651704e-02   -9.925244749e-02
     2318750000   -5.764263496e-02   -1.041311920e-01
     2319500000   -4.895162582e-02   -1.083219796e-01
     2320250000   -4.053056985e-02   -1.120962501e-01
     2321000000   -3.201411664e-02   -1.136430055e-01
     2321750000   -2.351064049e-02   -1.146352440e-01
     2322500000   -1.509545650e-02   -1.159860343e-01
     2323250000   -5.933532491e-03   -1.169786602e-01
     2324000000    2.198448405e-03   -1.160084903e-01
     2324750000    1.033789944e-02   -1.150940135e-01
     2325500000    1.914249361e-02   -1.134532541e-01
     2326250000    2.861105092e-02   -1.115570366e-01
     2327000000    3.671221063e-02   -1.087844744e-01
     2327750000    4.459287599e-02   -1.052943468e-01
     2328500000    5.254052952e-02   -1.020578668e-01
     2329250000    5.874841660e-02   -9.715088457e-02
     2330000000    6.616809964e-02   -9.275589883e-02
     2330750000    7.280476391e-02   -8.726042509e-02
     2331500000    7.895455509e-02   -8.123874664e-02
     2332250000    8.374009281e-02   -7.514683902e-02
     2333000000    9.123409539e-02   -6.828001142e-02
     2333750000    9.647811204e-02   -6.106870249e-02
     2334500000    9.944216907e-02   -5.409165099e-02
     2335250000    1.028685942e-01   -4.694580287e-02
     2336000000    1.063639224e-01   -3.888345510e-02
     2336750000    1.089446619e-01   -3.086580336e-02
     2337500000    1.114211977e-01   -2.266406640e-02
     2338250000    1.126871184e-01   -1.418892387e-02
     2339000000    1.135601103e-01   -6.528514437e-03
     2339750000    1.139271557e-01    1.957699424e-03
     2340500000    1.140592322e-01    1.048068237e-02
     2341250000    1.127396449e-01    1.745732501e-02
     2342000000    1.115352958e-01    2.603582293e-02
     2342750000    1.094389558e-01    3.299454600e-02
     2343500000    1.073391810e-01    4.147823900e-02
     2344250000    1.041688249e-01    4.963649437e-02
     2345000000    1.001312137e-01    5.702888593e-02
     2345750000    9.561681747e-02    6.331530958e-02
     2346500000    9.026418626e-02    7.209636271e-02
     2347250000    8.589816093e-02    7.600088418e-02
     2348000000    7.986132801e-02    8.206160367e-02
     2348750000    7.235774398e-02    8.999058604e-02
     2349500000    6.714665890e-02    9.310033172e-02
     2350250000    5.978651345e-02    9.848637134e-02
     2351000000    5.165601149e-02    1.038154885e-01
     2351750000    4.521608353e-02    1.058650911e-01
     2352500000    3.456792980e-02    1.113778874e-01
     2353250000    2.724286541e-02    1.131031960e-01
     2354000000    2.031916752e-02    1.143165156e-01
     2354750000    8.874009363e-03    1.167510003e-01
     2355500000    2.424476435e-03    1.173788384e-01
     2356250000   -7.053378504e-03    1.168321595e-01
     2357000000   -1.623654552e-02    1.163465381e-01
     2357750000   -2.523058653e-02    1.153814718e-01
     2358500000   -3.143427894e-02    1.134415716e-01
     2359250000   -4.476568103e-02    1.104099378e-01
     2360000000   -5.161416903e-02    1.078221053e-01
     2360750000   -6.164116412e-02    1.032582074e-01
     2361500000   -6.873755902e-02    9.991202503e-02
     2362250000   -7.673231512e-02    9.446660429e-02
     2363000000   -8.438614756e-02    8.940008283e-02
     2363750000   -9.237540513e-02    8.272662014e-02
     2364500000   -1.002903804e-01    7.562942058e-02
     2365250000   -1.065557823e-01    6.911794096e-02
     2366000000   -1.124157831e-01    6.147055328e-02
     2366750000   -1.169753373e-01    5.400012061e-02
     2367500000   -1.215279698e-01    4.517564178e-02
     2368250000   -1.255951077e-01    3.582148254e-02
     2369000000   -1.285186708e-01    2.794736065e-02
     2369750000   -1.312196404e-01    1.756772585e-02
     2370500000   -1.327890307e-01    7.987638935e-03
     2371250000   -1.333832741e-01   -3.392178565e-03
     2372000000   -1.336962730e-01   -1.174003351e-02
     2372750000   -1.325352639e-01   -2.222386748e-02
     2373500000   -1.307185739e-01   -3.341628611e-02
     2374250000   -1.284058243e-01   -4.342796654e-02
     2375000000   -1.253238618e-01   -5.304000899e-02
     2375750000   -1.211815178e-01   -6.321690977e-02
     2376500000   -1.151655763e-01   -7.465727627e-02
     2377250000   -1.112797782e-01   -8.197931200e-02
     2378000000   -1.036437973e-01   -9.246987849e-02
     2378750000   -9.580555558e-02   -1.019652337e-01
     2379500000   -8.910994977e-02   -1.093908027e-01
     2380250000   -8.026387542e-02   -1.170255244e-01
     2381000000   -7.142693549e-02   -1.240811422e-01
     2381750000   -6.286396086e-02   -1.298260689e-01
     2382500000   -5.120937526e-02   -1.359930038e-01
     2383250000   -4.010553285e-02   -1.408548206e-01
     2384000000   -2.577689663e-02   -1.449761540e-01
     2384750000   -1.622802392e-02   -1.478235275e-01
     2385500000   -6.672982592e-03   -1.503824592e-01
     2386250000    6.456428207e-03   -1.515802443e-01
     2387000000    2.151639946e-02   -1.508483291e-01
     2387750000    3.112863004e-02   -1.510202587e-01
     2388500000    4.547814280e-02   -1.480561942e-01
     2389250000    5.522675440e-02   -1.464072168e-01
     2390000000    6.779175997e-02   -1.417283863e-01
     2390750000    7.876526564e-02   -1.380800903e-01
     2391500000    9.180922061e-02   -1.297701001e-01
     2392250000    1.018885300e-01   -1.237354353e-01
     2393000000    1.130692214e-01   -1.146136075e-01
     2393750000    1.229036674e-01   -1.057391465e-01
     2394500000    1.316040754e-01   -9.654154629e-02
     2395250000    1.404258907e-01   -8.572146297e-02
     2396000000    1.478218287e-01   -7.393445820e-02
     2396750000    1.552126110e-01   -6.158969924e-02
     2397500000    1.604773998e-01   -4.936100170e-02
     2398250000    1.655703187e-01   -3.610683978e-02
     2399000000    1.693603396e-01   -2.114551887e-02
     2399750000    1.717125773e-01   -6.694740616e-03
     2400500000    1.741529852e-01    6.975091528e-03
     2401250000    1.738151163e-01    2.280279808e-02
     2402000000    1.728043854e-01    3.972651809e-02
     2402750000    1.710474491e-01    5.239692330e-02
     2403500000    1.682698429e-01    6.663683057e-02
     2404250000    1.624190062e-01    8.305560797e-02
     2405000000    1.572243273e-01    9.692825377e-02
     2405750000    1.513658166e-01    1.098014563e-01
     2406500000    1.433354169e-01    1.236148849e-01
     2407250000    1.338265836e-01    1.359277517e-01
     2408000000    1.236215532e-01    1.476730406e-01
     2408750000    1.130442396e-01    1.581717432e-01
     2409500000    9.957822412e-02    1.681041718e-01
     2410250000    8.698255569e-02    1.769435257e-01
     2411000000    7.234223187e-02    1.847613603e-01
     2411750000    5.690828711e-02    1.912543923e-01
     2412500000    4.367438704e-02    1.973524690e-01
     2413250000    2.577194758e-02    2.011692673e-01
     2414000000    8.933400735e-03    2.036468387e-01
     2414750000   -8.132262155e-03    2.056179196e-01
     2415500000   -2.529655024e-02    2.052452564e-01
     2416250000   -4.267437011e-02    2.034577727e-01
     2417000000   -5.928777531e-02    2.015108019e-01
     2417750000   -7.674658298e-02    1.970627159e-01
     2418500000   -9.431259334e-02    1.903809160e-01
     2419250000   -1.085324511e-01    1.851601452e-01
     2420000000   -1.245429739e-01    1.761047691e-01
     2420750000   -1.394176930e-01    1.662737876e-01
     2421500000   -1.536768526e-01    1.546812207e-01
     2422250000   -1.665845066e-01    1.428576559e-01
     2423000000   -1.787953526e-01    1.285682172e-01
     2423750000   -1.897772551e-01    1.149363071e-01
     2424500000   -1.995718181e-01    9.915457666e-02
     2425250000   -2.081694007e-01    8.207068592e-02
     2426000000   -2.149755359e-01    6.594916433e-02
     2426750000   -2.206014693e-01    4.768348485e-02
     2427500000   -2.243297398e-01    2.879455499e-02
     2428250000   -2.260427326e-01    8.873967454e-03
     2429000000   -2.270062268e-01   -1.074218191e-02
     2429750000   -2.257876247e-01   -2.997501194e-02
     2430500000   -2.234982252e-01   -4.912097007e-02
     2431250000   -2.196583301e-01   -6.798478961e-02
     2432000000   -2.153780460e-01   -8.602009714e-02
     2432750000   -2.047161460e-01   -1.071609184e-01
     2433500000   -1.964780539e-01   -1.248608753e-01
     2434250000   -1.882485151e-01   -1.407342255e-01
     2435000000   -1.735173315e-01   -1.577309817e-01
     2435750000   -1.621446162e-01   -1.724827588e-01
     2436500000   -1.448412687e-01   -1.866669357e-01
     2437250000   -1.281448901e-01   -1.995378733e-01
     2438000000   -1.132924855e-01   -2.111705244e-01
     2438750000   -9.190776944e-02   -2.205935866e-01
     2439500000   -7.367832959e-02   -2.292636782e-01
     2440250000   -5.591423437e-02   -2.365699708e-01
     2441000000   -3.158028051e-02   -2.400290668e-01
     2441750000   -1.355733257e-02   -2.443887293e-01
     2442500000    9.387345985e-03   -2.451713979e-01
     2443250000    3.150964528e-02   -2.446377873e-01
     2444000000    5.257221684e-02   -2.427222580e-01
     2444750000    7.515584677e-02   -2.375694066e-01
     2445500000    9.651102871e-02   -2.315763980e-01
     2446250000    1.170709506e-01   -2.233103514e-01
     2447000000    1.375064850e-01   -2.132936269e-01
     2447750000    1.572132260e-01   -2.017679065e-01
     2448500000    1.756864935e-01   -1.885575056e-01
     2449250000    1.932951361e-01   -1.726449430e-01
     2450000000    2.098373771e-01   -1.574479491e-01
     2450750000    2.241783589e-01   -1.393869072e-01
     2451500000    2.374995202e-01   -1.201146841e-01
     2452250000    2.489693314e-01   -1.001213267e-01
     2453000000    2.587800324e-01   -7.921697944e-02
     2453750000    2.667161226e-01   -5.737126619e-02
     2454500000    2.725975513e-01   -3.486098349e-02
     2455250000    2.772323191e-01   -1.294099819e-02
     2456000000    2.778159976e-01    1.317658275e-02
     2456750000    2.783682048e-01    3.573679551e-02
     2457500000    2.754344344e-01    5.927619338e-02
     2458250000    2.714712620e-01    8.268195391e-02
     2459000000    2.643437684e-01    1.065914184e-01
     2459750000    2.560345531e-01    1.288558692e-01
     2460500000    2.472620904e-01    1.497482061e-01
     2461250000    2.314448655e-01    1.725247204e-01
     2462000000    2.179624885e-01    1.926345974e-01
     2462750000    2.014229298e-01    2.109140605e-01
     2463500000    1.839852929e-01    2.285436243e-01
     2464250000    1.667416096e-01    2.442482114e-01
     2465000000    1.437533349e-01    2.585870624e-01
     2465750000    1.218551844e-01    2.712140381e-01
     2466500000    9.757429361e-02    2.809963226e-01
     2467250000    7.363137603e-02    2.896762490e-01
     2468000000    5.099326000e-02    2.967869639e-01
     2468750000    2.353275754e-02    2.994723022e-01
     2469500000   -2.373905852e-03    3.017392457e-01
     2470250000   -2.614440024e-02    3.024632633e-01
     2471000000   -5.399034545e-02    2.985436320e-01
     2471750000   -7.958704978e-02    2.929416299e-01
     2472500000   -1.039277613e-01    2.861679792e-01
     2473250000   -1.282731146e-01    2.780169845e-01
     2474000000   -1.526556462e-01    2.649872601e-01
     2474750000   -1.764180064e-01    2.501146793e-01
     2475500000   -1.971128583e-01    2.362714410e-01
     2476250000   -2.175898254e-01    2.177653313e-01
     2477000000   -2.369108200e-01    1.942934543e-01
     2477750000   -2.539127469e-01    1.761460155e-01
     2478500000   -2.694192827e-01    1.527706385e-01
     2479250000   -2.824229300e-01    1.296566576e-01
     2480000000   -2.936065793e-01    1.030791402e-01
     2480750000   -3.025155962e-01    7.688031346e-02
     2481500000   -3.092470169e-01    4.950047657e-02
     2482250000   -3.137211204e-01    2.198933810e-02
     2483000000   -3.154765069e-01   -6.032845005e-03
     2483750000   -3.151645064e-01   -3.351789713e-02
     2484500000   -3.123002946e-01   -6.224385649e-02
     2485250000   -3.067383766e-01   -8.978581429e-02
     2486000000   -2.987639606e-01   -1.177237034e-01
     2486750000   -2.881470025e-01   -1.443256438e-01
     2487500000   -2.757588029e-01   -1.699234992e-01
     2488250000   -2.604544461e-01   -1.948174834e-01
     2489000000   -2.432640493e-01   -2.181918323e-01
     2489750000   -2.253060788e-01   -2.402269542e-01
     2490500000   -2.047799975e-01   -2.601891756e-01
     2491250000   -1.812170595e-01   -2.780795991e-01
     2492000000   -1.568884850e-01   -2.945185602e-01
     2492750000   -1.315059513e-01   -3.079648912e-01
     2493500000   -1.062879860e-01   -3.202142417e-01
     2494250000   -7.701567560e-02   -3.290558159e-01
     2495000000   -4.851143435e-02   -3.359981775e-01
     2495750000   -2.174385637e-02   -3.408197761e-01
     2496500000    8.145742118e-03   -3.421581686e-01
     2497250000    3.853685036e-02   -3.401360214e-01
     2498000000    6.778451055e-02   -3.351179659e-01
     2498750000    9.699810296e-02   -3.298122287e-01
     2499500000    1.253156364e-01   -3.202204108e-01
     2500250000    1.524311155e-01   -3.094145358e-01
     2501000000    1.796374321e-01   -2.939195037e-01
     2501750000    2.042320818e-01   -2.783996165e-01
     2502500000    2.288061827e-01   -2.593348324e-01
     2503250000    2.516931891e-01   -2.367632836e-01
     2504000000    2.714673281e-01   -2.162753195e-01
     2504750000    2.901074290e-01   -1.900706589e-01
     2505500000    3.062525690e-01   -1.640121788e-01
     2506250000    3.196057379e-01   -1.365830153e-01
     2507000000    3.325247467e-01   -1.077264547e-01
     2507750000    3.408561647e-01   -7.766928524e-02
     2508500000    3.462045193e-01   -4.644646123e-02
     2509250000    3.503482640e-01   -1.480153948e-02
     2510000000    3.512377441e-01    1.535539795e-02
     2510750000    3.495720029e-01    4.825032875e-02
     2511500000    3.443953693e-01    7.909421623e-02
     2512250000    3.386277854e-01    1.091089621e-01
     2513000000    3.270131052e-01    1.402969807e-01
     2513750000    3.141744733e-01    1.688625664e-01
     2514500000    2.992764413e-01    1.962713599e-01
     2515250000    2.815034688e-01    2.235539407e-01
     2516000000    2.619797885e-01    2.485556751e-01
     2516750000    2.394141853e-01    2.709388435e-01
     2517500000    2.143913656e-01    2.922707796e-01
     2518250000    1.884717047e-01    3.106871247e-01
     2519000000    1.604099423e-01    3.270285428e-01
     2519750000    1.309035271e-01    3.409781754e-01
     2520500000    1.011747196e-01    3.521415889e-01
     2521250000    6.856419146e-02    3.604169786e-01
     2522000000    3.607675061e-02    3.658609092e-01
     2522750000    4.405697808e-03    3.681042194e-01
     2523500000   -2.917034552e-02    3.681115508e-01
     2524250000   -6.207071990e-02    3.647624254e-01
     2525000000   -9.442313015e-02    3.591536880e-01
     2525750000   -1.261667460e-01    3.504686058e-01
     2526500000   -1.568908542e-01    3.393805921e-01
     2527250000   -1.873128265e-01    3.253892958e-01
     2528000000   -2.157642096e-01    3.078666925e-01
     2528750000   -2.427138537e-01    2.886391282e-01
     2529500000   -2.677339911e-01    2.666737735e-01
     2530250000   -2.906546593e-01    2.418906540e-01
     2531000000   -3.116727769e-01    2.165384144e-01
     2531750000   -3.299290538e-01    1.879456341e-01
     2532500000   -3.459312618e-01    1.594342142e-01
     2533250000   -3.588522077e-01    1.285573840e-01
     2534000000   -3.697586060e-01    9.616526216e-02
     2534750000   -3.766974807e-01    6.381542236e-02
     2535500000   -3.815059364e-01    2.971189283e-02
     2536250000   -3.828478158e-01   -4.740432836e-03
     2537000000   -3.809075654e-01   -3.909761459e-02
     2537750000   -3.759727180e-01   -7.230219245e-02
     2538500000   -3.687636554e-01   -1.056030095e-01
     2539250000   -3.575685918e-01   -1.380307674e-01
     2540000000   -3.446880877e-01   -1.698829979e-01
     2540750000   -3.276340365e-01   -2.013199031e-01
     2541500000   -3.095402420e-01   -2.294925004e-01
     2542250000   -2.877234221e-01   -2.572338581e-01
     2543000000   -2.631285489e-01   -2.824496031e-01
     2543750000   -2.375952303e-01   -3.052912951e-01
     2544500000   -2.094599009e-01   -3.255173564e-01
     2545250000   -1.787878126e-01   -3.444359004e-01
     2546000000   -1.483586431e-01   -3.591582179e-01
     2546750000   -1.146977469e-01   -3.725366294e-01
     2547500000   -8.152978122e-02   -3.818883896e-01
     2548250000   -4.541267455e-02   -3.880161643e-01
     2549000000   -1.206985023e-02   -3.915584385e-01
     2549750000    2.523343265e-02   -3.918959200e-01
     2550500000    5.977291614e-02   -3.890902102e-01
     2551250000    9.505994618e-02   -3.829709589e-01
     2552000000    1.280546784e-01   -3.740433156e-01
     2552750000    1.613678932e-01   -3.617436290e-01
     2553500000    1.939377934e-01   -3.465391397e-01
     2554250000    2.251245677e-01   -3.279297948e-01
     2555000000    2.530865967e-01   -3.074262440e-01
     2555750000    2.806796730e-01   -2.844839990e-01
     2556500000    3.063040674e-01   -2.572412491e-01
     2557250000    3.275250196e-01   -2.313166708e-01
     2558000000    3.470091522e-01   -2.021917552e-01
     2558750000    3.642857969e-01   -1.694571376e-01
     2559500000    3.788173497e-01   -1.351845860e-01
     2560250000    3.899421096e-01   -1.006899923e-01
     2561000000    3.981102407e-01   -6.660802662e-02
     2561750000    4.001620412e-01   -2.991793118e-02
     2562500000    4.016908705e-01    5.726797972e-03
     2563250000    3.999822736e-01    4.043078795e-02
     2564000000    3.959266245e-01    7.629190385e-02
     2564750000    3.879247606e-01    1.115910709e-01
     2565500000    3.765030801e-01    1.474004239e-01
     2566250000    3.631212115e-01    1.804879606e-01
     2567000000    3.451342285e-01    2.131762803e-01
     2567750000    3.262417018e-01    2.424200475e-01
     2568500000    3.036212027e-01    2.718427777e-01
     2569250000    2.788861692e-01    2.968968153e-01
     2570000000    2.505391538e-01    3.222601712e-01
     2570750000    2.222154588e-01    3.433475494e-01
     2571500000    1.905422062e-01    3.617647588e-01
     2572250000    1.580438018e-01    3.774033189e-01
     2573000000    1.230855584e-01    3.905245066e-01
     2573750000    8.727546781e-02    4.002552032e-01
     2574500000    5.169685557e-02    4.062055647e-01
     2575250000    1.562558115e-02    4.087952971e-01
     2576000000   -2.195847593e-02    4.087339938e-01
     2576750000   -5.918391794e-02    4.053087234e-01
     2577500000   -9.386814386e-02    3.982689977e-01
     2578250000   -1.294226944e-01    3.889281154e-01
     2579000000   -1.652608663e-01    3.744696677e-01
     2579750000   -1.988631636e-01    3.581851423e-01
     2580500000   -2.300053090e-01    3.383668661e-01
     2581250000   -2.606780231e-01    3.164373040e-01
     2582000000   -2.891195714e-01    2.912079990e-01
     2582750000   -3.144230247e-01    2.642707825e-01
     2583500000   -3.370321095e-01    2.349316627e-01
     2584250000   -3.578945994e-01    2.031933367e-01
     2585000000   -3.752492964e-01    1.702498943e-01
     2585750000   -3.903348446e-01    1.347637326e-01
     2586500000   -4.008137882e-01    9.861961752e-02
     2587250000   -4.091354907e-01    6.257797778e-02
     2588000000   -4.142684937e-01    2.612446062e-02
     2588750000   -4.150810242e-01   -1.278735604e-02
     2589500000   -4.120508432e-01   -5.076046288e-02
     2590250000   -4.072300494e-01   -8.534274995e-02
     2591000000   -3.969905674e-01   -1.242073029e-01
     2591750000   -3.854822218e-01   -1.593176126e-01
     2592500000   -3.689908087e-01   -1.940932423e-01
     2593250000   -3.501228988e-01   -2.264959663e-01
     2594000000   -3.283357024e-01   -2.580104172e-01
     2594750000   -3.041887283e-01   -2.867349088e-01
     2595500000   -2.751256227e-01   -3.148800433e-01
     2596250000   -2.467789501e-01   -3.380409181e-01
     2597000000   -2.176119983e-01   -3.577555418e-01
     2597750000   -1.821888238e-01   -3.784191906e-01
     2598500000   -1.473757029e-01   -3.936492801e-01
     2599250000   -1.115954965e-01   -4.059524536e-01
     2600000000   -7.374002784e-02   -4.152293503e-01
