! NanoVNA-App
! Date: 2026-05-22 17:19:47
! Start: 2.3GHz Stop: 2.6GHz Points: 401
! S-Parameter data: F S11
# Hz S RI R 50
!     Frequency           S11_Real           S11_Imag
     2300000000   -2.131543607e-01    9.898266196e-02
     2300750000   -2.208000720e-01    8.040098101e-02
     2301500000   -2.246047556e-01    6.137254089e-02
     2302250000   -2.302152067e-01    4.133474454e-02
     2303000000   -2.309294045e-01    2.119456045e-02
     2303750000   -2.311327755e-01    1.863345271e-03
     2304500000   -2.300496399e-01   -1.864179783e-02
     2305250000   -2.275832742e-01   -3.837875649e-02
     2306000000   -2.225860655e-01   -5.750687420e-02
     2306750000   -2.158546001e-01   -7.603050023e-02
     2307500000   -2.075623423e-01   -9.346294403e-02
     2308250000   -1.987730414e-01   -1.118693650e-01
     2309000000   -1.872451603e-01   -1.279703826e-01
     2309750000   -1.750360131e-01   -1.431576014e-01
     2310500000   -1.618166119e-01   -1.568719149e-01
     2311250000   -1.460328102e-01   -1.697122604e-01
     2312000000   -1.309887469e-01   -1.811051220e-01
     2312750000   -1.142204329e-01   -1.913415194e-01
     2313500000   -9.645376354e-02   -2.003957927e-01
     2314250000   -7.855818421e-02   -2.079840153e-01
     2315000000   -5.956824496e-02   -2.127147168e-01
     2315750000   -4.047162086e-02   -2.173462212e-01
     2316500000   -2.064448781e-02   -2.200774401e-01
     2317250000   -2.473023254e-03   -2.203911841e-01
     2318000000    1.684999466e-02   -2.191097736e-01
     2318750000    3.757875785e-02   -2.178319544e-01
     2319500000    5.476798117e-02   -2.130009979e-01
     2320250000    7.356628031e-02   -2.069594860e-01
     2321000000    9.134327620e-02   -1.998883486e-01
     2321750000    1.074452028e-01   -1.906234920e-01
     2322500000    1.245357394e-01   -1.812558770e-01
     2323250000    1.374652684e-01   -1.697089225e-01
     2324000000    1.543111056e-01   -1.574972421e-01
     2324750000    1.651419103e-01   -1.436067075e-01
     2325500000    1.773873121e-01   -1.284913123e-01
     2326250000    1.890415698e-01   -1.121282876e-01
     2327000000    1.966812909e-01   -9.624178708e-02
     2327750000    2.044498473e-01   -7.930276543e-02
     2328500000    2.110355198e-01   -6.209700182e-02
     2329250000    2.152381539e-01   -4.314536229e-02
     2330000000    2.155974805e-01   -2.597914450e-02
     2330750000    2.197827250e-01   -6.129806861e-03
     2331500000    2.186416239e-01    1.219896972e-02
     2332250000    2.161377370e-01    2.952942252e-02
     2333000000    2.139027715e-01    4.899392277e-02
     2333750000    2.088016719e-01    6.602974236e-02
     2334500000    2.022171170e-01    8.372801542e-02
     2335250000    1.945323348e-01    9.986192733e-02
     2336000000    1.855486482e-01    1.156350598e-01
     2336750000    1.756245494e-01    1.302382052e-01
     2337500000    1.635535061e-01    1.438695788e-01
     2338250000    1.506273746e-01    1.570924073e-01
     2339000000    1.373984069e-01    1.695891917e-01
     2339750000    1.232611313e-01    1.790622622e-01
     2340500000    1.079796702e-01    1.880416721e-01
     2341250000    9.228172153e-02    1.947515905e-01
     2342000000    7.568292320e-02    2.013053298e-01
     2342750000    5.885491520e-02    2.068314701e-01
     2343500000    4.156369343e-02    2.098928988e-01
     2344250000    2.506738901e-02    2.104592472e-01
     2345000000    6.522176787e-03    2.130678147e-01
     2345750000   -1.090257335e-02    2.117231339e-01
     2346500000   -2.688419074e-02    2.084349841e-01
     2347250000   -4.437838495e-02    2.047540396e-01
     2348000000   -6.047047302e-02    1.990256011e-01
     2348750000   -7.721352577e-02    1.921893656e-01
     2349500000   -9.064142406e-02    1.841740906e-01
     2350250000   -1.042232588e-01    1.744748205e-01
     2351000000   -1.208782792e-01    1.649955064e-01
     2351750000   -1.315096021e-01    1.532379985e-01
     2352500000   -1.448081434e-01    1.414755881e-01
     2353250000   -1.561691016e-01    1.278258413e-01
     2354000000   -1.646459103e-01    1.141993999e-01
     2354750000   -1.733869463e-01    9.936172515e-02
     2355500000   -1.804326177e-01    8.500047028e-02
     2356250000   -1.870032251e-01    6.951424479e-02
     2357000000   -1.936776638e-01    5.324666202e-02
     2357750000   -1.942748427e-01    3.854665533e-02
     2358500000   -1.981049031e-01    2.165554091e-02
     2359250000   -1.985430717e-01    6.406208500e-03
     2360000000   -1.990600526e-01   -1.048611850e-02
     2360750000   -1.979783624e-01   -2.245853469e-02
     2361500000   -1.943960041e-01   -3.625756875e-02
     2362250000   -1.912376136e-01   -5.379344523e-02
     2363000000   -1.852786541e-01   -6.655765325e-02
     2363750000   -1.790018231e-01   -8.131666481e-02
     2364500000   -1.715425998e-01   -9.397874027e-02
     2365250000   -1.627009958e-01   -1.071636528e-01
     2366000000   -1.533163041e-01   -1.201861575e-01
     2366750000   -1.426305175e-01   -1.303010136e-01
     2367500000   -1.315392554e-01   -1.393126547e-01
     2368250000   -1.188548356e-01   -1.494679451e-01
     2369000000   -1.063197330e-01   -1.573271453e-01
     2369750000   -9.222204983e-02   -1.643915772e-01
     2370500000   -7.813425362e-02   -1.700282097e-01
     2371250000   -6.408062577e-02   -1.747817546e-01
     2372000000   -5.008147284e-02   -1.779862344e-01
     2372750000   -3.448686004e-02   -1.800390780e-01
     2373500000   -1.907091960e-02   -1.816198230e-01
     2374250000   -5.569761153e-03   -1.801898330e-01
     2375000000    1.015989762e-02   -1.788023114e-01
     2375750000    2.457214147e-02   -1.761296242e-01
     2376500000    4.066268355e-02   -1.729503870e-01
     2377250000    5.327986181e-02   -1.679297537e-01
     2378000000    6.646358222e-02   -1.620954573e-01
     2378750000    8.167672902e-02   -1.548941731e-01
     2379500000    9.216685593e-02   -1.466552764e-01
     2380250000    1.049500555e-01   -1.384660304e-01
     2381000000    1.119818166e-01   -1.298217922e-01
     2381750000    1.244432703e-01   -1.183871850e-01
     2382500000    1.336639673e-01   -1.072897092e-01
     2383250000    1.410799623e-01   -9.594548494e-02
     2384000000    1.511718929e-01   -8.187831193e-02
     2384750000    1.562842131e-01   -6.981018931e-02
     2385500000    1.602193713e-01   -5.746627599e-02
     2386250000    1.633777618e-01   -4.522024840e-02
     2387000000    1.682957858e-01   -2.851831727e-02
     2387750000    1.687405556e-01   -1.604672708e-02
     2388500000    1.695175469e-01   -3.538091900e-03
     2389250000    1.695144325e-01    1.137587987e-02
     2390000000    1.669297367e-01    2.274526842e-02
     2390750000    1.647204608e-01    3.848743439e-02
     2391500000    1.610802859e-01    5.017167702e-02
     2392250000    1.566715688e-01    6.406057626e-02
     2393000000    1.504391581e-01    7.694250345e-02
     2393750000    1.441222578e-01    8.681656420e-02
     2394500000    1.362991035e-01    9.954711795e-02
     2395250000    1.275777519e-01    1.108736843e-01
     2396000000    1.191933677e-01    1.189676672e-01
     2396750000    1.094861254e-01    1.282860786e-01
     2397500000    9.888326377e-02    1.374496818e-01
     2398250000    8.797726035e-02    1.444514692e-01
     2399000000    7.614924759e-02    1.512876749e-01
     2399750000    6.374776363e-02    1.565342247e-01
     2400500000    5.206448957e-02    1.606432647e-01
     2401250000    4.056993127e-02    1.638410091e-01
     2402000000    2.729746513e-02    1.671146154e-01
     2402750000    1.418846939e-02    1.674059033e-01
     2403500000    2.347966423e-03    1.681656390e-01
     2404250000   -1.148669329e-02    1.672312617e-01
     2405000000   -2.448122017e-02    1.658224910e-01
     2405750000   -3.682163358e-02    1.626209170e-01
     2406500000   -4.869703948e-02    1.588397473e-01
     2407250000   -6.003493816e-02    1.546855569e-01
     2408000000   -7.295303047e-02    1.486216336e-01
     2408750000   -8.460859209e-02    1.419219375e-01
     2409500000   -9.420092404e-02    1.350015104e-01
     2410250000   -1.060450822e-01    1.259652823e-01
     2411000000   -1.147192270e-01    1.172725707e-01
     2411750000   -1.235819757e-01    1.077847183e-01
     2412500000   -1.311529577e-01    9.838504344e-02
     2413250000   -1.385030895e-01    8.710366488e-02
     2414000000   -1.453387141e-01    7.579878718e-02
     2414750000   -1.501703113e-01    6.464608014e-02
     2415500000   -1.542591602e-01    5.349510908e-02
     2416250000   -1.575204730e-01    4.120516777e-02
     2417000000   -1.597085595e-01    2.787007019e-02
     2417750000   -1.615606993e-01    1.527716033e-02
     2418500000   -1.618337035e-01    3.247859189e-03
     2419250000   -1.619367450e-01   -8.965182118e-03
     2420000000   -1.603812128e-01   -2.303243615e-02
     2420750000   -1.579352468e-01   -3.524385765e-02
     2421500000   -1.544086188e-01   -4.727020860e-02
     2422250000   -1.500410885e-01   -5.836471915e-02
     2423000000   -1.447930336e-01   -7.067459822e-02
     2423750000   -1.379524618e-01   -8.313862979e-02
     2424500000   -1.328657866e-01   -9.113738686e-02
     2425250000   -1.235077530e-01   -1.026812121e-01
     2426000000   -1.158204451e-01   -1.109960750e-01
     2426750000   -1.074111760e-01   -1.189640313e-01
     2427500000   -9.628604352e-02   -1.281261444e-01
     2428250000   -8.555999398e-02   -1.346398443e-01
     2429000000   -7.533603162e-02   -1.408663839e-01
     2429750000   -6.359181553e-02   -1.460489929e-01
     2430500000   -5.050893500e-02   -1.506882608e-01
     2431250000   -4.052275419e-02   -1.536209285e-01
     2432000000   -2.553005144e-02   -1.563478410e-01
     2432750000   -1.446585637e-02   -1.579793990e-01
     2433500000   -2.035102574e-03   -1.584350467e-01
     2434250000    1.254827995e-02   -1.572567970e-01
     2435000000    2.129416913e-02   -1.570161730e-01
     2435750000    3.781793639e-02   -1.528054923e-01
     2436500000    5.204207823e-02   -1.487241536e-01
     2437250000    6.045085192e-02   -1.464002728e-01
     2438000000    7.305064797e-02   -1.402720660e-01
     2438750000    8.620847017e-02   -1.329120994e-01
     2439500000    9.618847072e-02   -1.264696270e-01
     2440250000    1.073706448e-01   -1.181583330e-01
     2441000000    1.155238673e-01   -1.113118604e-01
     2441750000    1.258334965e-01   -9.926961362e-02
     2442500000    1.334274411e-01   -8.927457780e-02
     2443250000    1.407246739e-01   -8.021841198e-02
     2444000000    1.475532204e-01   -6.684131920e-02
     2444750000    1.532357037e-01   -5.531713367e-02
     2445500000    1.575987339e-01   -4.309175536e-02
     2446250000    1.602953374e-01   -2.844092250e-02
     2447000000    1.630262285e-01   -1.714428328e-02
     2447750000    1.641897857e-01   -2.823311370e-03
     2448500000    1.646795720e-01    1.086566225e-02
     2449250000    1.633951515e-01    2.509231120e-02
     2450000000    1.626672149e-01    3.753419966e-02
     2450750000    1.592761874e-01    5.153917149e-02
     2451500000    1.558220088e-01    6.447576731e-02
     2452250000    1.503045708e-01    7.800812274e-02
     2453000000    1.445376277e-01    9.063933045e-02
     2453750000    1.380621493e-01    1.016728804e-01
     2454500000    1.308282763e-01    1.128787100e-01
     2455250000    1.239865944e-01    1.231520995e-01
     2456000000    1.120687649e-01    1.338188648e-01
     2456750000    1.018340141e-01    1.433857679e-01
     2457500000    9.138887376e-02    1.509110183e-01
     2458250000    7.954058796e-02    1.584169418e-01
     2459000000    6.569811702e-02    1.647119671e-01
     2459750000    5.373354256e-02    1.703128070e-01
     2460500000    4.045278579e-02    1.739099920e-01
     2461250000    2.735206299e-02    1.776896417e-01
     2462000000    1.106224582e-02    1.784571558e-01
     2462750000   -2.629628871e-03    1.796791255e-01
     2463500000   -1.505285595e-02    1.799418032e-01
     2464250000   -3.109884635e-02    1.776223034e-01
     2465000000   -4.466146231e-02    1.754724234e-01
     2465750000   -6.016926840e-02    1.700729877e-01
     2466500000   -7.299224287e-02    1.658634394e-01
     2467250000   -8.621953428e-02    1.598471701e-01
     2468000000   -9.956059605e-02    1.505916417e-01
     2468750000   -1.122435406e-01    1.415992081e-01
     2469500000   -1.238209903e-01    1.322748810e-01
     2470250000   -1.338586807e-01    1.253133714e-01
     2471000000   -1.447481513e-01    1.102812216e-01
     2471750000   -1.539304703e-01    9.842532873e-02
     2472500000   -1.613157392e-01    8.394802362e-02
     2473250000   -1.693792939e-01    7.198108733e-02
     2474000000   -1.754458398e-01    5.755727738e-02
     2474750000   -1.806975603e-01    4.270271957e-02
     2475500000   -1.840821803e-01    2.701939829e-02
     2476250000   -1.862466931e-01    1.112095639e-02
     2477000000   -1.868583858e-01   -4.786429461e-03
     2477750000   -1.872235835e-01   -2.031525970e-02
     2478500000   -1.842309833e-01   -3.723441809e-02
     2479250000   -1.830262095e-01   -5.079291388e-02
     2480000000   -1.772438586e-01   -6.716213375e-02
     2480750000   -1.710735857e-01   -8.338736743e-02
     2481500000   -1.660490632e-01   -9.698768705e-02
     2482250000   -1.568880975e-01   -1.113108695e-01
     2483000000   -1.473777890e-01   -1.249211282e-01
     2483750000   -1.349524707e-01   -1.380779296e-01
     2484500000   -1.247554123e-01   -1.504005939e-01
     2485250000   -1.120362654e-01   -1.613197327e-01
     2486000000   -9.829759598e-02   -1.712791473e-01
     2486750000   -8.354952186e-02   -1.811805516e-01
     2487500000   -6.864517927e-02   -1.891920120e-01
     2488250000   -5.200071260e-02   -1.958167702e-01
     2489000000   -3.560257331e-02   -2.012396157e-01
     2489750000   -1.903812028e-02   -2.059683800e-01
     2490500000   -1.925068442e-03   -2.086528987e-01
     2491250000    1.442686468e-02   -2.097210586e-01
     2492000000    3.123639524e-02   -2.101872414e-01
     2492750000    4.843540117e-02   -2.085037231e-01
     2493500000    6.475207210e-02   -2.055155635e-01
     2494250000    8.291994035e-02   -1.976140887e-01
     2495000000    9.837281704e-02   -1.935922503e-01
     2495750000    1.143272072e-01   -1.838733256e-01
     2496500000    1.292613149e-01   -1.757084727e-01
     2497250000    1.437718719e-01   -1.650049686e-01
     2498000000    1.568052024e-01   -1.531594098e-01
     2498750000    1.701910049e-01   -1.375008672e-01
     2499500000    1.810843050e-01   -1.243268996e-01
     2500250000    1.915773898e-01   -1.098476350e-01
     2501000000    2.005088180e-01   -9.378230572e-02
     2501750000    2.077881843e-01   -7.769461721e-02
     2502500000    2.136062533e-01   -5.817781389e-02
     2503250000    2.182889134e-01   -4.097509012e-02
     2504000000    2.209983021e-01   -2.230125293e-02
     2504750000    2.227053642e-01   -3.516536904e-03
     2505500000    2.234666198e-01    1.418199111e-02
     2506250000    2.196332067e-01    3.462737799e-02
     2507000000    2.180263698e-01    5.280846357e-02
     2507750000    2.116742581e-01    7.173627615e-02
     2508500000    2.059269249e-01    8.922080696e-02
     2509250000    1.961970776e-01    1.077910364e-01
     2510000000    1.873278767e-01    1.236924827e-01
     2510750000    1.747044027e-01    1.408095658e-01
     2511500000    1.615834981e-01    1.551034898e-01
     2512250000    1.480720192e-01    1.691928208e-01
     2513000000    1.318458021e-01    1.815849841e-01
     2513750000    1.148614064e-01    1.933426857e-01
     2514500000    9.777161479e-02    2.030909806e-01
     2515250000    7.843355089e-02    2.116002887e-01
     2516000000    5.951633304e-02    2.190393656e-01
     2516750000    3.884366155e-02    2.237796038e-01
     2517500000    1.858064532e-02    2.284804285e-01
     2518250000   -3.558704630e-03    2.287916690e-01
     2519000000   -2.430072054e-02    2.296385318e-01
     2519750000   -4.571782425e-02    2.278223485e-01
     2520500000   -6.652655452e-02    2.249859720e-01
     2521250000   -8.755857497e-02    2.196552306e-01
     2522000000   -1.083539948e-01    2.121942341e-01
     2522750000   -1.272960901e-01    2.035822868e-01
     2523500000   -1.469067186e-01    1.921716928e-01
     2524250000   -1.650224626e-01    1.801342666e-01
     2525000000   -1.820869595e-01    1.666544080e-01
     2525750000   -1.976484060e-01    1.527690887e-01
     2526500000   -2.126046419e-01    1.363492608e-01
     2527250000   -2.257775068e-01    1.185700521e-01
     2528000000   -2.378239185e-01    9.952676296e-02
     2528750000   -2.473648489e-01    8.014027029e-02
     2529500000   -2.554642260e-01    5.859402567e-02
     2530250000   -2.613739371e-01    3.701944277e-02
     2531000000   -2.662619054e-01    1.627159677e-02
     2531750000   -2.689409852e-01   -5.596510135e-03
     2532500000   -2.690892518e-01   -2.775502950e-02
     2533250000   -2.672140598e-01   -4.952419922e-02
     2534000000   -2.634793222e-01   -7.246939838e-02
     2534750000   -2.571368515e-01   -9.400261939e-02
     2535500000   -2.489053756e-01   -1.154318079e-01
     2536250000   -2.395764887e-01   -1.362772733e-01
     2537000000   -2.276248932e-01   -1.561014205e-01
     2537750000   -2.140026242e-01   -1.747908741e-01
     2538500000   -1.994751841e-01   -1.925184727e-01
     2539250000   -1.826369315e-01   -2.088458687e-01
     2540000000   -1.641036123e-01   -2.247014940e-01
     2540750000   -1.438054740e-01   -2.383698225e-01
     2541500000   -1.225658208e-01   -2.501436770e-01
     2542250000   -1.000554487e-01   -2.607591152e-01
     2543000000   -7.719925046e-02   -2.693957686e-01
     2543750000   -5.425638333e-02   -2.762072682e-01
     2544500000   -3.011422604e-02   -2.809438407e-01
     2545250000   -4.346403293e-03   -2.825340331e-01
     2546000000    1.903366111e-02   -2.837948501e-01
     2546750000    4.431851953e-02   -2.824593186e-01
     2547500000    6.901170313e-02   -2.776685655e-01
     2548250000    9.371696413e-02   -2.713005841e-01
     2549000000    1.171389297e-01   -2.633708715e-01
     2549750000    1.402156949e-01   -2.534978390e-01
     2550500000    1.618209332e-01   -2.399229109e-01
     2551250000    1.834434569e-01   -2.259627879e-01
     2552000000    2.018117011e-01   -2.112653852e-01
     2552750000    2.209238261e-01   -1.919599473e-01
     2553500000    2.375011742e-01   -1.733140498e-01
     2554250000    2.526271939e-01   -1.491081566e-01
     2555000000    2.654757202e-01   -1.299306750e-01
     2555750000    2.770361304e-01   -1.053468883e-01
     2556500000    2.857066989e-01   -8.028175682e-02
     2557250000    2.923905849e-01   -5.540324003e-02
     2558000000    2.984160185e-01   -3.060065396e-02
     2558750000    2.999758124e-01   -3.719927045e-03
     2559500000    3.007506132e-01    2.344805188e-02
     2560250000    2.985879183e-01    4.953971133e-02
     2561000000    2.940268219e-01    7.619363070e-02
     2561750000    2.884849310e-01    1.024950072e-01
     2562500000    2.777693868e-01    1.278932095e-01
     2563250000    2.672652602e-01    1.518177092e-01
     2564000000    2.553153932e-01    1.758931726e-01
     2564750000    2.392263412e-01    1.980855316e-01
     2565500000    2.214050591e-01    2.197898924e-01
     2566250000    2.039893717e-01    2.393617928e-01
     2567000000    1.810777783e-01    2.572170496e-01
     2567750000    1.604607850e-01    2.731062174e-01
     2568500000    1.363446563e-01    2.870360315e-01
     2569250000    1.115647554e-01    2.992817760e-01
     2570000000    8.567985147e-02    3.090515435e-01
     2570750000    5.935429409e-02    3.164935410e-01
     2571500000    3.209167719e-02    3.209600151e-01
     2572250000    4.355842248e-03    3.232263923e-01
     2573000000   -2.406848408e-02    3.235562742e-01
     2573750000   -5.173613876e-02    3.211989105e-01
     2574500000   -7.895734906e-02    3.162663877e-01
     2575250000   -1.060569435e-01    3.086723387e-01
     2576000000   -1.329168826e-01    2.991664410e-01
     2576750000   -1.583458632e-01    2.868019342e-01
     2577500000   -1.820111573e-01    2.736979127e-01
     2578250000   -2.058998197e-01    2.561372519e-01
     2579000000   -2.283349335e-01    2.373946160e-01
     2579750000   -2.477042079e-01    2.163501233e-01
     2580500000   -2.663899362e-01    1.937621832e-01
     2581250000   -2.827670276e-01    1.703064293e-01
     2582000000   -2.967263460e-01    1.439641714e-01
     2582750000   -3.089650571e-01    1.178870052e-01
     2583500000   -3.192629814e-01    9.144452214e-02
     2584250000   -3.258701861e-01    6.217886508e-02
     2585000000   -3.307238221e-01    3.250575066e-02
     2585750000   -3.329371810e-01    3.674870357e-03
     2586500000   -3.335030675e-01   -2.572353370e-02
     2587250000   -3.294876516e-01   -5.612415075e-02
     2588000000   -3.252792060e-01   -8.345682174e-02
     2588750000   -3.158212304e-01   -1.139492393e-01
     2589500000   -3.062217236e-01   -1.396456063e-01
     2590250000   -2.923783064e-01   -1.669728011e-01
     2591000000   -2.771748602e-01   -1.927423477e-01
     2591750000   -2.592583001e-01   -2.164185196e-01
     2592500000   -2.387674898e-01   -2.393860668e-01
     2593250000   -2.179747671e-01   -2.582944334e-01
     2594000000   -1.926614195e-01   -2.781673670e-01
     2594750000   -1.679230481e-01   -2.943521142e-01
     2595500000   -1.405706257e-01   -3.087871075e-01
     2596250000   -1.135224774e-01   -3.207013905e-01
     2597000000   -8.444133401e-02   -3.296024799e-01
     2597750000   -5.497855321e-02   -3.367750347e-01
     2598500000   -2.372118086e-02   -3.408399224e-01
     2599250000    8.049882948e-03   -3.422370553e-01
     2600000000    3.671823815e-02   -3.413131535e-01
