! NanoVNA-App
! Date: 2026-05-22 17:19:17
! Start: 4.8GHz Stop: 6GHz Points: 401
! S-Parameter data: F S11
# Hz S RI R 50
!     Frequency           S11_Real           S11_Imag
     4800000000   -1.731011271e-01   -8.089692146e-02
     4803000000   -1.329466105e-01   -1.337600946e-01
     4806000000   -7.385057956e-02   -1.755569726e-01
     4809000000   -1.520838495e-02   -1.825368106e-01
     4812000000    4.977636784e-02   -1.735422462e-01
     4815000000    1.042661518e-01   -1.422808617e-01
     4818000000    1.417317837e-01   -9.688308090e-02
     4821000000    1.645192802e-01   -3.916262835e-02
     4824000000    1.636779308e-01    1.632459089e-02
     4827000000    1.447991729e-01    7.847814262e-02
     4830000000    1.089804843e-01    1.184987128e-01
     4833000000    5.843146145e-02    1.488417387e-01
     4836000000    6.115418393e-03    1.554731727e-01
     4839000000   -4.755148664e-02    1.461900324e-01
     4842000000   -9.417219460e-02    1.212067977e-01
     4845000000   -1.258832365e-01    8.127029985e-02
     4848000000   -1.445038021e-01    3.224466369e-02
     4851000000   -1.444449872e-01   -1.678168401e-02
     4854000000   -1.267834157e-01   -6.348641217e-02
     4857000000   -9.688606858e-02   -9.969850630e-02
     4860000000   -5.317809060e-02   -1.275849938e-01
     4863000000   -9.130026214e-03   -1.356949061e-01
     4866000000    4.232693091e-02   -1.269800812e-01
     4869000000    7.508209348e-02   -1.097651944e-01
     4872000000    1.064523682e-01   -7.668186724e-02
     4875000000    1.264760047e-01   -3.445820138e-02
     4878000000    1.293188781e-01    1.516356319e-02
     4881000000    1.192147285e-01    4.988709465e-02
     4884000000    9.463723004e-02    8.587349951e-02
     4887000000    5.972596258e-02    1.107985228e-01
     4890000000    2.383187599e-02    1.238314062e-01
     4893000000   -1.942800730e-02    1.221873537e-01
     4896000000   -5.684193969e-02    1.082201079e-01
     4899000000   -8.620425314e-02    8.367424458e-02
     4902000000   -1.096943840e-01    4.902495071e-02
     4905000000   -1.194370538e-01    1.046314090e-02
     4908000000   -1.138037220e-01   -2.958850190e-02
     4911000000   -9.492367506e-02   -6.578143686e-02
     4914000000   -6.737994403e-02   -9.270383418e-02
     4917000000   -3.508327901e-02   -1.099171937e-01
     4920000000   -1.958063105e-03   -1.192698777e-01
     4923000000    4.017550871e-02   -1.072234139e-01
     4926000000    7.338982821e-02   -9.327625483e-02
     4929000000    9.946133941e-02   -6.030423567e-02
     4932000000    1.145864502e-01   -2.568540350e-02
     4935000000    1.122367308e-01    1.668968610e-02
     4938000000    1.036941484e-01    5.385851115e-02
     4941000000    8.385612071e-02    8.568655699e-02
     4944000000    5.548316240e-02    1.120351851e-01
     4947000000    1.203729864e-02    1.192672327e-01
     4950000000   -2.835209109e-02    1.222390756e-01
     4953000000   -6.716524065e-02    1.060129404e-01
     4956000000   -1.010194793e-01    8.276443928e-02
     4959000000   -1.203088313e-01    4.259377345e-02
     4962000000   -1.318107694e-01    2.532252111e-03
     4965000000   -1.241080612e-01   -4.175559431e-02
     4968000000   -1.065783054e-01   -8.280163258e-02
     4971000000   -7.159219682e-02   -1.138038188e-01
     4974000000   -3.166761249e-02   -1.327635795e-01
     4977000000    1.529612578e-02   -1.392364353e-01
     4980000000    6.113199517e-02   -1.256796271e-01
     4983000000    1.023306325e-01   -1.014904603e-01
     4986000000    1.291344762e-01   -6.156446412e-02
     4989000000    1.486209780e-01   -1.523339842e-02
     4992000000    1.476260722e-01    3.585046157e-02
     4995000000    1.235185266e-01    8.084040135e-02
     4998000000    9.070343524e-02    1.179194897e-01
     5001000000    4.576039314e-02    1.467594653e-01
     5004000000   -8.236023597e-03    1.572963297e-01
     5007000000   -5.545815080e-02    1.407260001e-01
     5010000000   -1.070648953e-01    1.153460294e-01
     5013000000   -1.415927857e-01    7.156435400e-02
     5016000000   -1.652222574e-01    1.908731647e-02
     5019000000   -1.616894007e-01   -3.542638570e-02
     5022000000   -1.433245242e-01   -9.061879665e-02
     5025000000   -1.048795432e-01   -1.348393857e-01
     5028000000   -5.289661139e-02   -1.646466255e-01
     5031000000    4.734246060e-03   -1.733005643e-01
     5034000000    6.526523829e-02   -1.612941027e-01
     5037000000    1.187770888e-01   -1.298217326e-01
     5040000000    1.583289057e-01   -8.036709577e-02
     5043000000    1.775088757e-01   -2.196851186e-02
     5046000000    1.783692241e-01    4.343846813e-02
     5049000000    1.537847519e-01    1.023248732e-01
     5052000000    1.105907187e-01    1.514667869e-01
     5055000000    5.153531581e-02    1.838169545e-01
     5058000000   -1.530415192e-02    1.927069873e-01
     5061000000   -7.943200320e-02    1.771325618e-01
     5064000000   -1.374002993e-01    1.407501251e-01
     5067000000   -1.787258387e-01    8.442860842e-02
     5070000000   -1.982475370e-01    1.922840253e-02
     5073000000   -1.917674094e-01   -5.284665152e-02
     5076000000   -1.625165790e-01   -1.166576669e-01
     5079000000   -1.115734130e-01   -1.684551388e-01
     5082000000   -4.588591680e-02   -1.995206624e-01
     5085000000    2.754137293e-02   -2.056120485e-01
     5088000000    9.879402816e-02   -1.837398708e-01
     5091000000    1.570580155e-01   -1.425850391e-01
     5094000000    1.996002197e-01   -7.988074422e-02
     5097000000    2.151933908e-01   -2.517591231e-03
     5100000000    2.055904418e-01    7.217732072e-02
     5103000000    1.692947298e-01    1.406850070e-01
     5106000000    1.138535365e-01    1.911974251e-01
     5109000000    4.112190753e-02    2.207069397e-01
     5112000000   -4.011086002e-02    2.175859064e-01
     5115000000   -1.155323684e-01    1.921495050e-01
     5118000000   -1.743142009e-01    1.416713297e-01
     5121000000   -2.146058083e-01    6.901621819e-02
     5124000000   -2.294498086e-01   -7.065657992e-03
     5127000000   -2.123731375e-01   -8.956887573e-02
     5130000000   -1.641160846e-01   -1.578508765e-01
     5133000000   -1.056259722e-01   -2.100464404e-01
     5136000000   -2.626516111e-02   -2.334386557e-01
     5139000000    5.961816013e-02   -2.257288992e-01
     5142000000    1.343647987e-01   -1.982752830e-01
     5145000000    1.962559670e-01   -1.354323030e-01
     5148000000    2.299399227e-01   -5.892735720e-02
     5151000000    2.363558561e-01    2.304764837e-02
     5154000000    2.143981606e-01    1.045708880e-01
     5157000000    1.660436839e-01    1.741010696e-01
     5160000000    9.321124852e-02    2.212248892e-01
     5163000000    9.674451314e-03    2.378150970e-01
     5166000000   -7.543588430e-02    2.285315394e-01
     5169000000   -1.495467573e-01    1.888778210e-01
     5172000000   -2.077513784e-01    1.248493716e-01
     5175000000   -2.404060662e-01    4.506100714e-02
     5178000000   -2.358394265e-01   -3.953815252e-02
     5181000000   -2.139912248e-01   -1.212132722e-01
     5184000000   -1.587420404e-01   -1.884079427e-01
     5187000000   -8.149377257e-02   -2.251970768e-01
     5190000000    2.210510895e-03   -2.376142293e-01
     5193000000    8.579510450e-02   -2.241689116e-01
     5196000000    1.565528512e-01   -1.792301834e-01
     5199000000    2.100463510e-01   -1.101303026e-01
     5202000000    2.386733145e-01   -3.264520317e-02
     5205000000    2.326715291e-01    5.118333176e-02
     5208000000    1.978689879e-01    1.299155802e-01
     5211000000    1.405240297e-01    1.890672147e-01
     5214000000    6.646195054e-02    2.266622186e-01
     5217000000   -1.698453724e-02    2.348831296e-01
     5220000000   -1.004213765e-01    2.151670605e-01
     5223000000   -1.630006582e-01    1.644659936e-01
     5226000000   -2.113374025e-01    9.639248252e-02
     5229000000   -2.285499424e-01    1.686348952e-02
     5232000000   -2.167094499e-01   -5.942905694e-02
     5235000000   -1.823795587e-01   -1.325301677e-01
     5238000000   -1.240796000e-01   -1.822469383e-01
     5241000000   -4.988639057e-02   -2.175773531e-01
     5244000000    3.151951358e-02   -2.227623612e-01
     5247000000    9.467808902e-02   -1.907461137e-01
     5250000000    1.718786061e-01   -1.468419135e-01
     5253000000    1.962613463e-01   -8.043359965e-02
     5256000000    2.139174193e-01   -5.470496602e-03
     5259000000    2.034440786e-01    7.238512486e-02
     5262000000    1.608983129e-01    1.359284222e-01
     5265000000    1.032900661e-01    1.808194518e-01
     5268000000    3.246575966e-02    2.070861608e-01
     5271000000   -3.859454766e-02    2.000193596e-01
     5274000000   -1.029373482e-01    1.742880642e-01
     5277000000   -1.554543227e-01    1.277264059e-01
     5280000000   -1.897768825e-01    6.201414019e-02
     5283000000   -1.945638210e-01   -9.988748468e-03
     5286000000   -1.767084897e-01   -7.181875408e-02
     5289000000   -1.386006922e-01   -1.298857182e-01
     5292000000   -8.236525208e-02   -1.643932313e-01
     5295000000   -2.084012888e-02   -1.789634824e-01
     5298000000    5.085385963e-02   -1.751576513e-01
     5301000000    1.076600701e-01   -1.454772204e-01
     5304000000    1.502833962e-01   -9.896240383e-02
     5307000000    1.743229181e-01   -3.981658444e-02
     5310000000    1.747760922e-01    2.193951234e-02
     5313000000    1.550159305e-01    8.045332134e-02
     5316000000    1.159249023e-01    1.246999353e-01
     5319000000    6.334085017e-02    1.561068743e-01
     5322000000    3.042084165e-03    1.681451201e-01
     5325000000   -5.633524433e-02    1.562933028e-01
     5328000000   -1.050863340e-01    1.267648190e-01
     5331000000   -1.386044919e-01    8.314051479e-02
     5334000000   -1.549021006e-01    2.943962812e-02
     5337000000   -1.532554924e-01   -2.740153670e-02
     5340000000   -1.307808757e-01   -7.844442129e-02
     5343000000   -9.684991837e-02   -1.128040627e-01
     5346000000   -4.913165420e-02   -1.361446679e-01
     5349000000    1.805212465e-03   -1.418759823e-01
     5352000000    5.482682958e-02   -1.309912056e-01
     5355000000    9.053748846e-02   -1.022020429e-01
     5358000000    1.224644110e-01   -5.986691639e-02
     5361000000    1.336307228e-01   -1.272935234e-02
     5364000000    1.280296594e-01    3.299000114e-02
     5367000000    1.063835770e-01    6.453811377e-02
     5370000000    8.122187108e-02    9.394864738e-02
     5373000000    3.792208433e-02    1.138917729e-01
     5376000000    6.733079441e-03    1.175118610e-01
     5379000000   -4.245930910e-02    1.071622968e-01
     5382000000   -8.854416013e-02    7.205656171e-02
     5385000000   -9.913542867e-02    4.788576066e-02
     5388000000   -1.090629995e-01   -5.314524285e-03
     5391000000   -1.028345078e-01   -2.132904530e-02
     5394000000   -8.185856789e-02   -5.775446817e-02
     5397000000   -4.677222669e-02   -8.523591608e-02
     5400000000   -1.837728731e-02   -9.478779137e-02
     5403000000    6.690830458e-03   -9.195387363e-02
     5406000000    4.170550406e-02   -7.823818922e-02
     5409000000    6.892482191e-02   -5.788310617e-02
     5412000000    7.927340269e-02   -3.549647704e-02
     5415000000    8.324057609e-02   -2.874590689e-03
     5418000000    8.028933406e-02    2.114809863e-02
     5421000000    6.052429229e-02    4.821751639e-02
     5424000000    4.320600256e-02    6.493024528e-02
     5427000000    1.243496221e-02    7.242529094e-02
     5430000000   -1.531344838e-02    6.885953248e-02
     5433000000   -3.492506593e-02    6.153317168e-02
     5436000000   -5.412974581e-02    5.542404577e-02
     5439000000   -6.590636820e-02    2.015903033e-02
     5442000000   -7.192619890e-02    6.649042014e-03
     5445000000   -5.743723735e-02   -2.411429211e-02
     5448000000   -6.135869026e-02   -3.918013722e-02
     5451000000   -2.498865128e-02   -5.318969861e-02
     5454000000   -1.742680185e-02   -6.555421650e-02
     5457000000    2.397395670e-03   -7.022177428e-02
     5460000000    2.686414868e-02   -4.709444568e-02
     5463000000    3.886603937e-02   -3.523693979e-02
     5466000000    4.812448844e-02   -1.907208376e-02
     5469000000    5.653693527e-02   -5.924349651e-03
     5472000000    5.780613050e-02    1.289687399e-02
     5475000000    4.501280934e-02    2.805742994e-02
     5478000000    3.642275184e-02    4.256809130e-02
     5481000000    1.570934057e-02    4.512292147e-02
     5484000000   -7.884622901e-04    5.824760348e-02
     5487000000   -2.132067643e-02    4.325917363e-02
     5490000000   -3.143332899e-02    3.096742555e-02
     5493000000   -4.540250450e-02    2.401840873e-02
     5496000000   -4.844177514e-02    7.490683813e-03
     5499000000   -6.001219898e-02   -9.697977453e-03
     5502000000   -5.442197621e-02   -3.064717539e-02
     5505000000   -4.017001390e-02   -4.223187640e-02
     5508000000   -2.591479570e-02   -5.025156960e-02
     5511000000   -7.426233497e-03   -5.698678270e-02
     5514000000    8.539652452e-03   -5.618763715e-02
     5517000000    2.620172687e-02   -5.140840262e-02
     5520000000    5.061817914e-02   -4.070622846e-02
     5523000000    5.451978371e-02   -2.218362875e-02
     5526000000    6.007851288e-02   -5.076215602e-03
     5529000000    5.842504650e-02    1.474016625e-02
     5532000000    5.498966575e-02    4.253490269e-02
     5535000000    3.898449242e-02    5.506630242e-02
     5538000000    2.561635338e-02    5.669355020e-02
     5541000000   -2.397462260e-03    7.003764063e-02
     5544000000   -1.416390482e-02    6.254285574e-02
     5547000000   -3.567399457e-02    5.541829020e-02
     5550000000   -5.730600655e-02    3.574758768e-02
     5553000000   -6.409292668e-02    1.825579256e-02
     5556000000   -6.580915302e-02    8.554863161e-04
     5559000000   -6.039579958e-02   -3.888405114e-02
     5562000000   -4.442605004e-02   -5.620761588e-02
     5565000000   -2.538243495e-02   -6.731797010e-02
     5568000000   -1.200044178e-03   -7.534275949e-02
     5571000000    2.788296342e-02   -7.109417766e-02
     5574000000    4.494222254e-02   -6.201526150e-02
     5577000000    6.980195642e-02   -3.855941445e-02
     5580000000    7.801521569e-02   -2.040917613e-02
     5583000000    7.968012244e-02    1.814147830e-02
     5586000000    7.221255451e-02    4.206984118e-02
     5589000000    5.653867498e-02    6.466657668e-02
     5592000000    2.050747722e-02    8.359218389e-02
     5595000000    8.806679398e-03    8.929817379e-02
     5598000000   -3.810751438e-02    7.809180766e-02
     5601000000   -6.239452213e-02    6.401840597e-02
     5604000000   -8.468630910e-02    3.628353402e-02
     5607000000   -9.597984701e-02    8.799687959e-03
     5610000000   -9.010777622e-02   -3.275611252e-02
     5613000000   -7.611790299e-02   -6.347136945e-02
     5616000000   -6.142284349e-02   -8.644804358e-02
     5619000000   -1.457800251e-02   -1.025370210e-01
     5622000000    2.198494785e-02   -1.064966843e-01
     5625000000    5.702449754e-02   -9.766472876e-02
     5628000000    9.153202921e-02   -6.182381511e-02
     5631000000    1.116090789e-01   -3.709767759e-02
     5634000000    1.211100370e-01    5.856790114e-03
     5637000000    1.066019386e-01    5.466207489e-02
     5640000000    9.092704952e-02    8.922310919e-02
     5643000000    4.701271653e-02    1.172434390e-01
     5646000000    2.982106991e-03    1.295426637e-01
     5649000000   -4.521227628e-02    1.228049695e-01
     5652000000   -8.612217009e-02    1.133597419e-01
     5655000000   -1.200189590e-01    6.349505484e-02
     5658000000   -1.470903456e-01    2.710798942e-02
     5661000000   -1.388254315e-01   -3.168551251e-02
     5664000000   -1.228880286e-01   -8.020181954e-02
     5667000000   -9.443364292e-02   -1.218285412e-01
     5670000000   -4.218542203e-02   -1.481840014e-01
     5673000000    1.350219827e-02   -1.558619440e-01
     5676000000    7.060370594e-02   -1.425910592e-01
     5679000000    1.194761768e-01   -1.098399684e-01
     5682000000    1.548800170e-01   -5.909426138e-02
     5685000000    1.698385328e-01   -8.677089354e-04
     5688000000    1.657880247e-01    5.695331097e-02
     5691000000    1.362732202e-01    1.146954298e-01
     5694000000    8.296624571e-02    1.528557390e-01
     5697000000    3.066728637e-02    1.856783628e-01
     5700000000   -4.004160315e-02    1.801622659e-01
     5703000000   -1.048442721e-01    1.622813940e-01
     5706000000   -1.492667347e-01    1.051746756e-01
     5709000000   -1.887881011e-01    4.991944507e-02
     5712000000   -1.828195900e-01   -2.221716940e-02
     5715000000   -1.814864278e-01   -9.352075309e-02
     5718000000   -1.277645379e-01   -1.471052617e-01
     5721000000   -7.202520967e-02   -1.973909885e-01
     5724000000    4.748461768e-03   -2.067206651e-01
     5727000000    7.942140847e-02   -1.944207847e-01
     5730000000    1.452004015e-01   -1.560615897e-01
     5733000000    1.943673491e-01   -9.436794370e-02
     5736000000    2.209848464e-01   -1.757744700e-02
     5739000000    2.113902122e-01    5.910591781e-02
     5742000000    1.784357429e-01    1.328793019e-01
     5745000000    1.194656044e-01    1.920870841e-01
     5748000000    4.567263275e-02    2.285864651e-01
     5751000000   -3.832736611e-02    2.219403237e-01
     5754000000   -1.272645295e-01    2.070448548e-01
     5757000000   -1.816231459e-01    1.423937380e-01
     5760000000   -2.406830341e-01    6.784200668e-02
     5763000000   -2.413349599e-01   -1.722598448e-02
     5766000000   -2.204879671e-01   -1.002558395e-01
     5769000000   -1.741623729e-01   -1.854612231e-01
     5772000000   -9.937322885e-02   -2.358401567e-01
     5775000000   -1.182258036e-02   -2.461747378e-01
     5778000000    9.218722582e-02   -2.516822219e-01
     5781000000    1.659093052e-01   -1.988255531e-01
     5784000000    2.317096144e-01   -1.253346205e-01
     5787000000    2.671454549e-01   -2.949408256e-02
     5790000000    2.635738552e-01    6.756071001e-02
     5793000000    2.252744734e-01    1.617422700e-01
     5796000000    1.530652046e-01    2.344519496e-01
     5799000000    5.972513184e-02    2.771278024e-01
     5802000000   -4.317947850e-02    2.859365344e-01
     5805000000   -1.444710195e-01    2.516801059e-01
     5808000000   -2.329315990e-01    1.877977699e-01
     5811000000   -2.889160216e-01    9.255048633e-02
     5814000000   -3.030216992e-01   -1.318186801e-02
     5817000000   -2.793161273e-01   -1.240177453e-01
     5820000000   -2.179080695e-01   -2.210852206e-01
     5823000000   -1.231600493e-01   -2.949220538e-01
     5826000000   -1.771847531e-02   -3.098416924e-01
     5829000000    9.938465804e-02   -3.017037809e-01
     5832000000    1.995674372e-01   -2.463540733e-01
     5835000000    2.860162854e-01   -1.562311947e-01
     5838000000    3.237344027e-01   -4.795537889e-02
     5841000000    3.147317171e-01    6.251250952e-02
     5844000000    2.769525051e-01    1.861070246e-01
     5847000000    1.951815784e-01    2.741759717e-01
     5850000000    8.367741108e-02    3.265776038e-01
     5853000000   -3.952330723e-02    3.393261731e-01
     5856000000   -1.624725461e-01    3.050579727e-01
     5859000000   -2.668674588e-01    2.281124890e-01
     5862000000   -3.328549564e-01    1.184023693e-01
     5865000000   -3.527040780e-01   -6.303972099e-03
     5868000000   -3.289844990e-01   -1.317509562e-01
     5871000000   -2.593361735e-01   -2.518356442e-01
     5874000000   -1.501509696e-01   -3.362102807e-01
     5877000000   -3.744473308e-02   -3.578616679e-01
     5880000000    1.205853298e-01   -3.567592800e-01
     5883000000    2.404410839e-01   -2.924125195e-01
     5886000000    3.084259033e-01   -2.017440051e-01
     5889000000    3.750801086e-01   -5.859921128e-02
     5892000000    3.694922924e-01    6.591288745e-02
     5895000000    3.215711117e-01    2.095574141e-01
     5898000000    2.322765291e-01    3.016941547e-01
     5901000000    1.003197506e-01    3.731212318e-01
     5904000000   -5.166816711e-02    3.892899454e-01
     5907000000   -1.806103736e-01    3.459902108e-01
     5910000000   -2.903906405e-01    2.635135055e-01
     5913000000   -3.674229085e-01    1.382942647e-01
     5916000000   -3.921117485e-01    1.504870597e-02
     5919000000   -3.697840273e-01   -1.372883767e-01
     5922000000   -2.843494713e-01   -2.899421155e-01
     5925000000   -1.738905758e-01   -3.688668013e-01
     5928000000   -3.065581992e-02   -4.094728529e-01
     5931000000    1.171428561e-01   -3.962488472e-01
     5934000000    2.576212883e-01   -3.244239390e-01
     5937000000    3.688699305e-01   -2.063652873e-01
     5940000000    4.105523825e-01   -8.398089558e-02
     5943000000    4.138712585e-01    9.513617307e-02
     5946000000    3.562014103e-01    2.352362126e-01
     5949000000    2.579184771e-01    3.393340707e-01
     5952000000    1.127073839e-01    4.118234217e-01
     5955000000   -5.574771389e-02    4.312329292e-01
     5958000000   -1.996106952e-01    3.838373721e-01
     5961000000   -3.312373757e-01    2.843135595e-01
     5964000000   -4.191308618e-01    1.397224218e-01
     5967000000   -4.405119717e-01    6.738601718e-03
     5970000000   -4.081858695e-01   -1.879408807e-01
     5973000000   -3.243112266e-01   -3.065513670e-01
     5976000000   -1.944538504e-01   -4.058601260e-01
     5979000000   -1.664708555e-02   -4.549204111e-01
     5982000000    1.297483891e-01   -4.365614355e-01
     5985000000    2.895729244e-01   -3.542332053e-01
     5988000000    4.022182524e-01   -2.280209810e-01
     5991000000    4.584421217e-01   -6.560289860e-02
     5994000000    4.570273459e-01    1.024860814e-01
     5997000000    3.927526474e-01    2.608716786e-01
     6000000000    2.708375752e-01    3.871689737e-01
