! NanoVNA-App
! Date: 2026-05-22 17:29:44
! Start: 4.8GHz Stop: 6GHz Points: 401
! S-Parameter data: F S11
# Hz S RI R 50
!     Frequency           S11_Real           S11_Imag
     4800000000   -1.711539924e-02   -9.285248816e-02
     4803000000    1.679159515e-02   -8.906244487e-02
     4806000000    4.948915914e-02   -7.469148934e-02
     4809000000    7.318204641e-02   -4.803156108e-02
     4812000000    8.598356694e-02   -1.631091721e-02
     4815000000    7.897648215e-02    1.583511382e-02
     4818000000    6.582657248e-02    4.323176295e-02
     4821000000    4.240526259e-02    6.253375113e-02
     4824000000    1.516341977e-02    7.124496251e-02
     4827000000   -1.325651631e-02    6.794232130e-02
     4830000000   -3.760593757e-02    5.566230416e-02
     4833000000   -5.206771195e-02    3.235882148e-02
     4836000000   -6.166332588e-02    9.575409815e-03
     4839000000   -5.786345527e-02   -1.454866305e-02
     4842000000   -4.717883095e-02   -3.296435997e-02
     4845000000   -2.924080379e-02   -4.862722754e-02
     4848000000   -6.034207065e-03   -5.109619722e-02
     4851000000    1.411680505e-02   -5.119686201e-02
     4854000000    2.949583158e-02   -4.029613733e-02
     4857000000    3.951485455e-02   -2.276497148e-02
     4860000000    4.198328406e-02   -4.359986633e-03
     4863000000    3.196395934e-02    1.441649068e-02
     4866000000    2.591466159e-02    2.966536582e-02
     4869000000    6.423503626e-03    3.351588547e-02
     4872000000   -8.840152994e-03    3.391983360e-02
     4875000000   -2.349538729e-02    2.285559289e-02
     4878000000   -3.208304942e-02    1.470220275e-02
     4881000000   -3.585880250e-02    1.097633271e-03
     4884000000   -2.847397327e-02   -1.660989039e-02
     4887000000   -1.580872573e-02   -2.759739012e-02
     4890000000   -4.024017602e-03   -3.257405385e-02
     4893000000    1.381156128e-02   -3.187098727e-02
     4896000000    2.992552705e-02   -2.100237273e-02
     4899000000    3.773310408e-02   -6.007384043e-03
     4902000000    4.115426168e-02    1.054103393e-02
     4905000000    3.356949612e-02    3.332833946e-02
     4908000000    2.089744061e-02    4.491026700e-02
     4911000000    2.608619630e-03    5.279604718e-02
     4914000000   -2.485282160e-02    5.185152590e-02
     4917000000   -4.013681784e-02    4.327831417e-02
     4920000000   -5.900442973e-02    2.343549021e-02
     4923000000   -6.792720407e-02   -4.646664020e-03
     4926000000   -6.503663212e-02   -2.940208465e-02
     4929000000   -5.025026947e-02   -5.800335109e-02
     4932000000   -2.877210081e-02   -7.475385815e-02
     4935000000    2.643676242e-03   -8.469818532e-02
     4938000000    3.405528888e-02   -8.121680468e-02
     4941000000    6.715156883e-02   -6.625434756e-02
     4944000000    9.247776121e-02   -3.642239049e-02
     4947000000    1.019879729e-01   -5.450706463e-03
     4950000000    9.997767955e-02    3.980650008e-02
     4953000000    8.178388327e-02    7.605636865e-02
     4956000000    5.208791792e-02    1.036242694e-01
     4959000000    8.652179502e-03    1.206981763e-01
     4962000000   -3.316782415e-02    1.203165650e-01
     4965000000   -8.086202294e-02    1.029202938e-01
     4968000000   -1.165364236e-01    6.906323880e-02
     4971000000   -1.392667294e-01    2.340609767e-02
     4974000000   -1.428856403e-01   -2.812596224e-02
     4977000000   -1.257255375e-01   -8.218491077e-02
     4980000000   -9.172576666e-02   -1.249399036e-01
     4983000000   -4.301940277e-02   -1.525017321e-01
     4986000000    1.640239172e-02   -1.618884504e-01
     4989000000    7.345253974e-02   -1.487488300e-01
     4992000000    1.246041656e-01   -1.149004027e-01
     4995000000    1.615635008e-01   -6.178532913e-02
     4998000000    1.770486981e-01    1.054729335e-03
     5001000000    1.695546806e-01    6.682866067e-02
     5004000000    1.366054565e-01    1.258304715e-01
     5007000000    8.696186543e-02    1.676695794e-01
     5010000000    1.814556122e-02    1.925672591e-01
     5013000000   -5.106670037e-02    1.898236722e-01
     5016000000   -1.196226180e-01    1.597156823e-01
     5019000000   -1.693986356e-01    1.125859469e-01
     5022000000   -2.021748871e-01    3.899081796e-02
     5025000000   -2.072158605e-01   -3.551643342e-02
     5028000000   -1.816239953e-01   -1.109235659e-01
     5031000000   -1.317443997e-01   -1.740913540e-01
     5034000000   -6.324954331e-02   -2.136222720e-01
     5037000000    1.986237057e-02   -2.252186388e-01
     5040000000    1.003114358e-01   -2.088800669e-01
     5043000000    1.695832759e-01   -1.597212702e-01
     5046000000    2.193655223e-01   -9.086626023e-02
     5049000000    2.402005643e-01   -5.638650618e-03
     5052000000    2.286023051e-01    8.345492929e-02
     5055000000    1.880081147e-01    1.629617661e-01
     5058000000    1.179209352e-01    2.239832878e-01
     5061000000    2.921479754e-02    2.549371123e-01
     5064000000   -6.414033473e-02    2.514982224e-01
     5067000000   -1.529987901e-01    2.151247859e-01
     5070000000   -2.219378054e-01    1.486124396e-01
     5073000000   -2.640616894e-01    5.965245515e-02
     5076000000   -2.709196508e-01   -4.075800255e-02
     5079000000   -2.406196594e-01   -1.361172050e-01
     5082000000   -1.794140488e-01   -2.178186774e-01
     5085000000   -9.119648486e-02   -2.715737224e-01
     5088000000    1.036337949e-02   -2.897837162e-01
     5091000000    1.155434921e-01   -2.713954449e-01
     5094000000    2.079086453e-01   -2.166673392e-01
     5097000000    2.742667198e-01   -1.289280206e-01
     5100000000    3.067627549e-01   -2.503968030e-02
     5103000000    3.004412055e-01    8.603103459e-02
     5106000000    2.480273694e-01    1.858468950e-01
     5109000000    1.680657268e-01    2.673228979e-01
     5112000000    6.202625483e-02    3.087473810e-01
     5115000000   -5.172837153e-02    3.124057055e-01
     5118000000   -1.628648639e-01    2.796405852e-01
     5121000000   -2.543451190e-01    2.030514181e-01
     5124000000   -3.064125478e-01    1.002954766e-01
     5127000000   -3.320375085e-01   -1.955067925e-02
     5130000000   -3.049905598e-01   -1.339329332e-01
     5133000000   -2.400001436e-01   -2.366714180e-01
     5136000000   -1.429866403e-01   -3.090319335e-01
     5139000000   -2.370700054e-02   -3.387859166e-01
     5142000000    9.936314076e-02   -3.320499957e-01
     5145000000    2.111517787e-01   -2.732274532e-01
     5148000000    2.949080169e-01   -1.817012429e-01
     5151000000    3.481169045e-01   -6.485656649e-02
     5154000000    3.478300571e-01    6.117633358e-02
     5157000000    3.045461476e-01    1.825253218e-01
     5160000000    2.234081626e-01    2.795966268e-01
     5163000000    1.102940887e-01    3.455324173e-01
     5166000000   -1.751636155e-02    3.630027473e-01
     5169000000   -1.421019435e-01    3.348330259e-01
     5172000000   -2.513597310e-01    2.624797225e-01
     5175000000   -3.371606767e-01    1.577347070e-01
     5178000000   -3.643593490e-01    3.273010626e-02
     5181000000   -3.549203873e-01   -9.858010709e-02
     5184000000   -3.038946092e-01   -2.255539000e-01
     5187000000   -2.055282146e-01   -3.121196926e-01
     5190000000   -8.459209651e-02   -3.558776975e-01
     5193000000    4.726423696e-02   -3.666712940e-01
     5196000000    1.843992025e-01   -3.334102333e-01
     5199000000    2.809479833e-01   -2.433708459e-01
     5202000000    3.505831063e-01   -1.328439862e-01
     5205000000    3.718427420e-01   -4.397619981e-03
     5208000000    3.532967269e-01    1.339184940e-01
     5211000000    2.824213207e-01    2.477679104e-01
     5214000000    1.794646382e-01    3.286205232e-01
     5217000000    5.061879382e-02    3.719417751e-01
     5220000000   -8.307962865e-02    3.630347848e-01
     5223000000   -2.001940310e-01    3.089201450e-01
     5226000000   -2.968702912e-01    2.209175229e-01
     5229000000   -3.534023166e-01    9.948385507e-02
     5232000000   -3.632880747e-01   -2.867864817e-02
     5235000000   -3.290155530e-01   -1.535333842e-01
     5238000000   -2.516084015e-01   -2.610169947e-01
     5241000000   -1.472225487e-01   -3.305296004e-01
     5244000000   -1.139550749e-02   -3.713728786e-01
     5247000000    1.031904966e-01   -3.413355947e-01
     5250000000    2.300946862e-01   -2.833580971e-01
     5253000000    2.994754612e-01   -1.874101609e-01
     5256000000    3.470693529e-01   -6.940653175e-02
     5259000000    3.491761982e-01    6.556377560e-02
     5262000000    2.977229953e-01    1.651822627e-01
     5265000000    2.170791328e-01    2.669013143e-01
     5268000000    1.019343436e-01    3.360556364e-01
     5271000000   -6.490214262e-03    3.347309530e-01
     5274000000   -1.254988015e-01    3.102959991e-01
     5277000000   -2.395495474e-01    2.418112904e-01
     5280000000   -2.960629761e-01    1.439049840e-01
     5283000000   -3.238489330e-01    3.175757080e-02
     5286000000   -3.123420775e-01   -8.445839584e-02
     5289000000   -2.583990395e-01   -1.914548874e-01
     5292000000   -1.730673909e-01   -2.699368298e-01
     5295000000   -6.459994614e-02   -3.066264987e-01
     5298000000    4.997380078e-02   -3.091426492e-01
     5301000000    1.604675949e-01   -2.690036595e-01
     5304000000    2.346365303e-01   -1.965745240e-01
     5307000000    2.904276252e-01   -9.432142228e-02
     5310000000    2.974616289e-01    7.146516815e-03
     5313000000    2.735328674e-01    1.170863658e-01
     5316000000    2.143235207e-01    2.003450096e-01
     5319000000    1.318747848e-01    2.531026304e-01
     5322000000    2.511089854e-02    2.840484679e-01
     5325000000   -8.118720353e-02    2.725206614e-01
     5328000000   -1.702646017e-01    2.222848535e-01
     5331000000   -2.327643335e-01    1.473459899e-01
     5334000000   -2.667195201e-01    5.332889780e-02
     5337000000   -2.670783401e-01   -4.659474269e-02
     5340000000   -2.329570502e-01   -1.350967884e-01
     5343000000   -1.635656357e-01   -2.131304294e-01
     5346000000   -7.579313219e-02   -2.554103434e-01
     5349000000    1.339408383e-02   -2.589052916e-01
     5352000000    1.077812240e-01   -2.345222980e-01
     5355000000    1.841993481e-01   -1.776882261e-01
     5358000000    2.346189320e-01   -9.763900191e-02
     5361000000    2.525905967e-01   -6.744599435e-03
     5364000000    2.358205318e-01    7.041420788e-02
     5367000000    1.935128123e-01    1.544163674e-01
     5370000000    1.081757024e-01    2.268500179e-01
     5373000000    3.385467082e-02    2.434547544e-01
     5376000000   -4.203703254e-02    2.389092743e-01
     5379000000   -1.267936528e-01    2.016682327e-01
     5382000000   -1.905985475e-01    1.441220641e-01
     5385000000   -2.273146957e-01    6.389930844e-02
     5388000000   -2.294970453e-01   -2.833651565e-02
     5391000000   -2.086307555e-01   -8.913775533e-02
     5394000000   -1.537145972e-01   -1.671936959e-01
     5397000000   -7.263799757e-02   -2.137257755e-01
     5400000000   -7.158279885e-03   -2.227624059e-01
     5403000000    6.365149468e-02   -2.093957961e-01
     5406000000    1.322332472e-01   -1.723526418e-01
     5409000000    1.850495338e-01   -1.097353175e-01
     5412000000    2.070137262e-01   -3.997952491e-02
     5415000000    2.054365575e-01    3.807492182e-02
     5418000000    1.746462137e-01    1.063009650e-01
     5421000000    1.214939356e-01    1.616323292e-01
     5424000000    6.024139002e-02    1.907814890e-01
     5427000000   -1.556151733e-02    1.936612874e-01
     5430000000   -7.920628786e-02    1.770328581e-01
     5433000000   -1.280450821e-01    1.452399641e-01
     5436000000   -1.706918627e-01    7.774966210e-02
     5439000000   -1.842391044e-01    1.072928496e-02
     5442000000   -1.773271710e-01   -4.251804203e-02
     5445000000   -1.504977643e-01   -9.965430945e-02
     5448000000   -8.987046778e-02   -1.476179957e-01
     5451000000   -4.375454038e-02   -1.676279008e-01
     5454000000    2.329902723e-02   -1.651202589e-01
     5457000000    8.357172459e-02   -1.390751451e-01
     5460000000    1.206117049e-01   -1.113565564e-01
     5463000000    1.494811177e-01   -5.993188173e-02
     5466000000    1.519503146e-01    5.858134013e-03
     5469000000    1.417478621e-01    5.363611132e-02
     5472000000    1.138473153e-01    9.845284373e-02
     5475000000    6.822074950e-02    1.286133081e-01
     5478000000    2.216072008e-02    1.414117664e-01
     5481000000   -3.160441667e-02    1.355178207e-01
     5484000000   -7.494428009e-02    1.135808975e-01
     5487000000   -1.084148735e-01    8.331670612e-02
     5490000000   -1.259496808e-01    3.298128396e-02
     5493000000   -1.281698644e-01   -1.324886177e-02
     5496000000   -1.077154875e-01   -5.824305117e-02
     5499000000   -9.906500578e-02   -9.158898145e-02
     5502000000   -3.955179080e-02   -1.082504243e-01
     5505000000   -7.925668731e-03   -1.263277978e-01
     5508000000    4.156563804e-02   -1.001486108e-01
     5511000000    7.244021446e-02   -9.267651290e-02
     5514000000    1.021708176e-01   -6.693241745e-02
     5517000000    1.139327213e-01   -2.057710290e-02
     5520000000    1.142464876e-01    1.862538792e-02
     5523000000    9.968566895e-02    5.736466870e-02
     5526000000    7.393524796e-02    8.796485513e-02
     5529000000    4.772709310e-02    1.138881296e-01
     5532000000   -8.936928934e-04    1.076282114e-01
     5535000000   -3.558634967e-02    1.159785315e-01
     5538000000   -6.625638157e-02    9.056181461e-02
     5541000000   -9.884498268e-02    6.546405703e-02
     5544000000   -1.010278761e-01    2.432972379e-02
     5547000000   -1.053859815e-01   -1.120566949e-02
     5550000000   -1.019345447e-01   -4.922464490e-02
     5553000000   -7.432895154e-02   -7.163781673e-02
     5556000000   -4.803649709e-02   -9.502127767e-02
     5559000000   -1.301244833e-02   -1.178616881e-01
     5562000000    1.942618750e-02   -9.992081672e-02
     5565000000    4.962943122e-02   -8.663354069e-02
     5568000000    7.784222066e-02   -6.812610477e-02
     5571000000    1.025602371e-01   -3.893604502e-02
     5574000000    1.048067957e-01   -4.963658284e-03
     5577000000    1.059184596e-01    3.191815689e-02
     5580000000    8.899560571e-02    6.180895492e-02
     5583000000    6.232239306e-02    8.440659195e-02
     5586000000    3.272470087e-02    1.037074253e-01
     5589000000   -7.026859676e-04    1.074001268e-01
     5592000000   -4.893420264e-02    1.060079709e-01
     5595000000   -6.634125859e-02    8.731664717e-02
     5598000000   -9.545302391e-02    5.838219076e-02
     5601000000   -1.176727265e-01    1.506512798e-02
     5604000000   -1.120293438e-01   -8.618999273e-03
     5607000000   -1.041709185e-01   -5.766301602e-02
     5610000000   -8.608449250e-02   -7.846557349e-02
     5613000000   -4.874132946e-02   -1.090690568e-01
     5616000000   -1.146209892e-02   -1.188149154e-01
     5619000000    3.080864437e-02   -1.174965352e-01
     5622000000    6.389627606e-02   -1.030406579e-01
     5625000000    9.962253273e-02   -7.242435962e-02
     5628000000    1.231498867e-01   -2.858597785e-02
     5631000000    1.289292723e-01    7.855664939e-03
     5634000000    1.239326522e-01    4.852027819e-02
     5637000000    9.693831205e-02    9.337906539e-02
     5640000000    7.201781124e-02    1.200051084e-01
     5643000000    1.542417333e-02    1.350629032e-01
     5646000000   -1.956838183e-02    1.425719708e-01
     5649000000   -7.100406289e-02    1.213024855e-01
     5652000000   -1.075268760e-01    9.225144982e-02
     5655000000   -1.322040558e-01    3.809449077e-02
     5658000000   -1.434684098e-01   -3.325497266e-03
     5661000000   -1.349647790e-01   -5.305249244e-02
     5664000000   -1.042086482e-01   -9.870645404e-02
     5667000000   -7.040585577e-02   -1.310956925e-01
     5670000000   -1.693561859e-02   -1.487651914e-01
     5673000000    3.753730282e-02   -1.478816271e-01
     5676000000    9.119696170e-02   -1.268647760e-01
     5679000000    1.328242123e-01   -9.065887332e-02
     5682000000    1.564250737e-01   -3.396121785e-02
     5685000000    1.686137617e-01    1.727801003e-02
     5688000000    1.516041160e-01    7.704725116e-02
     5691000000    1.126226559e-01    1.274232566e-01
     5694000000    6.165029854e-02    1.617179364e-01
     5697000000    4.163729493e-03    1.827605814e-01
     5700000000   -6.323013455e-02    1.680676192e-01
     5703000000   -1.177005768e-01    1.319615543e-01
     5706000000   -1.699373871e-01    9.202952683e-02
     5709000000   -1.916728020e-01    2.523347363e-02
     5712000000   -1.869264692e-01   -4.253008962e-02
     5715000000   -1.701423079e-01   -1.108147949e-01
     5718000000   -1.170158833e-01   -1.641563922e-01
     5721000000   -4.991284758e-02   -1.911060214e-01
     5724000000    2.197854966e-02   -2.027803808e-01
     5727000000    9.456110746e-02   -1.874084473e-01
     5730000000    1.555559635e-01   -1.389788985e-01
     5733000000    2.002948821e-01   -7.593970001e-02
     5736000000    2.232829332e-01    1.594462665e-03
     5739000000    2.102794498e-01    7.940213382e-02
     5742000000    1.727340221e-01    1.530229151e-01
     5745000000    1.091992557e-01    2.094285935e-01
     5748000000    2.941063233e-02    2.361066192e-01
     5751000000   -5.852193758e-02    2.325166315e-01
     5754000000   -1.439950764e-01    2.078120708e-01
     5757000000   -2.007579058e-01    1.388895959e-01
     5760000000   -2.450798154e-01    5.868834630e-02
     5763000000   -2.479701191e-01   -2.900037915e-02
     5766000000   -2.231255025e-01   -1.156462431e-01
     5769000000   -1.712713540e-01   -2.007440627e-01
     5772000000   -8.855053037e-02   -2.563578486e-01
     5775000000    3.991751466e-03   -2.662875056e-01
     5778000000    1.007545441e-01   -2.523449361e-01
     5781000000    1.868307590e-01   -2.035903782e-01
     5784000000    2.489670813e-01   -1.241101548e-01
     5787000000    2.828624547e-01   -2.487128787e-02
     5790000000    2.709541321e-01    7.210710645e-02
     5793000000    2.328439802e-01    1.741446853e-01
     5796000000    1.549034268e-01    2.481586635e-01
     5799000000    5.271992832e-02    2.968127728e-01
     5802000000   -5.049127713e-02    2.916717231e-01
     5805000000   -1.546036303e-01    2.560499012e-01
     5808000000   -2.411060184e-01    1.870502681e-01
     5811000000   -2.968389094e-01    8.829900622e-02
     5814000000   -3.130143285e-01   -2.371437661e-02
     5817000000   -2.896900773e-01   -1.421809196e-01
     5820000000   -2.198548764e-01   -2.297937423e-01
     5823000000   -1.225491837e-01   -3.006386161e-01
     5826000000   -9.217532352e-03   -3.250296414e-01
     5829000000    1.164611205e-01   -3.144505620e-01
     5832000000    2.216001451e-01   -2.543058395e-01
     5835000000    3.042487502e-01   -1.578954607e-01
     5838000000    3.368990421e-01   -4.474179074e-02
     5841000000    3.389437795e-01    9.577524662e-02
     5844000000    2.864743769e-01    1.978451908e-01
     5847000000    1.914272904e-01    3.050285578e-01
     5850000000    7.958186418e-02    3.471992314e-01
     5853000000   -5.703214183e-02    3.585893512e-01
     5856000000   -1.846017241e-01    3.195344210e-01
     5859000000   -2.900643945e-01    2.328567058e-01
     5862000000   -3.527621329e-01    1.164108589e-01
     5865000000   -3.725048006e-01   -1.625516638e-02
     5868000000   -3.467786014e-01   -1.567085534e-01
     5871000000   -2.685334980e-01   -2.806060314e-01
     5874000000   -1.522097886e-01   -3.624036312e-01
     5877000000   -1.107900590e-02   -3.963207901e-01
     5880000000    1.250534803e-01   -3.767719865e-01
     5883000000    2.656377554e-01   -3.084658384e-01
     5886000000    3.502265215e-01   -2.019329518e-01
     5889000000    4.102500677e-01   -4.960688576e-02
     5892000000    4.038403630e-01    9.897303581e-02
     5895000000    3.473665714e-01    2.221797705e-01
     5898000000    2.399782836e-01    3.447118998e-01
     5901000000    9.576404095e-02    4.142099321e-01
     5904000000   -6.956207007e-02    4.259414375e-01
     5907000000   -2.066298574e-01    3.763291240e-01
     5910000000   -3.405315280e-01    2.763098478e-01
     5913000000   -4.138379693e-01    1.389946491e-01
     5916000000   -4.395521283e-01   -1.175561827e-02
     5919000000   -4.063359499e-01   -1.748243421e-01
     5922000000   -3.215732276e-01   -3.044685721e-01
     5925000000   -1.793748438e-01   -4.154542983e-01
     5928000000   -3.056599759e-02   -4.500789344e-01
     5931000000    1.429609954e-01   -4.321364462e-01
     5934000000    2.911514342e-01   -3.514124453e-01
     5937000000    4.032535255e-01   -2.215630263e-01
     5940000000    4.516829252e-01   -7.832858711e-02
     5943000000    4.514325559e-01    1.070915610e-01
     5946000000    3.871736228e-01    2.611946762e-01
     5949000000    2.621798515e-01    3.931372762e-01
     5952000000    1.038117036e-01    4.628131390e-01
     5955000000   -4.683307186e-02    4.735908508e-01
     5958000000   -2.331696302e-01    4.204402864e-01
     5961000000   -3.783350587e-01    3.065452278e-01
     5964000000   -4.612734914e-01    1.622771919e-01
     5967000000   -4.940081537e-01   -1.940405369e-02
     5970000000   -4.490827024e-01   -2.141429484e-01
     5973000000   -3.523302078e-01   -3.488497436e-01
     5976000000   -1.969760954e-01   -4.597522318e-01
     5979000000   -1.800210588e-02   -5.052997470e-01
     5982000000    1.648578495e-01   -4.777240753e-01
     5985000000    3.154929578e-01   -4.008441567e-01
     5988000000    4.597075582e-01   -2.359353900e-01
     5991000000    5.154507160e-01   -6.613782793e-02
     5994000000    5.090583563e-01    1.249519587e-01
     5997000000    4.416005015e-01    2.882688046e-01
     6000000000    2.962596714e-01    4.383092523e-01
