! NanoVNA-App
! Date: 2026-05-22 17:22:13
! Start: 4.8GHz Stop: 6GHz Points: 401
! S-Parameter data: F S11
# Hz S RI R 50
!     Frequency           S11_Real           S11_Imag
     4800000000   -6.254985183e-02    1.324387733e-02
     4803000000   -6.405148655e-02   -7.082014810e-03
     4806000000   -5.664343014e-02   -2.687440254e-02
     4809000000   -4.440002516e-02   -4.182659462e-02
     4812000000   -3.288190439e-02   -5.238313600e-02
     4815000000   -1.172284503e-02   -5.979319289e-02
     4818000000    1.882497570e-03   -6.032525003e-02
     4821000000    2.222838998e-02   -5.599520728e-02
     4824000000    3.591173515e-02   -4.732898995e-02
     4827000000    4.934787005e-02   -3.165764734e-02
     4830000000    5.719687045e-02   -1.527049951e-02
     4833000000    6.050781906e-02    4.965385888e-03
     4836000000    5.723645166e-02    2.453814819e-02
     4839000000    4.748942703e-02    4.135563597e-02
              0    3.148523569e-01   -8.054571226e-03
     4845000000    1.379881985e-02    6.491449475e-02
     4848000000   -8.250005543e-03    6.637173146e-02
     4851000000   -2.783380449e-02    6.340704113e-02
     4854000000   -4.832005501e-02    5.141901597e-02
     4857000000   -6.237971410e-02    3.139653429e-02
     4860000000   -7.234708965e-02    9.971204214e-03
     4863000000   -7.450577617e-02   -1.565577462e-02
     4866000000   -6.699854136e-02   -4.082347453e-02
     4869000000   -4.934727028e-02   -6.319814920e-02
     4872000000   -2.143084258e-02   -7.601300627e-02
     4875000000    3.018758260e-03   -8.873743564e-02
     4878000000    3.501319140e-02   -7.695301622e-02
     4881000000    6.123786047e-02   -6.790664047e-02
     4884000000    8.291006833e-02   -4.420848191e-02
     4887000000    9.682810307e-02   -1.258678921e-02
     4890000000    9.840464592e-02    2.190030552e-02
     4893000000    8.523626626e-02    5.394019186e-02
     4896000000    6.377989054e-02    8.455453813e-02
     4899000000    3.048699722e-02    1.038041934e-01
     4902000000   -6.890716963e-03    1.082477048e-01
     4905000000   -4.609156027e-02    1.050722376e-01
     4908000000   -8.153016865e-02    8.343357593e-02
     4911000000   -1.058993936e-01    5.065906793e-02
     4914000000   -1.252938658e-01    1.271608658e-02
     4917000000   -1.232692450e-01   -3.134281933e-02
     4920000000   -1.091982722e-01   -7.638081163e-02
     4923000000   -7.484489679e-02   -1.078803092e-01
     4926000000   -3.185093403e-02   -1.303350329e-01
     4929000000    1.560554095e-02   -1.314498186e-01
     4932000000    6.573183835e-02   -1.241507828e-01
     4935000000    1.053453088e-01   -9.263379127e-02
     4938000000    1.382746547e-01   -5.032553896e-02
     4941000000    1.478211582e-01    9.110195097e-04
     4944000000    1.453181207e-01    5.580233783e-02
     4947000000    1.172529161e-01    1.007382497e-01
     4950000000    7.490299642e-02    1.428500712e-01
     4953000000    2.251045965e-02    1.618841290e-01
     4956000000   -3.719638288e-02    1.650298983e-01
     4959000000   -9.483837336e-02    1.433598846e-01
     4962000000   -1.390869617e-01    1.027885973e-01
     4965000000   -1.696544886e-01    4.699955508e-02
     4968000000   -1.781896055e-01   -1.471659169e-02
     4971000000   -1.646207422e-01   -7.901994884e-02
     4974000000   -1.279082894e-01   -1.327967495e-01
     4977000000   -7.353010774e-02   -1.723967195e-01
     4980000000   -8.910076693e-03   -1.922198832e-01
     4983000000    6.056656688e-02   -1.855607331e-01
     4986000000    1.233638227e-01   -1.563360840e-01
     4989000000    1.707948595e-01   -1.050174683e-01
     4992000000    1.948906183e-01   -3.887614608e-02
     4995000000    2.024561018e-01    3.633476421e-02
     4998000000    1.758107394e-01    1.016526073e-01
     5001000000    1.273118407e-01    1.621154845e-01
     5004000000    6.034432352e-02    2.025045902e-01
     5007000000   -1.257540658e-02    2.104558498e-01
     5010000000   -8.579995483e-02    1.933865249e-01
     5013000000   -1.566675007e-01    1.530588716e-01
     5016000000   -2.023231685e-01    9.065825492e-02
     5019000000   -2.225252241e-01    1.544936094e-02
     5022000000   -2.168938369e-01   -6.678754091e-02
     5025000000   -1.810589433e-01   -1.362630874e-01
     5028000000   -1.206828803e-01   -1.943586469e-01
     5031000000   -4.456921667e-02   -2.246873081e-01
     5034000000    3.910302371e-02   -2.276536524e-01
     5037000000    1.209589466e-01   -2.006162107e-01
     5040000000    1.882618219e-01   -1.435740292e-01
     5043000000    2.280576825e-01   -6.996437162e-02
     5046000000    2.433283329e-01    1.802663319e-02
     5049000000    2.236848921e-01    1.030507758e-01
     5052000000    1.752254516e-01    1.761399060e-01
     5055000000    1.030781865e-01    2.301079780e-01
     5058000000    1.542490907e-02    2.542106211e-01
     5061000000   -7.469584793e-02    2.462701052e-01
     5064000000   -1.576128453e-01    2.045825571e-01
     5067000000   -2.210957557e-01    1.365316063e-01
     5070000000   -2.577730715e-01    4.912589490e-02
     5073000000   -2.608734667e-01   -4.339150712e-02
     5076000000   -2.293642610e-01   -1.345715970e-01
     5079000000   -1.686169803e-01   -2.080357075e-01
     5082000000   -8.618683368e-02   -2.563806176e-01
     5085000000    1.087280829e-02   -2.723640203e-01
     5088000000    1.055399626e-01   -2.519091070e-01
     5091000000    1.884922683e-01   -2.007167786e-01
     5094000000    2.496370226e-01   -1.225920245e-01
     5097000000    2.770369053e-01   -2.604348771e-02
     5100000000    2.707585394e-01    7.052081078e-02
     5103000000    2.294314057e-01    1.612281799e-01
     5106000000    1.621149778e-01    2.323703170e-01
     5109000000    6.875757128e-02    2.748387456e-01
     5112000000   -3.313804418e-02    2.772122920e-01
     5115000000   -1.296160668e-01    2.500358820e-01
     5118000000   -2.090638280e-01    1.930647343e-01
     5121000000   -2.610583007e-01    1.017806008e-01
     5124000000   -2.857581973e-01    5.681202281e-03
     5127000000   -2.643776536e-01   -9.546301514e-02
     5130000000   -2.174324542e-01   -1.818155348e-01
     5133000000   -1.411023885e-01   -2.476405054e-01
     5136000000   -4.893952236e-02   -2.814393640e-01
     5139000000    5.355253071e-02   -2.788730264e-01
     5142000000    1.481887251e-01   -2.469127327e-01
     5145000000    2.200642377e-01   -1.735429615e-01
     5148000000    2.677172422e-01   -8.592453599e-02
     5151000000    2.813909650e-01    1.128411293e-02
     5154000000    2.552646697e-01    1.076462641e-01
     5157000000    2.008840740e-01    1.908227801e-01
     5160000000    1.209514961e-01    2.474183738e-01
     5163000000    2.711234055e-02    2.715508640e-01
     5166000000   -7.054500282e-02    2.664202452e-01
     5169000000   -1.574747115e-01    2.244299501e-01
     5172000000   -2.208769619e-01    1.522066444e-01
     5175000000   -2.589026988e-01    6.646435708e-02
     5178000000   -2.645371854e-01   -2.783674560e-02
     5181000000   -2.337942421e-01   -1.144392416e-01
     5184000000   -1.792610437e-01   -1.885462552e-01
     5187000000   -1.005614176e-01   -2.359592021e-01
     5190000000   -8.232599124e-03   -2.529864609e-01
     5193000000    7.571620494e-02   -2.358508259e-01
     5196000000    1.547634453e-01   -1.951781958e-01
     5199000000    2.109073550e-01   -1.246577352e-01
     5202000000    2.325672805e-01   -4.372968897e-02
     5205000000    2.351060659e-01    4.230459780e-02
     5208000000    2.007172257e-01    1.200090349e-01
     5211000000    1.452865899e-01    1.831810474e-01
     5214000000    7.163976133e-02    2.193190008e-01
     5217000000   -9.411406703e-03    2.254360765e-01
     5220000000   -8.644222468e-02    2.045413405e-01
     5223000000   -1.490746588e-01    1.578571647e-01
     5226000000   -1.902244836e-01    9.326167405e-02
     5229000000   -2.095356435e-01    2.217813395e-02
     5232000000   -1.981176287e-01   -5.362186953e-02
     5235000000   -1.634184271e-01   -1.134736910e-01
     5238000000   -1.106609330e-01   -1.598037630e-01
     5241000000   -4.211910814e-02   -1.949585229e-01
     5244000000    2.294295095e-02   -1.830311120e-01
     5247000000    8.973429352e-02   -1.634203047e-01
     5250000000    1.375858635e-01   -1.202369407e-01
     5253000000    1.727447957e-01   -6.154714152e-02
     5256000000    1.704927385e-01   -3.092197701e-03
     5259000000    1.613309383e-01    5.972799286e-02
     5262000000    1.249524131e-01    1.078330427e-01
     5265000000    7.572563738e-02    1.415481567e-01
     5268000000    1.705836132e-02    1.647984833e-01
     5271000000   -3.604593500e-02    1.503507346e-01
     5274000000   -8.703362197e-02    1.237898842e-01
     5277000000   -1.130760163e-01    8.487158269e-02
     5280000000   -1.348362267e-01    3.512882814e-02
     5283000000   -1.367398351e-01   -1.843457669e-02
     5286000000   -1.174685359e-01   -6.329588592e-02
     5289000000   -8.739118278e-02   -1.004840657e-01
     5292000000   -4.259177297e-02   -1.202433035e-01
     5295000000    1.689216238e-03   -1.232258379e-01
     5298000000    4.858040065e-02   -1.147534326e-01
     5301000000    8.572384715e-02   -8.656849712e-02
     5304000000    1.054587364e-01   -5.118775368e-02
     5307000000    1.161813140e-01   -1.085251849e-02
     5310000000    1.076086536e-01    3.110296838e-02
     5313000000    8.746686578e-02    6.350887567e-02
     5316000000    5.708527565e-02    9.356153756e-02
     5319000000    2.338865772e-02    1.002518535e-01
     5322000000   -1.305366401e-02    9.886758775e-02
     5325000000   -4.595687613e-02    8.641254157e-02
     5328000000   -7.082733512e-02    6.276192516e-02
     5331000000   -8.589221537e-02    3.442491591e-02
     5334000000   -8.549863845e-02    7.207811344e-03
     5337000000   -8.264736831e-02   -3.205992281e-02
     5340000000   -6.256762892e-02   -5.404400453e-02
     5343000000   -4.021259025e-02   -6.989332289e-02
     5346000000   -1.398974843e-02   -7.520940155e-02
     5349000000    2.100602351e-02   -7.152280211e-02
     5352000000    2.389467321e-02   -6.122804061e-02
     5355000000    4.935961217e-02   -4.394720495e-02
     5358000000    5.832644552e-02   -2.293264121e-02
     5361000000    6.025708094e-02   -1.607144368e-03
     5364000000    5.464868620e-02    2.255535871e-02
     5367000000    4.225521907e-02    3.388515115e-02
     5370000000    3.263332695e-02    3.488304466e-02
     5373000000    1.141402125e-02    4.596047103e-02
     5376000000   -5.353711545e-03    4.476547614e-02
     5379000000   -3.068536520e-02    3.328788280e-02
     5382000000   -1.936377585e-02    3.430740535e-02
     5385000000   -3.606434911e-02    8.930779994e-03
     5388000000   -3.301935643e-02    2.356380923e-03
     5391000000   -3.061548620e-02   -5.314839655e-04
     5394000000   -2.546552755e-02   -1.009941101e-02
     5397000000   -2.312965132e-02   -1.094368566e-02
     5400000000   -2.134589851e-02   -1.824923418e-02
     5403000000   -7.376354653e-03   -1.802200638e-02
     5406000000   -3.760106629e-03   -1.922887377e-02
     5409000000   -1.770938979e-03   -2.373996377e-02
     5412000000    4.168292508e-03   -2.428049222e-02
     5415000000    1.018030755e-02   -2.042576298e-02
     5418000000    1.203945931e-02   -1.567729376e-02
     5421000000    1.717681624e-02   -1.280122250e-02
     5424000000    2.873318084e-02   -8.203640580e-03
     5427000000    2.354149520e-02   -3.531920025e-03
     5430000000    3.325747326e-02    1.247404050e-02
     5433000000    2.363335341e-02    1.220024936e-02
     5436000000    2.340603806e-02    3.257180378e-02
     5439000000    1.697426848e-02    2.657237649e-02
     5442000000    2.584417118e-03    4.243729636e-02
     5445000000   -8.875876665e-03    4.082712159e-02
     5448000000   -2.544910461e-02    3.851312771e-02
     5451000000   -2.727583051e-02    3.175933287e-02
     5454000000   -4.871188477e-02    1.373528596e-02
     5457000000   -5.201302096e-02    1.872316701e-03
     5460000000   -4.938022792e-02   -1.355242915e-02
     5463000000   -4.208267853e-02   -3.636107594e-02
     5466000000   -2.656925283e-02   -5.236830562e-02
     5469000000   -9.287351742e-03   -5.850668624e-02
     5472000000    1.570143178e-02   -6.213734671e-02
     5475000000    2.865006216e-02   -5.750893056e-02
     5478000000    5.089427158e-02   -4.406812042e-02
     5481000000    6.554555893e-02   -2.384736016e-02
     5484000000    7.077270001e-02   -1.273744740e-03
     5487000000    6.602229178e-02    2.873936482e-02
     5490000000    5.058605596e-02    5.703341961e-02
     5493000000    2.542989701e-02    7.592604309e-02
     5496000000    8.624279872e-03    8.165665716e-02
     5499000000   -2.941902168e-02    8.177530766e-02
     5502000000   -5.856033787e-02    6.737942994e-02
     5505000000   -7.903237641e-02    4.591090605e-02
     5508000000   -9.221246839e-02    1.530473493e-02
     5511000000   -9.448231757e-02   -1.985269226e-02
     5514000000   -8.589676768e-02   -5.025023967e-02
     5517000000   -5.523643270e-02   -8.419498056e-02
     5520000000   -2.433525212e-02   -9.962811321e-02
     5523000000    5.618258379e-03   -1.077240184e-01
     5526000000    5.474167317e-02   -9.243988246e-02
     5529000000    8.636009693e-02   -7.305940986e-02
     5532000000    1.087156087e-01   -4.022858664e-02
     5535000000    1.198069453e-01    4.010717385e-04
     5538000000    1.122019514e-01    4.654487222e-02
     5541000000    9.561232477e-02    8.258115500e-02
     5544000000    5.771076307e-02    1.120364442e-01
     5547000000    2.127971128e-02    1.298949420e-01
     5550000000   -3.540831804e-02    1.243217289e-01
     5553000000   -7.407616079e-02    1.134506166e-01
     5556000000   -1.133623868e-01    7.403942198e-02
     5559000000   -1.354661137e-01    3.226075694e-02
     5562000000   -1.370243430e-01   -2.498495951e-02
     5565000000   -1.246692315e-01   -7.277289033e-02
     5568000000   -9.001091868e-02   -1.133583859e-01
     5571000000   -4.256551340e-02   -1.413362175e-01
     5574000000    7.872329094e-03   -1.505481750e-01
     5577000000    6.286118180e-02   -1.411003470e-01
     5580000000    1.098219007e-01   -1.143767834e-01
     5583000000    1.420678943e-01   -6.215763465e-02
     5586000000    1.564167738e-01   -6.426518317e-03
     5589000000    1.489185095e-01    5.217269063e-02
     5592000000    1.258716136e-01    1.037499681e-01
     5595000000    8.278425038e-02    1.429397017e-01
     5598000000    2.462159283e-02    1.634261161e-01
     5601000000   -4.173209146e-02    1.578142345e-01
     5604000000   -9.852929413e-02    1.450797468e-01
     5607000000   -1.405237019e-01    8.751250058e-02
     5610000000   -1.754041761e-01    4.006036744e-02
     5613000000   -1.738480777e-01   -2.940938435e-02
     5616000000   -1.398051530e-01   -9.141635895e-02
     5619000000   -1.131057665e-01   -1.442387104e-01
     5622000000   -5.072505400e-02   -1.756208092e-01
     5625000000    1.903879642e-02   -1.829834282e-01
     5628000000    8.558529615e-02   -1.659762710e-01
     5631000000    1.435043365e-01   -1.326680034e-01
     5634000000    1.778243631e-01   -6.356599927e-02
     5637000000    2.005120963e-01    4.695051350e-03
     5640000000    1.780661941e-01    7.754655182e-02
     5643000000    1.422705799e-01    1.399905533e-01
     5646000000    8.118906617e-02    1.863548309e-01
     5649000000    1.091034431e-02    2.124468684e-01
     5652000000   -6.728036702e-02    2.073363513e-01
     5655000000   -1.371247321e-01    1.627629399e-01
     5658000000   -1.872868687e-01    1.011544168e-01
     5661000000   -2.165904641e-01    2.798948437e-02
     5664000000   -2.106918395e-01   -5.430480465e-02
     5667000000   -1.909642667e-01   -1.348251402e-01
     5670000000   -1.262625456e-01   -1.908348650e-01
     5673000000   -4.811824858e-02   -2.249730974e-01
     5676000000    3.963034227e-02   -2.373160869e-01
     5679000000    1.200640500e-01   -2.027619779e-01
     5682000000    1.955423802e-01   -1.489964873e-01
     5685000000    2.323925793e-01   -6.985428184e-02
     5688000000    2.587450743e-01    2.007798851e-02
     5691000000    2.264159620e-01    1.081675440e-01
     5694000000    1.760139018e-01    1.880495846e-01
     5697000000    1.011275277e-01    2.485092431e-01
     5700000000    5.260512233e-03    2.566611767e-01
     5703000000   -9.725040197e-02    2.588683963e-01
     5706000000   -1.811112463e-01    2.022265643e-01
     5709000000   -2.460011691e-01    1.260827333e-01
     5712000000   -2.750376761e-01    2.931933664e-02
     5715000000   -2.652470767e-01   -7.074125111e-02
     5718000000   -2.268591970e-01   -1.708478183e-01
     5721000000   -1.490290761e-01   -2.366254628e-01
     5724000000   -5.230147019e-02   -2.822786868e-01
     5727000000    5.181492865e-02   -2.834415734e-01
     5730000000    1.581137627e-01   -2.523629665e-01
     5733000000    2.385394126e-01   -1.772702336e-01
     5736000000    2.901322544e-01   -7.788620889e-02
     5739000000    3.013316989e-01    2.934561856e-02
     5742000000    2.723909914e-01    1.393087655e-01
     5745000000    2.084647119e-01    2.398197800e-01
     5748000000    1.127652153e-01    2.832143009e-01
     5751000000   -1.397307613e-03    3.109140098e-01
     5754000000   -1.270657033e-01    3.037890196e-01
     5757000000   -2.176449299e-01    2.339336574e-01
     5760000000   -2.929124534e-01    1.418902725e-01
     5763000000   -3.217876852e-01    3.042223305e-02
     5766000000   -3.236920536e-01   -1.006799489e-01
     5769000000   -2.644773424e-01   -2.117282450e-01
     5772000000   -1.710568964e-01   -2.999100387e-01
     5775000000   -5.537983775e-02   -3.335019648e-01
     5778000000    6.983885914e-02   -3.387061656e-01
     5781000000    1.841381490e-01   -2.922941148e-01
     5784000000    2.917920947e-01   -2.042849511e-01
     5787000000    3.477010429e-01   -8.554548770e-02
     5790000000    3.555063009e-01    4.083795100e-02
     5793000000    3.232416213e-01    1.756651700e-01
     5796000000    2.404716462e-01    2.812499106e-01
     5799000000    1.232778281e-01    3.530485034e-01
     5802000000   -1.439947821e-02    3.767448962e-01
     5805000000   -1.421509683e-01    3.456486166e-01
     5808000000   -2.644639015e-01    2.756288946e-01
     5811000000   -3.548037410e-01    1.585173160e-01
     5814000000   -3.846023977e-01    3.016870469e-02
     5817000000   -3.753115833e-01   -1.206261516e-01
     5820000000   -3.072073162e-01   -2.476495653e-01
     5823000000   -1.967266798e-01   -3.474461734e-01
     5826000000   -6.135559455e-02   -3.942269683e-01
     5829000000    9.333740920e-02   -3.967293501e-01
     5832000000    2.235357612e-01   -3.364987373e-01
     5835000000    3.394506276e-01   -2.312599868e-01
     5838000000    3.977055550e-01   -1.009607613e-01
     5841000000    4.102143645e-01    5.058519915e-02
     5844000000    3.706212938e-01    2.003824264e-01
     5847000000    2.736690640e-01    3.290518820e-01
     5850000000    1.346881986e-01    4.089628160e-01
     5853000000   -1.242141332e-02    4.292278588e-01
     5856000000   -1.829724163e-01    4.001808763e-01
     5859000000   -3.023542464e-01    3.120436370e-01
     5862000000   -4.040897489e-01    1.772700846e-01
     5865000000   -4.391281009e-01    2.694825083e-02
     5868000000   -4.221825004e-01   -1.339597851e-01
     5871000000   -3.432677984e-01   -2.902607918e-01
     5874000000   -2.219783962e-01   -3.925496638e-01
     5877000000   -6.504042447e-02   -4.499932230e-01
     5880000000    9.163851291e-02   -4.460491240e-01
     5883000000    2.651480734e-01   -3.811857402e-01
     5886000000    3.788295984e-01   -2.652240098e-01
     5889000000    4.553090036e-01   -1.044872552e-01
     5892000000    4.650028348e-01    6.416905671e-02
     5895000000    4.148148298e-01    2.029931247e-01
     5898000000    2.913618386e-01    3.796979487e-01
     5901000000    1.655557454e-01    4.377013743e-01
     5904000000   -1.188059710e-02    4.741551280e-01
     5907000000   -2.028841674e-01    4.374956787e-01
     5910000000   -3.390215039e-01    3.429015875e-01
     5913000000   -4.442803264e-01    1.917533427e-01
     5916000000   -4.845752716e-01    3.119403124e-02
     5919000000   -4.625940621e-01   -1.711109728e-01
     5922000000   -3.772137165e-01   -3.143636286e-01
     5925000000   -2.432760447e-01   -4.316127896e-01
     5928000000   -6.857766956e-02   -4.920729399e-01
     5931000000    1.120451614e-01   -4.876967072e-01
     5934000000    2.836192548e-01   -4.172917902e-01
     5937000000    4.207254052e-01   -2.819480598e-01
     5940000000    4.949245155e-01   -1.101194471e-01
     5943000000    5.021364093e-01    8.175661415e-02
     5946000000    4.474716485e-01    2.407418936e-01
     5949000000    3.121389747e-01    4.084738493e-01
     5952000000    1.635741740e-01    4.849495888e-01
     5955000000   -2.586700721e-03    5.120879412e-01
     5958000000   -2.224762887e-01    4.698741436e-01
     5961000000   -3.716070950e-01    3.650329411e-01
     5964000000   -4.826362133e-01    2.025130093e-01
     5967000000   -5.241135359e-01    4.240424931e-02
     5970000000   -4.909267724e-01   -2.000012398e-01
     5973000000   -4.039390385e-01   -3.402698338e-01
     5976000000   -2.468153685e-01   -4.713612795e-01
     5979000000   -7.756018639e-02   -5.253041387e-01
     5982000000    1.214471608e-01   -5.161021948e-01
     5985000000    3.076896369e-01   -4.361854792e-01
     5988000000    4.493993223e-01   -2.951287031e-01
     5991000000    5.344967842e-01   -9.377603233e-02
     5994000000    5.348840952e-01    8.919616789e-02
     5997000000    4.692634046e-01    2.778821588e-01
     6000000000    3.381599486e-01    4.281988740e-01
