! NanoVNA-App
! Date: 2026-05-22 22:05:30
! Start: 1GHz Stop: 1.2GHz Points: 401
! S-Parameter data: F S11
# Hz S RI R 50
!     Frequency           S11_Real           S11_Imag
     1000000000   -2.912306190e-01   -3.453063965e-01
     1000500000   -2.994565666e-01   -3.403235376e-01
     1001000000   -3.070135415e-01   -3.365472853e-01
     1001500000   -3.139726818e-01   -3.321402669e-01
     1002000000   -3.214397430e-01   -3.279234469e-01
     1002500000   -3.290820122e-01   -3.232683837e-01
     1003000000   -3.358395994e-01   -3.196606338e-01
     1003500000   -3.433673978e-01   -3.159557283e-01
     1004000000   -3.501570821e-01   -3.134370148e-01
     1004500000   -3.565221131e-01   -3.105994761e-01
     1005000000   -3.640759289e-01   -3.056443334e-01
     1005500000   -3.694039881e-01   -3.046419919e-01
     1006000000   -3.763993979e-01   -3.007907271e-01
     1006500000   -3.820106685e-01   -2.987502515e-01
     1007000000   -3.878660798e-01   -2.961421609e-01
     1007500000   -3.936167359e-01   -2.939532697e-01
     1008000000   -3.989475667e-01   -2.910951674e-01
     1008500000   -4.032852352e-01   -2.901610732e-01
     1009000000   -4.084556699e-01   -2.866557837e-01
     1009500000   -4.123745859e-01   -2.868410051e-01
     1010000000   -4.170064330e-01   -2.833245993e-01
     1010500000   -4.195926189e-01   -2.841148376e-01
     1011000000   -4.229068458e-01   -2.815998495e-01
     1011500000   -4.257185459e-01   -2.815093994e-01
     1012000000   -4.291420579e-01   -2.777585685e-01
     1012500000   -4.304473400e-01   -2.794661820e-01
     1013000000   -4.326132536e-01   -2.782737911e-01
     1013500000   -4.341084659e-01   -2.778834403e-01
     1014000000   -4.356864393e-01   -2.762544751e-01
     1014500000   -4.365619719e-01   -2.761512399e-01
     1015000000   -4.370356500e-01   -2.756018639e-01
     1015500000   -4.370601177e-01   -2.754174769e-01
     1016000000   -4.370867908e-01   -2.753068805e-01
     1016500000   -4.367470741e-01   -2.737583518e-01
     1017000000   -4.359405339e-01   -2.740678787e-01
     1017500000   -4.344773889e-01   -2.738329768e-01
     1018000000   -4.333024025e-01   -2.730885148e-01
     1018500000   -4.312090278e-01   -2.726098895e-01
     1019000000   -4.292829037e-01   -2.718256712e-01
     1019500000   -4.270931482e-01   -2.709346712e-01
     1020000000   -4.247435927e-01   -2.696289420e-01
     1020500000   -4.216726124e-01   -2.693571150e-01
     1021000000   -4.188284278e-01   -2.674897313e-01
     1021500000   -4.142175019e-01   -2.680356205e-01
     1022000000   -4.106197655e-01   -2.654526234e-01
     1022500000   -4.074054360e-01   -2.631378174e-01
     1023000000   -4.026439786e-01   -2.614467144e-01
     1023500000   -3.982044756e-01   -2.589917779e-01
     1024000000   -3.939870894e-01   -2.555884421e-01
     1024500000   -3.875534534e-01   -2.545808852e-01
     1025000000   -3.823559284e-01   -2.512519360e-01
     1025500000   -3.774261773e-01   -2.469839603e-01
     1026000000   -3.712522984e-01   -2.439107299e-01
     1026500000   -3.651023209e-01   -2.408668399e-01
     1027000000   -3.578751385e-01   -2.371291667e-01
     1027500000   -3.511470556e-01   -2.324814647e-01
     1028000000   -3.446376026e-01   -2.277715355e-01
     1028500000   -3.371850252e-01   -2.235300392e-01
     1029000000   -3.298475146e-01   -2.193420678e-01
     1029500000   -3.216523230e-01   -2.144701630e-01
     1030000000   -3.130978048e-01   -2.096862644e-01
     1030500000   -3.058110178e-01   -2.043636739e-01
     1031000000   -2.978167236e-01   -1.986055672e-01
     1031500000   -2.884453535e-01   -1.933369339e-01
     1032000000   -2.800411880e-01   -1.875145733e-01
     1032500000   -2.704209983e-01   -1.820404530e-01
     1033000000   -2.614638209e-01   -1.764268130e-01
     1033500000   -2.532531023e-01   -1.693580151e-01
     1034000000   -2.426875085e-01   -1.643250883e-01
     1034500000   -2.334474325e-01   -1.584373862e-01
     1035000000   -2.238642126e-01   -1.523137689e-01
     1035500000   -2.127508223e-01   -1.473081112e-01
     1036000000   -2.035896033e-01   -1.407940984e-01
     1036500000   -1.928903311e-01   -1.355499029e-01
     1037000000   -1.824842095e-01   -1.299537420e-01
     1037500000   -1.716632247e-01   -1.249305904e-01
     1038000000   -1.606792361e-01   -1.205860004e-01
     1038500000   -1.501043141e-01   -1.157982722e-01
     1039000000   -1.396841854e-01   -1.115384474e-01
     1039500000   -1.290154159e-01   -1.074875146e-01
     1040000000   -1.185087785e-01   -1.040110141e-01
     1040500000   -1.077310368e-01   -1.005356014e-01
     1041000000   -9.774130583e-02   -9.761313349e-02
     1041500000   -8.734256774e-02   -9.520296007e-02
     1042000000   -7.772897929e-02   -9.313197434e-02
     1042500000   -6.810897589e-02   -9.128165245e-02
     1043000000   -5.876729265e-02   -8.960217983e-02
     1043500000   -4.995257407e-02   -8.854915202e-02
     1044000000   -4.160783440e-02   -8.760868758e-02
     1044500000   -3.318547830e-02   -8.716017753e-02
     1045000000   -2.506765723e-02   -8.668129146e-02
     1045500000   -1.733228005e-02   -8.620198816e-02
     1046000000   -9.442945011e-03   -8.630190045e-02
     1046500000   -2.765720477e-03   -8.707685769e-02
     1047000000    4.521818832e-03   -8.765476942e-02
     1047500000    1.117612794e-02   -8.819912374e-02
     1048000000    1.783460006e-02   -8.971990645e-02
     1048500000    2.386631817e-02   -9.121018648e-02
     1049000000    2.978776954e-02   -9.280943871e-02
     1049500000    3.574604541e-02   -9.442649782e-02
     1050000000    4.119260609e-02   -9.672894329e-02
     1050500000    4.641379416e-02   -9.946677834e-02
     1051000000    5.148063228e-02   -1.029041335e-01
     1051500000    5.607597530e-02   -1.058398858e-01
     1052000000    6.039886177e-02   -1.095836684e-01
     1052500000    6.495583802e-02   -1.127743274e-01
     1053000000    6.874585152e-02   -1.170689017e-01
     1053500000    7.235386223e-02   -1.211557463e-01
     1054000000    7.577827573e-02   -1.255588084e-01
     1054500000    7.937362045e-02   -1.298367083e-01
     1055000000    8.235101402e-02   -1.345330626e-01
     1055500000    8.543615043e-02   -1.399559975e-01
     1056000000    8.886021376e-02   -1.441787481e-01
     1056500000    9.132574499e-02   -1.496412903e-01
     1057000000    9.413044900e-02   -1.553680301e-01
     1057500000    9.670531005e-02   -1.607504189e-01
     1058000000    9.926055372e-02   -1.667432487e-01
     1058500000    1.014054045e-01   -1.723201871e-01
     1059000000    1.037610993e-01   -1.783241481e-01
     1059500000    1.060646549e-01   -1.842791736e-01
     1060000000    1.084861532e-01   -1.905845851e-01
     1060500000    1.104612797e-01   -1.970763654e-01
     1061000000    1.128394827e-01   -2.035802901e-01
     1061500000    1.146355048e-01   -2.099944353e-01
     1062000000    1.169023439e-01   -2.171138972e-01
     1062500000    1.191628128e-01   -2.230415195e-01
     1063000000    1.212430149e-01   -2.300325185e-01
     1063500000    1.227552146e-01   -2.363598943e-01
     1064000000    1.253505349e-01   -2.434691042e-01
     1064500000    1.266357601e-01   -2.497177422e-01
     1065000000    1.288454384e-01   -2.567552924e-01
     1065500000    1.305684745e-01   -2.635943294e-01
     1066000000    1.336302459e-01   -2.698603272e-01
     1066500000    1.352225095e-01   -2.765107751e-01
     1067000000    1.372685283e-01   -2.826901674e-01
     1067500000    1.399165392e-01   -2.895819247e-01
     1068000000    1.421401352e-01   -2.962521017e-01
     1068500000    1.444024891e-01   -3.021379411e-01
     1069000000    1.462395787e-01   -3.083330691e-01
     1069500000    1.489970982e-01   -3.149200976e-01
     1070000000    1.510953605e-01   -3.209640682e-01
     1070500000    1.548042148e-01   -3.264186978e-01
     1071000000    1.564210653e-01   -3.325421512e-01
     1071500000    1.584562361e-01   -3.381117582e-01
     1072000000    1.613837630e-01   -3.436645865e-01
     1072500000    1.631166488e-01   -3.494613171e-01
     1073000000    1.662625968e-01   -3.547985852e-01
     1073500000    1.686164141e-01   -3.597194850e-01
     1074000000    1.709754020e-01   -3.647795916e-01
     1074500000    1.732133180e-01   -3.692092597e-01
     1075000000    1.749749333e-01   -3.742029667e-01
     1075500000    1.771775633e-01   -3.787713945e-01
     1076000000    1.794142574e-01   -3.826539218e-01
     1076500000    1.813538373e-01   -3.864699304e-01
     1077000000    1.830443591e-01   -3.902006447e-01
     1077500000    1.844933629e-01   -3.944167495e-01
     1078000000    1.875956357e-01   -3.968702853e-01
     1078500000    1.894887537e-01   -3.999506831e-01
     1079000000    1.905128062e-01   -4.022701681e-01
     1079500000    1.926183403e-01   -4.049637020e-01
     1080000000    1.944296956e-01   -4.074182510e-01
     1080500000    1.964408159e-01   -4.092871249e-01
     1081000000    1.973528862e-01   -4.118515253e-01
     1081500000    2.003742158e-01   -4.129480720e-01
     1082000000    2.075974196e-01   -4.166633189e-01
     1082500000    2.086835653e-01   -4.181298614e-01
     1083000000    2.097544968e-01   -4.200240672e-01
     1083500000    2.126946896e-01   -4.203366041e-01
     1084000000    2.119841725e-01   -4.225999117e-01
     1084500000    2.153186649e-01   -4.222758412e-01
     1085000000    2.142269909e-01   -4.242904782e-01
     1085500000    2.154485285e-01   -4.251684546e-01
     1086000000    2.165451050e-01   -4.259430468e-01
     1086500000    2.175274938e-01   -4.264497459e-01
     1087000000    2.177068591e-01   -4.272648394e-01
     1087500000    2.178712189e-01   -4.279763699e-01
     1088000000    2.178152800e-01   -4.287269115e-01
     1088500000    2.180463821e-01   -4.291846156e-01
     1089000000    2.180731744e-01   -4.296010137e-01
     1089500000    2.182379663e-01   -4.298863709e-01
     1090000000    2.174293697e-01   -4.304792583e-01
     1090500000    2.164173871e-01   -4.311494529e-01
     1091000000    2.164862603e-01   -4.313746989e-01
     1091500000    2.150703967e-01   -4.319173396e-01
     1092000000    2.134528607e-01   -4.332090616e-01
     1092500000    2.122404575e-01   -4.334435463e-01
     1093000000    2.107556909e-01   -4.341203272e-01
     1093500000    2.085917741e-01   -4.347696006e-01
     1094000000    2.064049840e-01   -4.354622960e-01
     1094500000    2.041981220e-01   -4.363489449e-01
     1095000000    2.027472407e-01   -4.369155169e-01
     1095500000    1.992523670e-01   -4.377322495e-01
     1096000000    1.973721236e-01   -4.384584129e-01
     1096500000    1.944091618e-01   -4.391652346e-01
     1097000000    1.919142455e-01   -4.401724637e-01
     1097500000    1.876749694e-01   -4.411506951e-01
     1098000000    1.852615923e-01   -4.414707422e-01
     1098500000    1.812589467e-01   -4.431341887e-01
     1099000000    1.782225072e-01   -4.432666004e-01
     1099500000    1.737460196e-01   -4.451707900e-01
     1100000000    1.702578366e-01   -4.453618228e-01
     1100500000    1.673679650e-01   -4.467369318e-01
     1101000000    1.641713679e-01   -4.474552274e-01
     1101500000    1.618575752e-01   -4.479084611e-01
     1102000000    1.571883261e-01   -4.500940442e-01
     1102500000    1.542543620e-01   -4.510042965e-01
     1103000000    1.501771063e-01   -4.529157281e-01
     1103500000    1.462637484e-01   -4.544575810e-01
     1104000000    1.430000663e-01   -4.556511343e-01
     1104500000    1.402414292e-01   -4.574582279e-01
     1105000000    1.359317303e-01   -4.593921006e-01
     1105500000    1.326089203e-01   -4.615378380e-01
     1106000000    1.297363639e-01   -4.631404877e-01
     1106500000    1.251115948e-01   -4.658232033e-01
     1107000000    1.221598685e-01   -4.681848586e-01
     1107500000    1.190814823e-01   -4.699196219e-01
     1108000000    1.153255329e-01   -4.722122252e-01
     1108500000    1.120696366e-01   -4.744822979e-01
     1109000000    1.086898148e-01   -4.769378006e-01
     1109500000    1.067952290e-01   -4.791711867e-01
     1110000000    1.019320339e-01   -4.821959734e-01
     1110500000    9.991499037e-02   -4.844499528e-01
     1111000000    9.737830609e-02   -4.872697294e-01
     1111500000    9.335818142e-02   -4.896716177e-01
     1112000000    9.129193425e-02   -4.920900762e-01
     1112500000    8.725638688e-02   -4.947653413e-01
     1113000000    8.625529706e-02   -4.972986877e-01
     1113500000    8.158223331e-02   -4.999915957e-01
     1114000000    8.088583499e-02   -5.024093986e-01
     1114500000    7.941010594e-02   -5.054112673e-01
     1115000000    7.638562471e-02   -5.073751807e-01
     1115500000    7.306357473e-02   -5.096862912e-01
     1116000000    7.247495651e-02   -5.115595460e-01
     1116500000    6.873564422e-02   -5.136583447e-01
     1117000000    6.785839051e-02   -5.158737898e-01
     1117500000    6.778241694e-02   -5.179320574e-01
     1118000000    6.432194263e-02   -5.194549561e-01
     1118500000    6.266020983e-02   -5.212193131e-01
     1119000000    6.196503714e-02   -5.231533647e-01
     1119500000    6.081383303e-02   -5.244989991e-01
     1120000000    5.901487172e-02   -5.256283879e-01
     1120500000    5.860640481e-02   -5.267848372e-01
     1121000000    5.710424110e-02   -5.276781321e-01
     1121500000    5.630805716e-02   -5.289187431e-01
     1122000000    5.541126803e-02   -5.295178890e-01
     1122500000    5.489978939e-02   -5.303929448e-01
     1123000000    5.613278598e-02   -5.312398076e-01
     1123500000    5.364206806e-02   -5.312134027e-01
     1124000000    5.694182217e-02   -5.316967964e-01
     1124500000    5.174878985e-02   -5.323762894e-01
     1125000000    5.330919847e-02   -5.328812599e-01
     1125500000    5.520655960e-02   -5.329228044e-01
     1126000000    5.469361320e-02   -5.330035090e-01
     1126500000    5.374945700e-02   -5.332207084e-01
     1127000000    5.137508735e-02   -5.331384540e-01
     1127500000    5.470037460e-02   -5.329169035e-01
     1128000000    5.448092893e-02   -5.328879952e-01
     1128500000    5.282173306e-02   -5.323684216e-01
     1129000000    5.252933875e-02   -5.322670341e-01
     1129500000    5.530195311e-02   -5.315274596e-01
     1130000000    5.224629119e-02   -5.311674476e-01
     1130500000    5.411511660e-02   -5.303351879e-01
     1131000000    5.105466023e-02   -5.297653675e-01
     1131500000    5.216550082e-02   -5.289691687e-01
     1132000000    5.029167235e-02   -5.281389952e-01
     1132500000    4.946801811e-02   -5.270806551e-01
     1133000000    4.786821082e-02   -5.265619159e-01
     1133500000    4.768293351e-02   -5.241876841e-01
     1134000000    4.669946432e-02   -5.233364701e-01
     1134500000    4.433444887e-02   -5.217114091e-01
     1135000000    4.386203364e-02   -5.202031732e-01
     1135500000    4.047032073e-02   -5.188100934e-01
     1136000000    3.956972435e-02   -5.167667270e-01
     1136500000    3.875183687e-02   -5.141839981e-01
     1137000000    3.533202037e-02   -5.126053691e-01
     1137500000    3.290539235e-02   -5.109525323e-01
     1138000000    3.132669255e-02   -5.081247687e-01
     1138500000    2.902339026e-02   -5.061050653e-01
     1139000000    2.743422799e-02   -5.042525530e-01
     1139500000    2.446393855e-02   -5.020806193e-01
     1140000000    1.957524382e-02   -5.000336766e-01
     1140500000    1.829607226e-02   -4.974054396e-01
     1141000000    1.448791102e-02   -4.946866035e-01
     1141500000    1.090280153e-02   -4.922046363e-01
     1142000000    8.150947280e-03   -4.898616970e-01
     1142500000    5.603103433e-03   -4.870537221e-01
     1143000000    1.226798515e-03   -4.850258827e-01
     1143500000   -3.823581617e-03   -4.824769497e-01
     1144000000   -7.587707601e-03   -4.796846807e-01
     1144500000   -1.221689675e-02   -4.776023328e-01
     1145000000   -1.614496484e-02   -4.746097624e-01
     1145500000   -2.039423399e-02   -4.712090194e-01
     1146000000   -2.524694428e-02   -4.685137570e-01
     1146500000   -3.011274897e-02   -4.651726484e-01
     1147000000   -3.542139754e-02   -4.621916711e-01
     1147500000   -4.033946246e-02   -4.587093890e-01
     1148000000   -4.505292326e-02   -4.555474818e-01
     1148500000   -4.967491329e-02   -4.517047107e-01
     1149000000   -5.459167436e-02   -4.487407207e-01
     1149500000   -5.958556756e-02   -4.447259307e-01
     1150000000   -6.460242718e-02   -4.415359497e-01
     1150500000   -6.889107823e-02   -4.380951822e-01
     1151000000   -7.393586636e-02   -4.339777529e-01
     1151500000   -7.910848409e-02   -4.302388430e-01
     1152000000   -8.386581391e-02   -4.264777899e-01
     1152500000   -8.836199343e-02   -4.229736328e-01
     1153000000   -9.289800376e-02   -4.192254543e-01
     1153500000   -9.790365398e-02   -4.155436456e-01
     1154000000   -1.018218994e-01   -4.116326571e-01
     1154500000   -1.075582802e-01   -4.068309963e-01
     1155000000   -1.115771532e-01   -4.033424854e-01
     1155500000   -1.151921973e-01   -3.992754817e-01
     1156000000   -1.197029278e-01   -3.950097561e-01
     1156500000   -1.233827025e-01   -3.912219107e-01
     1157000000   -1.281630099e-01   -3.865102232e-01
     1157500000   -1.315428317e-01   -3.827125132e-01
     1158000000   -1.357796341e-01   -3.778008223e-01
     1158500000   -1.384735107e-01   -3.736614883e-01
     1159000000   -1.427257657e-01   -3.689369261e-01
     1159500000   -1.451906115e-01   -3.645406663e-01
     1160000000   -1.472837180e-01   -3.607458770e-01
     1160500000   -1.510533988e-01   -3.553312123e-01
     1161000000   -1.531617641e-01   -3.514673114e-01
     1161500000   -1.567700505e-01   -3.456651270e-01
     1162000000   -1.570308506e-01   -3.424362540e-01
     1162500000   -1.615980864e-01   -3.359816372e-01
     1163000000   -1.627543271e-01   -3.313260972e-01
     1163500000   -1.643208265e-01   -3.263625503e-01
     1164000000   -1.650021225e-01   -3.215428293e-01
     1164500000   -1.665907204e-01   -3.157871068e-01
     1165000000   -1.685469598e-01   -3.093217313e-01
     1165500000   -1.684518009e-01   -3.043429852e-01
     1166000000   -1.688339114e-01   -2.984481752e-01
     1166500000   -1.677139401e-01   -2.930573821e-01
     1167000000   -1.672660112e-01   -2.873992324e-01
     1167500000   -1.681065261e-01   -2.799891531e-01
     1168000000   -1.670100242e-01   -2.745161355e-01
     1168500000   -1.653458774e-01   -2.682672143e-01
     1169000000   -1.636375785e-01   -2.622356117e-01
     1169500000   -1.617705822e-01   -2.558429539e-01
     1170000000   -1.592746973e-01   -2.498966008e-01
     1170500000   -1.567197442e-01   -2.434607893e-01
     1171000000   -1.537234783e-01   -2.383650988e-01
     1171500000   -1.500713080e-01   -2.322209924e-01
     1172000000   -1.462423056e-01   -2.266102582e-01
     1172500000   -1.429485679e-01   -2.211688608e-01
     1173000000   -1.386647224e-01   -2.151728421e-01
     1173500000   -1.349037290e-01   -2.100104988e-01
     1174000000   -1.303305775e-01   -2.043980956e-01
     1174500000   -1.257238537e-01   -1.992522776e-01
     1175000000   -1.205588356e-01   -1.944844127e-01
     1175500000   -1.161857620e-01   -1.890332550e-01
     1176000000   -1.109230071e-01   -1.842845827e-01
     1176500000   -1.044168770e-01   -1.799948066e-01
     1177000000   -1.010909975e-01   -1.749292016e-01
     1177500000   -9.378942102e-02   -1.706510484e-01
     1178000000   -8.908620477e-02   -1.660937220e-01
     1178500000   -8.397595584e-02   -1.616650969e-01
     1179000000   -7.690690458e-02   -1.578362286e-01
     1179500000   -7.175520062e-02   -1.538173258e-01
     1180000000   -6.426234543e-02   -1.496005803e-01
     1180500000   -5.896353349e-02   -1.457091123e-01
     1181000000   -5.255819485e-02   -1.425999105e-01
     1181500000   -4.690807313e-02   -1.392489076e-01
     1182000000   -3.941510245e-02   -1.353887618e-01
     1182500000   -3.336780146e-02   -1.326032132e-01
     1183000000   -2.658100612e-02   -1.296715438e-01
     1183500000   -1.984937303e-02   -1.264396161e-01
     1184000000   -1.335867215e-02   -1.241152436e-01
     1184500000   -6.401073653e-03   -1.213681623e-01
     1185000000    4.105630505e-04   -1.190893278e-01
     1185500000    7.645821199e-03   -1.167710721e-01
     1186000000    1.418817230e-02   -1.146747842e-01
     1186500000    2.126713656e-02   -1.134159043e-01
     1187000000    2.884107828e-02   -1.114419252e-01
     1187500000    3.581155092e-02   -1.101849675e-01
     1188000000    4.349814355e-02   -1.093495339e-01
     1188500000    5.074195191e-02   -1.084793136e-01
     1189000000    5.820897594e-02   -1.082845032e-01
     1189500000    6.517875940e-02   -1.085802689e-01
     1190000000    7.281619310e-02   -1.079378352e-01
     1190500000    7.981991768e-02   -1.083684713e-01
     1191000000    8.726782352e-02   -1.096960157e-01
     1191500000    9.498003125e-02   -1.090286523e-01
     1192000000    1.017215773e-01   -1.105503514e-01
     1192500000    1.086094007e-01   -1.124150604e-01
     1193000000    1.160659268e-01   -1.139192879e-01
     1193500000    1.229712218e-01   -1.155749336e-01
     1194000000    1.304951161e-01   -1.167554259e-01
     1194500000    1.374850124e-01   -1.188374832e-01
     1195000000    1.442745775e-01   -1.224503219e-01
     1195500000    1.515516043e-01   -1.230549812e-01
     1196000000    1.589927524e-01   -1.260391474e-01
     1196500000    1.659118384e-01   -1.287385970e-01
     1197000000    1.727798283e-01   -1.318564266e-01
     1197500000    1.804495752e-01   -1.349525750e-01
     1198000000    1.875523180e-01   -1.379762292e-01
     1198500000    1.944829971e-01   -1.418488920e-01
     1199000000    2.018206567e-01   -1.452138424e-01
     1199500000    2.090747505e-01   -1.488244683e-01
     1200000000    2.155569047e-01   -1.525752395e-01
