! NanoVNA-App
! Date: 2026-05-22 22:07:20
! Start: 1GHz Stop: 1.2GHz Points: 401
! S-Parameter data: F S11
# Hz S RI R 50
!     Frequency           S11_Real           S11_Imag
     1000000000    7.916209288e-03   -4.091046751e-01
     1000500000    1.049491693e-03   -4.083559215e-01
     1001000000   -4.813693464e-03   -4.077136219e-01
     1001500000   -1.037253346e-02   -4.080876410e-01
     1002000000   -1.696883701e-02   -4.082882404e-01
     1002500000   -2.329942957e-02   -4.084743559e-01
     1003000000   -2.921912633e-02   -4.089455009e-01
     1003500000   -3.564847633e-02   -4.092215300e-01
     1004000000   -4.117001593e-02   -4.108383358e-01
     1004500000   -4.798544943e-02   -4.120307267e-01
     1005000000   -5.371896550e-02   -4.130106866e-01
     1005500000   -5.868412927e-02   -4.151368439e-01
     1006000000   -6.552939117e-02   -4.167777300e-01
     1006500000   -7.056156546e-02   -4.187734723e-01
     1007000000   -7.658188045e-02   -4.208304882e-01
     1007500000   -8.245287091e-02   -4.236416221e-01
     1008000000   -8.757113665e-02   -4.262529314e-01
     1008500000   -9.325636923e-02   -4.286721349e-01
     1009000000   -9.742513299e-02   -4.321844876e-01
     1009500000   -1.024579629e-01   -4.349466860e-01
     1010000000   -1.072785631e-01   -4.382111132e-01
     1010500000   -1.111887693e-01   -4.421654940e-01
     1011000000   -1.156203821e-01   -4.447569549e-01
     1011500000   -1.190568507e-01   -4.490330219e-01
     1012000000   -1.229925156e-01   -4.523001611e-01
     1012500000   -1.260066628e-01   -4.562946856e-01
     1013000000   -1.289082766e-01   -4.599463046e-01
     1013500000   -1.313513517e-01   -4.640727341e-01
     1014000000   -1.341513544e-01   -4.678361714e-01
     1014500000   -1.363590360e-01   -4.717437625e-01
     1015000000   -1.382953376e-01   -4.753381312e-01
     1015500000   -1.399636418e-01   -4.794966280e-01
     1016000000   -1.406679749e-01   -4.839382768e-01
     1016500000   -1.415686905e-01   -4.875102341e-01
     1017000000   -1.418813020e-01   -4.915201068e-01
     1017500000   -1.417122781e-01   -4.955132902e-01
     1018000000   -1.418845952e-01   -4.995283782e-01
     1018500000   -1.416749507e-01   -5.032709241e-01
     1019000000   -1.403306723e-01   -5.074825287e-01
     1019500000   -1.400742829e-01   -5.112304688e-01
     1020000000   -1.387471408e-01   -5.149987936e-01
     1020500000   -1.378539652e-01   -5.184421539e-01
     1021000000   -1.343341619e-01   -5.227726698e-01
     1021500000   -1.334949136e-01   -5.256676674e-01
     1022000000   -1.324388087e-01   -5.289738774e-01
     1022500000   -1.288707256e-01   -5.332192779e-01
     1023000000   -1.245704219e-01   -5.372936726e-01
     1023500000   -1.221770272e-01   -5.399993658e-01
     1024000000   -1.214789897e-01   -5.422082543e-01
     1024500000   -1.172175258e-01   -5.457352400e-01
     1025000000   -1.128416657e-01   -5.495293140e-01
     1025500000   -1.116725206e-01   -5.514923334e-01
     1026000000   -1.069654226e-01   -5.541697741e-01
     1026500000   -1.039914042e-01   -5.568841696e-01
     1027000000   -9.921281040e-02   -5.590922236e-01
     1027500000   -9.597252309e-02   -5.618981719e-01
     1028000000   -9.303885698e-02   -5.628646016e-01
     1028500000   -8.811059594e-02   -5.650989413e-01
     1029000000   -8.505108207e-02   -5.666896105e-01
     1029500000   -8.085910976e-02   -5.683278441e-01
     1030000000   -7.746831328e-02   -5.692912936e-01
     1030500000   -7.393833995e-02   -5.702822804e-01
     1031000000   -7.048763335e-02   -5.717039108e-01
     1031500000   -6.809819490e-02   -5.718281269e-01
     1032000000   -6.424569339e-02   -5.718680024e-01
     1032500000   -5.857671797e-02   -5.725057125e-01
     1033000000   -5.791314319e-02   -5.720635056e-01
     1033500000   -5.486400425e-02   -5.721028447e-01
     1034000000   -4.989430681e-02   -5.717260242e-01
     1034500000   -4.880242050e-02   -5.707495213e-01
     1035000000   -4.658905789e-02   -5.703976154e-01
     1035500000   -4.135214910e-02   -5.695071816e-01
     1036000000   -3.975361958e-02   -5.679096580e-01
     1036500000   -3.776703775e-02   -5.672533512e-01
     1037000000   -3.586678579e-02   -5.664395094e-01
     1037500000   -3.464243934e-02   -5.648665428e-01
     1038000000   -3.081453219e-02   -5.639034510e-01
     1038500000   -3.096033074e-02   -5.619297624e-01
     1039000000   -2.883996628e-02   -5.603829026e-01
     1039500000   -2.761133760e-02   -5.583261847e-01
     1040000000   -2.630588040e-02   -5.564610362e-01
     1040500000   -2.522019669e-02   -5.547283292e-01
     1041000000   -2.413336560e-02   -5.529620051e-01
     1041500000   -2.384729683e-02   -5.507759452e-01
     1042000000   -2.334785275e-02   -5.490634441e-01
     1042500000   -2.287358418e-02   -5.468779206e-01
     1043000000   -2.284997888e-02   -5.459989309e-01
     1043500000   -2.319520153e-02   -5.439178348e-01
     1044000000   -2.444072813e-02   -5.429840088e-01
     1044500000   -2.395496517e-02   -5.405582190e-01
     1045000000   -2.441252023e-02   -5.389193296e-01
     1045500000   -2.561335452e-02   -5.376964808e-01
     1046000000   -2.672796510e-02   -5.358167291e-01
     1046500000   -2.789638378e-02   -5.350120664e-01
     1047000000   -2.925889194e-02   -5.333694220e-01
     1047500000   -3.019724041e-02   -5.319085121e-01
     1048000000   -3.356799856e-02   -5.312156081e-01
     1048500000   -3.284006938e-02   -5.394933224e-01
     1049000000   -3.510437906e-02   -5.382769108e-01
     1049500000   -3.675866872e-02   -5.379028916e-01
     1050000000   -3.977777436e-02   -5.368878841e-01
     1050500000   -4.142178223e-02   -5.354653597e-01
     1051000000   -4.397163168e-02   -5.349838734e-01
     1051500000   -4.592787847e-02   -5.342782140e-01
     1052000000   -4.975722730e-02   -5.335552692e-01
     1052500000   -5.035826191e-02   -5.331933498e-01
     1053000000   -5.358752236e-02   -5.327946544e-01
     1053500000   -5.737557262e-02   -5.315103531e-01
     1054000000   -5.981398746e-02   -5.314117074e-01
     1054500000   -6.151326373e-02   -5.313049555e-01
     1055000000   -6.360606104e-02   -5.312837362e-01
     1055500000   -6.578996778e-02   -5.314724445e-01
     1056000000   -6.879498065e-02   -5.306814909e-01
     1056500000   -7.118321955e-02   -5.308957100e-01
     1057000000   -7.297039032e-02   -5.309551358e-01
     1057500000   -7.536872476e-02   -5.317313075e-01
     1058000000   -7.732099295e-02   -5.320531130e-01
     1058500000   -7.848774642e-02   -5.323445797e-01
     1059000000   -8.009564131e-02   -5.330537558e-01
     1059500000   -8.173830062e-02   -5.335274935e-01
     1060000000   -8.251780272e-02   -5.347045660e-01
     1060500000   -8.404541016e-02   -5.355510712e-01
     1061000000   -8.476851135e-02   -5.366420150e-01
     1061500000   -8.602008224e-02   -5.375099182e-01
     1062000000   -8.630106598e-02   -5.392261147e-01
     1062500000   -8.702880889e-02   -5.398695469e-01
     1063000000   -8.837914467e-02   -5.410957932e-01
     1063500000   -8.646345884e-02   -5.431813598e-01
     1064000000   -8.598884940e-02   -5.445740223e-01
     1064500000   -8.794416487e-02   -5.455439687e-01
     1065000000   -8.473929018e-02   -5.483700037e-01
     1065500000   -8.676887304e-02   -5.488313437e-01
     1066000000   -8.541429788e-02   -5.512276888e-01
     1066500000   -8.307984471e-02   -5.531315207e-01
     1067000000   -8.282963187e-02   -5.542045236e-01
     1067500000   -8.247227222e-02   -5.556186438e-01
     1068000000   -8.071802557e-02   -5.575488210e-01
     1068500000   -7.944927365e-02   -5.593045354e-01
     1069000000   -7.770847529e-02   -5.608103275e-01
     1069500000   -7.662923634e-02   -5.626008511e-01
     1070000000   -7.451912016e-02   -5.642406344e-01
     1070500000   -7.309246808e-02   -5.652224422e-01
     1071000000   -7.040280849e-02   -5.668982863e-01
     1071500000   -6.937913597e-02   -5.679040551e-01
     1072000000   -6.649032980e-02   -5.698005557e-01
     1072500000   -6.386107206e-02   -5.711296797e-01
     1073000000   -6.216064095e-02   -5.714276433e-01
     1073500000   -5.968954787e-02   -5.726245046e-01
     1074000000   -5.714431405e-02   -5.734536648e-01
     1074500000   -5.538691953e-02   -5.737947226e-01
     1075000000   -5.279751122e-02   -5.747125149e-01
     1075500000   -5.109174550e-02   -5.753121972e-01
     1076000000   -4.742438346e-02   -5.760777593e-01
     1076500000   -4.447377473e-02   -5.762788653e-01
     1077000000   -4.211262986e-02   -5.764359832e-01
     1077500000   -4.020609707e-02   -5.766033530e-01
     1078000000   -3.781525791e-02   -5.764141679e-01
     1078500000   -3.508993238e-02   -5.764431357e-01
     1079000000   -3.220059723e-02   -5.758339167e-01
     1079500000   -2.974799648e-02   -5.760520697e-01
     1080000000   -2.728922293e-02   -5.751650929e-01
     1080500000   -2.364859171e-02   -5.748195052e-01
     1081000000   -2.391468175e-02   -5.742176175e-01
     1081500000   -2.100569755e-02   -5.731375217e-01
     1082000000   -1.917521842e-02   -5.725673437e-01
     1082500000   -1.662319712e-02   -5.711818933e-01
     1083000000   -1.528424118e-02   -5.701856017e-01
     1083500000   -1.236995123e-02   -5.686858296e-01
     1084000000   -1.443580072e-02   -5.672227740e-01
     1084500000   -1.024335343e-02   -5.656477213e-01
     1085000000   -9.625506587e-03   -5.643444657e-01
     1085500000   -1.147943456e-02   -5.625810027e-01
     1086000000   -8.254385553e-03   -5.606189370e-01
     1086500000   -8.686452173e-03   -5.582414865e-01
     1087000000   -7.547996938e-03   -5.572624803e-01
     1087500000   -8.180775680e-03   -5.549816489e-01
     1088000000   -7.850998081e-03   -5.526385903e-01
     1088500000   -7.044800092e-03   -5.504240990e-01
     1089000000   -7.778595202e-03   -5.484842658e-01
     1089500000   -8.225889876e-03   -5.462875366e-01
     1090000000   -9.558100253e-03   -5.441544056e-01
     1090500000   -1.089416258e-02   -5.417513847e-01
     1091000000   -1.132181473e-02   -5.395607352e-01
     1091500000   -1.226284355e-02   -5.364591479e-01
     1092000000   -1.423984021e-02   -5.345641971e-01
     1092500000   -1.591664553e-02   -5.320802331e-01
     1093000000   -1.761214808e-02   -5.298523307e-01
     1093500000   -1.960279234e-02   -5.271216035e-01
     1094000000   -2.135495096e-02   -5.250619054e-01
     1094500000   -2.273732983e-02   -5.229409933e-01
     1095000000   -2.568189241e-02   -5.203710198e-01
     1095500000   -2.719661035e-02   -5.180530548e-01
     1096000000   -3.035260923e-02   -5.158265829e-01
     1096500000   -3.275806457e-02   -5.136138797e-01
     1097000000   -3.593714908e-02   -5.114841461e-01
     1097500000   -3.977718204e-02   -5.093542337e-01
     1098000000   -4.200683907e-02   -5.072966814e-01
     1098500000   -4.552099481e-02   -5.047317743e-01
     1099000000   -4.733008146e-02   -5.025537610e-01
     1099500000   -5.263025686e-02   -5.005559921e-01
     1100000000   -5.470050126e-02   -4.978698492e-01
     1100500000   -5.756557360e-02   -4.962417781e-01
     1101000000   -6.081782654e-02   -4.945567548e-01
     1101500000   -6.316716969e-02   -4.921171963e-01
     1102000000   -6.707929820e-02   -4.906882346e-01
     1102500000   -6.916267425e-02   -4.884390235e-01
     1103000000   -7.338091731e-02   -4.867789745e-01
     1103500000   -7.583234459e-02   -4.856416881e-01
     1104000000   -7.847303897e-02   -4.840007424e-01
     1104500000   -8.179308474e-02   -4.828867316e-01
     1105000000   -8.402494341e-02   -4.814907312e-01
     1105500000   -8.610074222e-02   -4.810889959e-01
     1106000000   -8.908211440e-02   -4.803405106e-01
     1106500000   -9.099701792e-02   -4.790688455e-01
     1107000000   -9.363864362e-02   -4.787882268e-01
     1107500000   -9.630732238e-02   -4.786195159e-01
     1108000000   -9.981106967e-02   -4.772070944e-01
     1108500000   -1.011829376e-01   -4.768884480e-01
     1109000000   -1.030198410e-01   -4.770360589e-01
     1109500000   -1.043502912e-01   -4.769817889e-01
     1110000000   -1.078287140e-01   -4.758507311e-01
     1110500000   -1.086087152e-01   -4.760677218e-01
     1111000000   -1.115400642e-01   -4.754983187e-01
     1111500000   -1.126169935e-01   -4.757158458e-01
     1112000000   -1.123222038e-01   -4.766606390e-01
     1112500000   -1.151386723e-01   -4.756680131e-01
     1113000000   -1.160179526e-01   -4.758017063e-01
     1113500000   -1.171084717e-01   -4.760664999e-01
     1114000000   -1.158929020e-01   -4.772210419e-01
     1114500000   -1.180308089e-01   -4.766400754e-01
     1115000000   -1.200558841e-01   -4.759120643e-01
     1115500000   -1.177805141e-01   -4.771190882e-01
     1116000000   -1.194067597e-01   -4.768545628e-01
     1116500000   -1.201138720e-01   -4.764452875e-01
     1117000000   -1.195354387e-01   -4.767560959e-01
     1117500000   -1.196568981e-01   -4.768165350e-01
     1118000000   -1.188782007e-01   -4.766184092e-01
     1118500000   -1.187167764e-01   -4.767329395e-01
     1119000000   -1.186022833e-01   -4.766192734e-01
     1119500000   -1.175972223e-01   -4.767676592e-01
     1120000000   -1.170049310e-01   -4.764010608e-01
     1120500000   -1.161725819e-01   -4.762576222e-01
     1121000000   -1.149823591e-01   -4.758067429e-01
     1121500000   -1.145383194e-01   -4.754780829e-01
     1122000000   -1.145072654e-01   -4.744368196e-01
     1122500000   -1.127168164e-01   -4.744292796e-01
     1123000000   -1.126656830e-01   -4.733762741e-01
     1123500000   -1.102481708e-01   -4.729208350e-01
     1124000000   -1.095205769e-01   -4.716628194e-01
     1124500000   -1.075515971e-01   -4.708929956e-01
     1125000000   -1.075352207e-01   -4.696893692e-01
     1125500000   -1.057781428e-01   -4.680512547e-01
     1126000000   -1.020283625e-01   -4.674117267e-01
     1126500000   -1.022577509e-01   -4.660102129e-01
     1127000000   -1.031445190e-01   -4.638341665e-01
     1127500000   -9.957002103e-02   -4.623236954e-01
     1128000000   -9.638411552e-02   -4.608512819e-01
     1128500000   -9.649576992e-02   -4.587384760e-01
     1129000000   -9.452196211e-02   -4.568164349e-01
     1129500000   -9.443660080e-02   -4.543629885e-01
     1130000000   -9.378476441e-02   -4.524307847e-01
     1130500000   -9.137403965e-02   -4.495517612e-01
     1131000000   -9.024529159e-02   -4.472458065e-01
     1131500000   -9.018699080e-02   -4.442844689e-01
     1132000000   -8.899678290e-02   -4.419845343e-01
     1132500000   -8.749117702e-02   -4.392675161e-01
     1133000000   -8.576524258e-02   -4.360113144e-01
     1133500000   -8.478894085e-02   -4.328325689e-01
     1134000000   -8.353048563e-02   -4.295268953e-01
     1134500000   -8.279779553e-02   -4.260349274e-01
     1135000000   -8.233840764e-02   -4.228262007e-01
     1135500000   -8.133343607e-02   -4.194869697e-01
     1136000000   -8.042064309e-02   -4.162762463e-01
     1136500000   -7.828440517e-02   -4.124579728e-01
     1137000000   -7.978605479e-02   -4.091925323e-01
     1137500000   -7.752353698e-02   -4.053638875e-01
     1138000000   -7.821548730e-02   -4.021062851e-01
     1138500000   -7.581327856e-02   -3.985033333e-01
     1139000000   -7.723460346e-02   -3.955964744e-01
     1139500000   -7.690506428e-02   -3.922505677e-01
     1140000000   -7.602870464e-02   -3.887742162e-01
     1140500000   -7.608839869e-02   -3.855802417e-01
     1141000000   -7.682587951e-02   -3.826907575e-01
     1141500000   -7.511229068e-02   -3.791708052e-01
     1142000000   -7.702970505e-02   -3.758417368e-01
     1142500000   -7.694713026e-02   -3.726136982e-01
     1143000000   -7.840218395e-02   -3.700694442e-01
     1143500000   -7.794478536e-02   -3.669787049e-01
     1144000000   -8.032278717e-02   -3.646147847e-01
     1144500000   -8.077017963e-02   -3.617956638e-01
     1145000000   -8.198042959e-02   -3.585216701e-01
     1145500000   -8.348470926e-02   -3.560431898e-01
     1146000000   -8.446673304e-02   -3.533296287e-01
     1146500000   -8.686254919e-02   -3.506501019e-01
     1147000000   -8.825461566e-02   -3.472527862e-01
     1147500000   -8.991576731e-02   -3.444881737e-01
     1148000000   -9.196932614e-02   -3.418627679e-01
     1148500000   -9.406090528e-02   -3.389435410e-01
     1149000000   -9.609856457e-02   -3.365448713e-01
     1149500000   -9.831475466e-02   -3.334846497e-01
     1150000000   -1.010692045e-01   -3.306908906e-01
     1150500000   -1.019079462e-01   -3.284673393e-01
     1151000000   -1.045337990e-01   -3.253701329e-01
     1151500000   -1.070073321e-01   -3.224852383e-01
     1152000000   -1.089028344e-01   -3.194497824e-01
     1152500000   -1.108054668e-01   -3.167176843e-01
     1153000000   -1.130356491e-01   -3.136850893e-01
     1153500000   -1.146196127e-01   -3.106515408e-01
     1154000000   -1.162823141e-01   -3.081782758e-01
     1154500000   -1.179724336e-01   -3.054845631e-01
     1155000000   -1.196650416e-01   -3.029210567e-01
     1155500000   -1.207635999e-01   -2.999306917e-01
     1156000000   -1.226184368e-01   -2.969965041e-01
     1156500000   -1.236776263e-01   -2.950096428e-01
     1157000000   -1.250642091e-01   -2.921126783e-01
     1157500000   -1.253032982e-01   -2.902926505e-01
     1158000000   -1.262522638e-01   -2.875426114e-01
     1158500000   -1.270951778e-01   -2.851663828e-01
     1159000000   -1.273413450e-01   -2.831345201e-01
     1159500000   -1.278965473e-01   -2.814870477e-01
     1160000000   -1.276997626e-01   -2.796458006e-01
     1160500000   -1.273737252e-01   -2.779296041e-01
     1161000000   -1.292070895e-01   -2.747479081e-01
     1161500000   -1.271160841e-01   -2.745080292e-01
     1162000000   -1.281230897e-01   -2.722423077e-01
     1162500000   -1.274898499e-01   -2.705151439e-01
     1163000000   -1.270639002e-01   -2.691486478e-01
     1163500000   -1.267009974e-01   -2.672598958e-01
     1164000000   -1.257619411e-01   -2.659023702e-01
     1164500000   -1.250400245e-01   -2.645037770e-01
     1165000000   -1.247093454e-01   -2.624524236e-01
     1165500000   -1.239099801e-01   -2.609466016e-01
     1166000000   -1.220249683e-01   -2.604175210e-01
     1166500000   -1.217945144e-01   -2.584472001e-01
     1167000000   -1.197991446e-01   -2.572960854e-01
     1167500000   -1.189237535e-01   -2.557129562e-01
     1168000000   -1.172951162e-01   -2.545618415e-01
     1168500000   -1.155353114e-01   -2.530324459e-01
     1169000000   -1.142719984e-01   -2.515362799e-01
     1169500000   -1.127410680e-01   -2.498639524e-01
     1170000000   -1.099674329e-01   -2.485379875e-01
     1170500000   -1.083589196e-01   -2.474929541e-01
     1171000000   -1.057049558e-01   -2.463106066e-01
     1171500000   -1.040511951e-01   -2.446399778e-01
     1172000000   -1.017145738e-01   -2.432724088e-01
     1172500000   -9.972333908e-02   -2.423839867e-01
     1173000000   -9.598194808e-02   -2.413592041e-01
     1173500000   -9.396579117e-02   -2.402244210e-01
     1174000000   -9.234003723e-02   -2.385503203e-01
     1174500000   -8.986215293e-02   -2.373786867e-01
     1175000000   -8.703508973e-02   -2.363854647e-01
     1175500000   -8.576234430e-02   -2.347905189e-01
     1176000000   -8.257675171e-02   -2.336490750e-01
     1176500000   -7.969969511e-02   -2.325488329e-01
     1177000000   -7.711900026e-02   -2.311144620e-01
     1177500000   -7.643568516e-02   -2.292246073e-01
     1178000000   -7.220835239e-02   -2.283788323e-01
     1178500000   -7.136534154e-02   -2.266009897e-01
     1179000000   -6.776633859e-02   -2.250757068e-01
     1179500000   -6.523439288e-02   -2.237934321e-01
     1180000000   -6.156752259e-02   -2.219756097e-01
     1180500000   -6.025421992e-02   -2.209862620e-01
     1181000000   -5.661201105e-02   -2.195288092e-01
     1181500000   -5.469124019e-02   -2.179691195e-01
     1182000000   -5.139949545e-02   -2.163206786e-01
     1182500000   -4.832927510e-02   -2.149181515e-01
     1183000000   -4.642548412e-02   -2.139365226e-01
     1183500000   -4.316423461e-02   -2.120946050e-01
     1184000000   -4.076804593e-02   -2.111101747e-01
     1184500000   -3.775931150e-02   -2.097385675e-01
     1185000000   -3.492274135e-02   -2.082450986e-01
     1185500000   -3.207019344e-02   -2.073340565e-01
     1186000000   -2.926752530e-02   -2.059545368e-01
     1186500000   -2.701154724e-02   -2.048951387e-01
     1187000000   -2.404733002e-02   -2.036159039e-01
     1187500000   -2.116896398e-02   -2.021712214e-01
     1188000000   -1.871835254e-02   -2.013750076e-01
     1188500000   -1.633519866e-02   -2.011480480e-01
     1189000000   -1.284363028e-02   -1.996097267e-01
     1189500000   -9.321933612e-03   -1.984213740e-01
     1190000000   -7.401483133e-03   -1.978454888e-01
     1190500000   -4.117834847e-03   -1.968269050e-01
     1191000000   -1.220216393e-03   -1.964332759e-01
     1191500000    1.020604279e-03   -1.957790256e-01
     1192000000    5.016875453e-03   -1.946540475e-01
     1192500000    7.488183677e-03   -1.945339292e-01
     1193000000    1.092981920e-02   -1.942353398e-01
     1193500000    1.361857634e-02   -1.935643852e-01
     1194000000    1.642517187e-02   -1.935932040e-01
     1194500000    2.037316747e-02   -1.922335625e-01
     1195000000    2.313994244e-02   -1.922066510e-01
     1195500000    2.614436112e-02   -1.920034885e-01
     1196000000    2.975151502e-02   -1.914579421e-01
     1196500000    3.312154859e-02   -1.911463439e-01
     1197000000    3.692809492e-02   -1.908998489e-01
     1197500000    4.036062956e-02   -1.905005425e-01
     1198000000    4.434208572e-02   -1.902621984e-01
     1198500000    4.802077636e-02   -1.898617148e-01
     1199000000    5.242150277e-02   -1.893841326e-01
     1199500000    5.635748804e-02   -1.892559230e-01
     1200000000    6.048326939e-02   -1.890294254e-01
