! NanoVNA-App
! Date: 2026-05-22 18:33:59
! Start: 4.8GHz Stop: 6GHz Points: 401
! S-Parameter data: F S11
# Hz S RI R 50
!     Frequency           S11_Real           S11_Imag
     4800000000   -1.108845919e-01   -5.692848563e-01
     4803000000    9.217675030e-02   -5.673640966e-01
     4806000000    2.836325765e-01   -4.963800311e-01
     4809000000    4.398865998e-01   -3.604163527e-01
     4812000000    5.301423669e-01   -1.821267009e-01
     4815000000    5.518286228e-01    1.262962632e-02
     4818000000    5.112290382e-01    2.109300345e-01
     4821000000    3.989679515e-01    3.755767047e-01
     4824000000    2.409573495e-01    4.888671935e-01
     4827000000    5.004347488e-02    5.372768044e-01
     4830000000   -1.335219890e-01    5.159157515e-01
     4833000000   -3.115956783e-01    4.319991469e-01
     4836000000   -4.376098514e-01    2.945286632e-01
     4839000000   -5.093582273e-01    1.204176322e-01
     4842000000   -5.150245428e-01   -6.431606412e-02
     4845000000   -4.552582502e-01   -2.377022207e-01
     4848000000   -3.408211172e-01   -3.789841831e-01
     4851000000   -1.859852374e-01   -4.654166400e-01
     4854000000   -9.876469150e-03   -4.974388778e-01
     4857000000    1.570467651e-01   -4.637335837e-01
     4860000000    3.122188151e-01   -3.728187382e-01
     4863000000    4.141073525e-01   -2.363967299e-01
     4866000000    4.677815139e-01   -7.400230318e-02
     4869000000    4.557253122e-01    9.462459385e-02
     4872000000    3.902409077e-01    2.441702038e-01
     4875000000    2.769472897e-01    3.562600911e-01
     4878000000    1.312878132e-01    4.244556725e-01
     4881000000   -2.420550957e-02    4.368464649e-01
     4884000000   -1.683705449e-01    3.958928287e-01
     4887000000   -2.961785495e-01    3.056255579e-01
     4890000000   -3.616355658e-01    1.933948994e-01
     4893000000   -4.116866291e-01    3.514271230e-02
     4896000000   -3.893464506e-01   -9.866707772e-02
     4899000000   -3.255415857e-01   -2.275500298e-01
     4902000000   -2.201668918e-01   -3.228328526e-01
     4905000000   -9.733442217e-02   -3.690462112e-01
     4908000000    3.999840468e-02   -3.743084073e-01
     4911000000    1.617741585e-01   -3.304437697e-01
     4914000000    2.579866946e-01   -2.474118322e-01
     4917000000    3.212722540e-01   -1.379667521e-01
     4920000000    3.372769058e-01   -2.326739766e-02
     4923000000    3.171177506e-01    1.054545715e-01
     4926000000    2.538920045e-01    1.994234920e-01
     4929000000    1.642232686e-01    2.723532915e-01
     4932000000    6.266340613e-02    3.016004860e-01
     4935000000   -3.625738621e-02    2.949756682e-01
     4938000000   -1.408822834e-01    2.537351549e-01
     4941000000   -2.210905701e-01    1.790765971e-01
     4944000000   -2.496360242e-01    1.031633541e-01
     4947000000   -2.652275264e-01   -3.261981532e-03
     4950000000   -2.400523275e-01   -8.587111533e-02
     4953000000   -1.896416545e-01   -1.589729041e-01
     4956000000   -1.175012887e-01   -2.091172934e-01
     4959000000   -3.167372942e-02   -2.305371910e-01
     4962000000    4.264328256e-02   -2.217625231e-01
     4965000000    1.078881621e-01   -1.886786222e-01
     4968000000    1.637730896e-01   -1.290824115e-01
     4971000000    1.906919777e-01   -6.147523224e-02
     4974000000    1.939688772e-01    7.819303311e-03
     4977000000    1.695646346e-01    7.484533638e-02
     4980000000    1.298983544e-01    1.187794358e-01
     4983000000    7.068075240e-02    1.540191174e-01
     4986000000    1.628548652e-02    1.617466509e-01
     4989000000   -3.612663597e-02    1.515481770e-01
     4992000000   -9.176904708e-02    1.160365492e-01
     4995000000   -1.157918945e-01    8.292508125e-02
     4998000000   -1.329607666e-01    2.682752162e-02
     5001000000   -1.302892417e-01   -6.416622084e-03
     5004000000   -1.053517014e-01   -6.243624166e-02
     5007000000   -7.626658678e-02   -8.861756325e-02
     5010000000   -3.703359142e-02   -1.044693366e-01
     5013000000   -7.775479462e-03   -1.079213917e-01
     5016000000    4.264201596e-02   -8.698954433e-02
     5019000000    5.975364521e-02   -7.611999661e-02
     5022000000    7.792408019e-02   -4.229674116e-02
     5025000000    8.466874808e-02   -1.315841451e-02
     5028000000    7.779280096e-02    2.075362206e-02
     5031000000    5.999585241e-02    4.436906800e-02
     5034000000    4.265306890e-02    5.925832689e-02
     5037000000    1.498102769e-02    6.686472893e-02
     5040000000   -1.055795792e-02    6.505984813e-02
     5043000000   -3.136291355e-02    5.534229428e-02
     5046000000   -4.489418119e-02    3.867724910e-02
     5049000000   -5.273782834e-02    1.911787689e-02
     5052000000   -5.276186019e-02   -2.291277517e-03
     5055000000   -4.776824266e-02   -1.879499666e-02
     5058000000   -3.204439953e-02   -3.307785839e-02
     5061000000   -2.144132368e-02   -4.137988761e-02
     5064000000   -4.754967056e-03   -4.363434389e-02
     5067000000    1.153070200e-02   -4.235061258e-02
     5070000000    2.676516213e-02   -3.614693880e-02
     5073000000    3.664232418e-02   -2.556865290e-02
     5076000000    4.348932952e-02   -9.051500820e-03
     5079000000    4.416643828e-02    6.707946304e-03
     5082000000    4.017815739e-02    1.912868209e-02
     5085000000    3.156151995e-02    3.075378202e-02
     5088000000    2.303245664e-02    4.021912068e-02
     5091000000    8.316529915e-03    4.582105577e-02
     5094000000   -7.513364311e-03    4.384378716e-02
     5097000000   -2.142176405e-02    4.728389904e-02
     5100000000   -3.457492217e-02    3.257243335e-02
     5103000000   -5.014375225e-02    2.539145201e-02
     5106000000   -5.222170055e-02    6.652161479e-03
     5109000000   -6.027143821e-02   -1.047350466e-02
     5112000000   -4.944935814e-02   -2.821866982e-02
     5115000000   -4.589352384e-02   -4.895295575e-02
     5118000000   -2.527086437e-02   -5.481963232e-02
     5121000000   -9.493703023e-03   -7.532816380e-02
     5124000000    1.137122419e-02   -6.635554880e-02
     5127000000    3.942947462e-02   -6.703928113e-02
     5130000000    5.884733424e-02   -5.090139061e-02
     5133000000    7.532301545e-02   -2.957797423e-02
     5136000000    8.476453274e-02   -4.715131596e-03
     5139000000    8.659390360e-02    2.762714587e-02
     5142000000    7.373787463e-02    5.527667701e-02
     5145000000    5.449203402e-02    8.215451241e-02
     5148000000    2.521049790e-02    1.009637937e-01
     5151000000   -1.035452448e-02    1.091563329e-01
     5154000000   -5.028291047e-02    1.050584763e-01
     5157000000   -8.437940478e-02    8.488024771e-02
     5160000000   -1.113981679e-01    5.388087034e-02
     5163000000   -1.275195181e-01    1.377664786e-02
     5166000000   -1.321520805e-01   -3.437332436e-02
     5169000000   -1.143477783e-01   -7.402151078e-02
     5172000000   -8.390361816e-02   -1.179234236e-01
     5175000000   -3.865832463e-02   -1.483819932e-01
     5178000000    1.503060386e-02   -1.575097889e-01
     5181000000    6.528256088e-02   -1.480821818e-01
     5184000000    1.213670596e-01   -1.210856065e-01
     5187000000    1.594197452e-01   -7.500858605e-02
     5190000000    1.798523217e-01   -1.570109650e-02
     5193000000    1.810607165e-01    4.687514156e-02
     5196000000    1.592209488e-01    1.101715863e-01
     5199000000    1.142557710e-01    1.629544795e-01
     5202000000    5.371189490e-02    1.978397369e-01
     5205000000   -2.070839144e-02    2.103713006e-01
     5208000000   -9.837430716e-02    1.962946206e-01
     5211000000   -1.629196107e-01    1.570820659e-01
     5214000000   -2.130982578e-01    9.425531328e-02
     5217000000   -2.389046699e-01    1.518353075e-02
     5220000000   -2.366180718e-01   -7.233716547e-02
     5223000000   -1.989794970e-01   -1.546868831e-01
     5226000000   -1.381957084e-01   -2.176574320e-01
     5229000000   -5.372826383e-02   -2.601253092e-01
     5232000000    4.127771035e-02   -2.690580785e-01
     5235000000    1.332471520e-01   -2.442723066e-01
     5238000000    2.141200155e-01   -1.875345558e-01
     5241000000    2.727561593e-01   -1.051046848e-01
     5244000000    2.975596488e-01   -2.688277513e-03
     5247000000    2.888492644e-01    1.015570313e-01
     5250000000    2.357327640e-01    1.987045556e-01
     5253000000    1.593855321e-01    2.743780613e-01
     5256000000    5.196952075e-02    3.153688014e-01
     5259000000   -6.132091209e-02    3.192220330e-01
     5262000000   -1.749650240e-01    2.815801203e-01
     5265000000   -2.619780898e-01    2.024488449e-01
     5268000000   -3.304910362e-01    1.060554460e-01
     5271000000   -3.431259096e-01   -2.054745331e-02
     5274000000   -3.221076131e-01   -1.420940906e-01
     5277000000   -2.599837184e-01   -2.505589426e-01
     5280000000   -1.573627591e-01   -3.289496005e-01
     5283000000   -3.184499592e-02   -3.677680790e-01
     5286000000    1.008075178e-01   -3.557929397e-01
     5289000000    2.217994183e-01   -3.025174439e-01
     5292000000    3.187907338e-01   -2.077067643e-01
     5295000000    3.769910336e-01   -8.123052865e-02
     5298000000    3.878934085e-01    5.666804686e-02
     5301000000    3.469301164e-01    1.908866018e-01
     5304000000    2.593278289e-01    3.026163876e-01
     5307000000    1.376808286e-01    3.821916282e-01
     5310000000   -5.342773162e-03    4.088857770e-01
     5313000000   -1.490761936e-01    3.853137493e-01
     5316000000   -2.788864076e-01    3.095360398e-01
     5319000000   -3.742576241e-01    1.945085377e-01
     5322000000   -4.207724333e-01    5.068534985e-02
     5325000000   -4.161418676e-01   -1.025617272e-01
     5328000000   -3.559447527e-01   -2.469746619e-01
     5331000000   -2.453503013e-01   -3.591206074e-01
     5334000000   -1.023878902e-01   -4.286170006e-01
     5337000000    5.536302552e-02   -4.393997490e-01
     5340000000    2.095044106e-01   -3.947765827e-01
     5343000000    3.433155119e-01   -2.946270108e-01
     5346000000    4.258137047e-01   -1.588363200e-01
     5349000000    4.612625539e-01    4.577916581e-03
     5352000000    4.352926910e-01    1.709166467e-01
     5355000000    3.515751958e-01    3.119312227e-01
     5358000000    2.181029022e-01    4.232764542e-01
     5361000000    5.488612130e-02    4.752809405e-01
     5364000000   -1.162964702e-01    4.687103331e-01
     5367000000   -2.639396489e-01    3.901521266e-01
     5370000000   -3.919594884e-01    2.723840475e-01
     5373000000   -4.906643033e-01    1.046810076e-01
     5376000000   -4.840533435e-01   -5.098079145e-02
     5379000000   -4.335887730e-01   -2.326693088e-01
     5382000000   -3.315589130e-01   -3.725456297e-01
     5385000000   -1.719402373e-01   -4.637084305e-01
     5388000000    1.924339868e-02   -5.181134939e-01
     5391000000    1.813362390e-01   -4.696494639e-01
     5394000000    3.280942142e-01   -3.774028122e-01
     5397000000    4.593141079e-01   -2.271206826e-01
     5400000000    5.074645281e-01   -5.422204360e-02
     5403000000    5.017669201e-01    1.364493817e-01
     5406000000    4.220020175e-01    3.113333881e-01
     5409000000    2.829707563e-01    4.408707619e-01
     5412000000    1.142444238e-01    5.084886551e-01
     5415000000   -9.039419889e-02    5.248495936e-01
     5418000000   -2.579853237e-01    4.599349201e-01
     5421000000   -4.089334607e-01    3.387999535e-01
     5424000000   -5.064523816e-01    1.684452742e-01
     5427000000   -5.445011258e-01   -4.086619243e-02
     5430000000   -4.919602573e-01   -2.072144449e-01
     5433000000   -3.870738447e-01   -3.733866215e-01
     5436000000   -2.230673134e-01   -4.984514415e-01
     5439000000   -3.716243804e-02   -5.425431728e-01
     5442000000    1.774609983e-01   -5.299021602e-01
     5445000000    3.497571349e-01   -4.330772758e-01
     5448000000    4.799191952e-01   -2.845562100e-01
     5451000000    5.492495298e-01   -9.641017020e-02
     5454000000    5.483139157e-01    1.051741466e-01
     5457000000    4.765829742e-01    2.934807241e-01
     5460000000    3.410295844e-01    4.481895864e-01
     5463000000    1.497620642e-01    5.499743819e-01
     5466000000   -4.954888672e-02    5.655777454e-01
     5469000000   -2.344564795e-01    5.137035847e-01
     5472000000   -4.232535958e-01    3.912188113e-01
     5475000000   -5.505170822e-01    1.978548467e-01
     5478000000   -5.706459284e-01    3.202217072e-02
     5481000000   -5.479738712e-01   -2.151785046e-01
     5484000000   -4.429207146e-01   -3.833635151e-01
     5487000000   -2.786695957e-01   -5.219215155e-01
     5490000000   -8.677373081e-02   -5.803022385e-01
     5493000000    1.311195344e-01   -5.715370178e-01
     5496000000    3.349158466e-01   -4.849703908e-01
     5499000000    4.821497500e-01   -3.399752975e-01
     5502000000    5.810068846e-01   -1.325836033e-01
     5505000000    5.899968147e-01    5.936698243e-02
     5508000000    5.261759758e-01    2.808062434e-01
     5511000000    3.905732036e-01    4.504369199e-01
     5514000000    1.990215033e-01    5.680308342e-01
     5517000000   -1.393900532e-02    6.052562594e-01
     5520000000   -2.194237709e-01    5.624495745e-01
     5523000000   -4.100174606e-01    4.451060593e-01
     5526000000   -5.402686000e-01    2.725033164e-01
     5529000000   -5.962578058e-01    6.819697469e-02
     5532000000   -5.786052942e-01   -1.644668579e-01
     5535000000   -4.917719960e-01   -3.524050117e-01
     5538000000   -3.254045248e-01   -5.045748949e-01
     5541000000   -1.143974364e-01   -5.938599110e-01
     5544000000    1.024364978e-01   -5.947528481e-01
     5547000000    3.171033561e-01   -5.162099004e-01
     5550000000    4.814412892e-01   -3.678521812e-01
     5553000000    5.725984573e-01   -1.877951175e-01
     5556000000    6.052965522e-01    3.569869697e-02
     5559000000    5.500462651e-01    2.399429083e-01
     5562000000    4.302584529e-01    4.188415706e-01
     5565000000    2.461318076e-01    5.511995554e-01
     5568000000    4.864209145e-02    5.977116227e-01
     5571000000   -1.960009485e-01    5.671113133e-01
     5574000000   -3.684260845e-01    4.718602300e-01
     5577000000   -5.137457848e-01    3.035212159e-01
     5580000000   -5.911378264e-01    8.863645792e-02
     5583000000   -5.878598094e-01   -1.065921858e-01
     5586000000   -4.961670339e-01   -3.350213468e-01
     5589000000   -3.609816730e-01   -4.710080922e-01
     5592000000   -1.634229571e-01   -5.700511932e-01
     5595000000    5.935158953e-02   -5.949592590e-01
     5598000000    2.621214390e-01   -5.358543992e-01
     5601000000    4.261077344e-01   -4.098509550e-01
     5604000000    5.543791056e-01   -2.122393399e-01
     5607000000    5.900874138e-01   -2.233624458e-02
     5610000000    5.534729958e-01    2.017455697e-01
     5613000000    4.411416948e-01    3.866922557e-01
     5616000000    2.813976109e-01    5.100359917e-01
     5619000000    8.585200459e-02    5.774744749e-01
     5622000000   -1.330272406e-01    5.642064810e-01
     5625000000   -3.219858706e-01    4.794389307e-01
     5628000000   -4.707787037e-01    3.356996477e-01
     5631000000   -5.579276681e-01    1.365893036e-01
     5634000000   -5.688671470e-01   -5.047234148e-02
     5637000000   -5.077142119e-01   -2.637864947e-01
     5640000000   -3.686712980e-01   -4.288625419e-01
     5643000000   -2.131984085e-01   -5.257251263e-01
     5646000000    3.388138488e-03   -5.595876575e-01
     5649000000    1.786166579e-01   -5.275614858e-01
     5652000000    3.699854016e-01   -4.072594345e-01
     5655000000    4.826304317e-01   -2.656974792e-01
     5658000000    5.395911336e-01   -8.024164289e-02
     5661000000    5.219868422e-01    1.317899078e-01
     5664000000    4.389785528e-01    3.063122630e-01
     5667000000    3.010907173e-01    4.372492731e-01
     5670000000    1.366693676e-01    5.093119740e-01
     5673000000   -5.880773067e-02    5.150964856e-01
     5676000000   -2.414533496e-01    4.514341056e-01
     5679000000   -3.746542633e-01    3.477975726e-01
     5682000000   -4.705961943e-01    1.713239551e-01
     5685000000   -5.025265217e-01    7.710569538e-03
     5688000000   -4.565250576e-01   -1.806423813e-01
     5691000000   -3.874787688e-01   -3.097608685e-01
     5694000000   -2.155366540e-01   -4.274330139e-01
     5697000000   -6.641015410e-02   -4.786103070e-01
     5700000000    9.797412902e-02   -4.671829641e-01
     5703000000    2.582789361e-01   -3.907937407e-01
     5706000000    3.742306828e-01   -2.764203846e-01
     5709000000    4.362624288e-01   -1.179604679e-01
     5712000000    4.455871582e-01    4.249134660e-02
     5715000000    3.816374540e-01    2.034979165e-01
     5718000000    3.024609983e-01    3.147843480e-01
     5721000000    1.561819464e-01    3.920146823e-01
     5724000000    1.284381934e-02    4.190942943e-01
     5727000000   -1.383301765e-01    3.864679635e-01
     5730000000   -2.602020800e-01    3.074717224e-01
     5733000000   -3.461579084e-01    1.889979094e-01
     5736000000   -3.858249187e-01    5.504548177e-02
     5739000000   -3.720623553e-01   -8.303949237e-02
     5742000000   -3.125399351e-01   -2.039220184e-01
     5745000000   -2.210530937e-01   -2.976592779e-01
     5748000000   -8.064665645e-02   -3.377736807e-01
     5751000000    2.859385312e-02   -3.607388139e-01
     5754000000    1.554325223e-01   -2.985042036e-01
     5757000000    2.455063015e-01   -2.130897194e-01
     5760000000    3.089177907e-01   -1.245770901e-01
     5763000000    3.213182390e-01   -7.226729766e-03
     5766000000    2.930858731e-01    1.057715565e-01
     5769000000    2.231524587e-01    1.978008002e-01
     5772000000    1.403496861e-01    2.624786794e-01
     5775000000    3.759548068e-02    2.901821136e-01
     5778000000   -6.318728626e-02    2.713011205e-01
     5781000000   -1.523174047e-01    2.173233777e-01
     5784000000   -2.148322761e-01    1.444937885e-01
     5787000000   -2.518948913e-01    5.836097896e-02
     5790000000   -2.298446894e-01   -3.862609714e-02
     5793000000   -2.031303942e-01   -1.175819635e-01
     5796000000   -1.381278038e-01   -1.767084599e-01
     5799000000   -5.804564804e-02   -2.026098818e-01
     5802000000    1.801971160e-02   -2.170307487e-01
     5805000000    9.173345566e-02   -1.829455197e-01
     5808000000    1.457671672e-01   -1.258605719e-01
     5811000000    1.758637726e-01   -6.213218719e-02
     5814000000    1.828630120e-01    7.083091885e-03
     5817000000    1.542486697e-01    6.976196915e-02
     5820000000    1.120352820e-01    1.172994673e-01
     5823000000    6.186858565e-02    1.583712250e-01
     5826000000   -1.700765919e-03    1.657479107e-01
     5829000000   -5.549512058e-02    1.383690536e-01
     5832000000   -9.888822585e-02    1.024936065e-01
     5835000000   -1.317003667e-01    5.729747936e-02
     5838000000   -1.361927837e-01    2.047762973e-03
     5841000000   -1.292560548e-01   -5.140372366e-02
     5844000000   -9.272248298e-02   -8.888728917e-02
     5847000000   -5.099514872e-02   -1.159917340e-01
     5850000000   -2.385143656e-03   -1.265904307e-01
     5853000000    4.089637473e-02   -1.063245237e-01
     5856000000    6.836871058e-02   -7.308133692e-02
     5859000000    9.825501591e-02   -4.359487817e-02
     5862000000    1.039362028e-01   -2.729821485e-03
     5865000000    9.103927761e-02    3.621688113e-02
     5868000000    6.664309651e-02    6.833714247e-02
     5871000000    3.201259300e-02    8.380121738e-02
     5874000000   -3.374213818e-03    9.012476355e-02
     5877000000   -3.727733344e-02    7.707808912e-02
     5880000000   -6.465546042e-02    5.439714342e-02
     5883000000   -7.833708078e-02    2.445295639e-02
     5886000000   -7.876899093e-02   -7.359624840e-03
     5889000000   -6.520730257e-02   -3.744990379e-02
     5892000000   -4.431899637e-02   -5.650543422e-02
     5895000000   -1.699658483e-02   -6.660939753e-02
     5898000000    1.026440505e-02   -6.628473103e-02
     5901000000    3.476718441e-02   -5.242729560e-02
     5904000000    5.178714544e-02   -3.097918071e-02
     5907000000    6.619436294e-02   -9.959422052e-03
     5910000000    6.239403039e-02    1.720776223e-02
     5913000000    4.066181928e-02    3.922413290e-02
     5916000000    1.978030242e-02    5.209434777e-02
     5919000000   -1.103259507e-03    5.886461958e-02
     5922000000   -2.731228061e-02    5.941768363e-02
     5925000000   -4.559746012e-02    3.864764050e-02
     5928000000   -5.312607065e-02    1.367732789e-02
     5931000000   -4.984056577e-02   -9.518467821e-03
     5934000000   -5.381965637e-02   -3.095168062e-02
     5937000000   -3.410862759e-02   -4.872730747e-02
     5940000000   -8.949289098e-03   -5.828273669e-02
     5943000000    1.752484031e-02   -5.454148725e-02
     5946000000    3.646054864e-02   -3.785571828e-02
     5949000000    4.715302214e-02   -1.276804414e-02
     5952000000    6.769997627e-02   -1.044499315e-02
     5955000000    3.746582940e-02    3.098398075e-02
     5958000000    4.955268279e-02    4.570435360e-02
     5961000000    2.383153513e-02    5.980547518e-02
     5964000000   -1.036389545e-02    5.408104137e-02
     5967000000   -3.499717265e-02    4.883123562e-02
     5970000000   -5.237179250e-02    3.285824507e-02
     5973000000   -6.014456972e-02    5.488219671e-03
     5976000000   -7.158410549e-02   -7.506404538e-03
     5979000000   -5.410790071e-02   -4.325425997e-02
     5982000000   -3.989592940e-02   -6.118119881e-02
     5985000000   -2.324328059e-03   -7.015392184e-02
     5988000000    1.880790666e-02   -7.321613282e-02
     5991000000    4.851794988e-02   -5.762128159e-02
     5994000000    7.087317109e-02   -3.272268921e-02
     5997000000    7.880894840e-02   -4.419629462e-03
     6000000000    7.318321615e-02    2.901279740e-02
