! NanoVNA-App
! Date: 2026-05-22 18:32:15
! Start: 2.3GHz Stop: 2.6GHz Points: 401
! S-Parameter data: F S11
# Hz S RI R 50
!     Frequency           S11_Real           S11_Imag
     2300000000    4.039515853e-01   -3.894283623e-02
     2300750000    4.033913016e-01   -5.726975854e-03
     2301500000    4.000753462e-01    3.073685989e-02
     2302250000    3.950509429e-01    6.142262369e-02
     2303000000    3.860286176e-01    9.558969736e-02
     2303750000    3.759372234e-01    1.233589202e-01
     2304500000    3.603709340e-01    1.571934074e-01
     2305250000    3.454144299e-01    1.842914522e-01
     2306000000    3.284576237e-01    2.092463523e-01
     2306750000    3.064047694e-01    2.369499207e-01
     2307500000    2.856234908e-01    2.588348985e-01
     2308250000    2.610216141e-01    2.809168398e-01
     2309000000    2.355199307e-01    3.004436195e-01
     2309750000    2.115350366e-01    3.158019185e-01
     2310500000    1.817662120e-01    3.313723505e-01
     2311250000    1.535489410e-01    3.432632387e-01
     2312000000    1.243646368e-01    3.525887728e-01
     2312750000    9.389478713e-02    3.596847057e-01
     2313500000    6.485619396e-02    3.638088107e-01
     2314250000    3.538956493e-02    3.658187091e-01
     2315000000    4.140065052e-03    3.652095199e-01
     2315750000   -2.579217777e-02    3.620898426e-01
     2316500000   -5.391914770e-02    3.570508063e-01
     2317250000   -8.281134814e-02    3.489420414e-01
     2318000000   -1.103762388e-01    3.392649889e-01
     2318750000   -1.352086514e-01    3.285955191e-01
     2319500000   -1.606868356e-01    3.134915829e-01
     2320250000   -1.853744984e-01    2.972091734e-01
     2321000000   -2.062406987e-01    2.809489667e-01
     2321750000   -2.264116555e-01    2.628832459e-01
     2322500000   -2.457636297e-01    2.404720485e-01
     2323250000   -2.633430958e-01    2.150781900e-01
     2324000000   -2.765625417e-01    1.952844113e-01
     2324750000   -2.878995836e-01    1.723505259e-01
     2325500000   -2.988628149e-01    1.465844065e-01
     2326250000   -3.067540824e-01    1.242084429e-01
     2327000000   -3.124506772e-01    9.330572188e-02
     2327750000   -3.161145747e-01    6.976799667e-02
     2328500000   -3.171957135e-01    4.253969714e-02
     2329250000   -3.180124760e-01    1.925218478e-02
     2330000000   -3.150885701e-01   -8.075579070e-03
     2330750000   -3.098518252e-01   -3.430844098e-02
     2331500000   -3.025848269e-01   -5.993017554e-02
     2332250000   -2.963575423e-01   -8.001194149e-02
     2333000000   -2.848332226e-01   -1.050013974e-01
     2333750000   -2.726860642e-01   -1.268341839e-01
     2334500000   -2.593072355e-01   -1.480762213e-01
     2335250000   -2.440542579e-01   -1.672828645e-01
     2336000000   -2.282168269e-01   -1.852134317e-01
     2336750000   -2.094910890e-01   -2.019480616e-01
     2337500000   -1.922453195e-01   -2.167943120e-01
     2338250000   -1.717271507e-01   -2.303047627e-01
     2339000000   -1.527630389e-01   -2.419703901e-01
     2339750000   -1.320169121e-01   -2.513431311e-01
     2340500000   -1.090888530e-01   -2.600704432e-01
     2341250000   -8.797968179e-02   -2.666159868e-01
     2342000000   -6.670746207e-02   -2.708001733e-01
     2342750000   -4.379697889e-02   -2.733092308e-01
     2343500000   -2.295372263e-02   -2.749702334e-01
     2344250000    3.833649971e-04   -2.731178999e-01
     2345000000    2.104760706e-02   -2.706345916e-01
     2345750000    3.959471360e-02   -2.674730420e-01
     2346500000    6.215438619e-02   -2.603521943e-01
     2347250000    8.124149591e-02   -2.534055114e-01
     2348000000    9.850906581e-02   -2.460718006e-01
     2348750000    1.185737029e-01   -2.330208570e-01
     2349500000    1.347942799e-01   -2.223306000e-01
     2350250000    1.505810320e-01   -2.096287310e-01
     2351000000    1.644094139e-01   -1.968059540e-01
     2351750000    1.770931631e-01   -1.835384667e-01
     2352500000    1.891600192e-01   -1.652260870e-01
     2353250000    2.005092204e-01   -1.472452581e-01
     2354000000    2.093808055e-01   -1.332369596e-01
     2354750000    2.170986980e-01   -1.139772534e-01
     2355500000    2.246706635e-01   -9.801351279e-02
     2356250000    2.285559624e-01   -7.805280387e-02
     2357000000    2.312803566e-01   -5.866596103e-02
     2357750000    2.347716540e-01   -4.223332182e-02
     2358500000    2.359339595e-01   -2.334354259e-02
     2359250000    2.336606830e-01   -4.015113227e-03
     2360000000    2.330898941e-01    1.200573612e-02
     2360750000    2.289858162e-01    3.096422367e-02
     2361500000    2.251076549e-01    4.692726210e-02
     2362250000    2.186573595e-01    6.375554204e-02
     2363000000    2.127100974e-01    7.943455875e-02
     2363750000    2.043081671e-01    9.481044114e-02
     2364500000    1.938838512e-01    1.091343835e-01
     2365250000    1.852259189e-01    1.224206686e-01
     2366000000    1.733596921e-01    1.348180175e-01
     2366750000    1.615416259e-01    1.465654671e-01
     2367500000    1.475549638e-01    1.570342034e-01
     2368250000    1.347710937e-01    1.662888825e-01
     2369000000    1.207449064e-01    1.748567671e-01
     2369750000    1.061997563e-01    1.825545877e-01
     2370500000    9.211020917e-02    1.890109032e-01
     2371250000    7.648448646e-02    1.941393614e-01
     2372000000    6.072726846e-02    1.976928264e-01
     2372750000    4.578575492e-02    2.019461542e-01
     2373500000    3.011442162e-02    2.033470720e-01
     2374250000    1.376948506e-02    2.031634152e-01
     2375000000   -1.621659845e-03    2.028595060e-01
     2375750000   -1.562081650e-02    2.028620392e-01
     2376500000   -3.022462688e-02    1.993524581e-01
     2377250000   -4.550305009e-02    1.962495446e-01
     2378000000   -5.911761522e-02    1.920334697e-01
     2378750000   -7.260078192e-02    1.855207384e-01
     2379500000   -8.576012403e-02    1.794754416e-01
     2380250000   -9.746268392e-02    1.717718840e-01
     2381000000   -1.096745804e-01    1.631442159e-01
     2381750000   -1.208228096e-01    1.547914147e-01
     2382500000   -1.305791438e-01    1.455752552e-01
     2383250000   -1.407421082e-01    1.339546144e-01
     2384000000   -1.490023285e-01    1.228160337e-01
     2384750000   -1.566553414e-01    1.114275604e-01
     2385500000   -1.644678861e-01    9.990950674e-02
     2386250000   -1.695860326e-01    8.672109246e-02
     2387000000   -1.752311587e-01    7.431448251e-02
     2387750000   -1.791147292e-01    6.101685017e-02
     2388500000   -1.823995262e-01    4.734774306e-02
     2389250000   -1.847884804e-01    3.412877396e-02
     2390000000   -1.866003722e-01    2.076258510e-02
     2390750000   -1.875504851e-01    6.842285860e-03
     2391500000   -1.860836297e-01   -7.119947579e-03
     2392250000   -1.846315861e-01   -1.980446838e-02
     2393000000   -1.828024238e-01   -3.320967034e-02
     2393750000   -1.793321371e-01   -4.648087174e-02
     2394500000   -1.752267480e-01   -5.850365385e-02
     2395250000   -1.702350974e-01   -7.086065412e-02
     2396000000   -1.645302176e-01   -8.266130835e-02
     2396750000   -1.578986049e-01   -9.429584444e-02
     2397500000   -1.505463421e-01   -1.046993732e-01
     2398250000   -1.423209161e-01   -1.148644164e-01
     2399000000   -1.333037913e-01   -1.248150170e-01
     2399750000   -1.231979579e-01   -1.336582899e-01
     2400500000   -1.129608899e-01   -1.418941617e-01
     2401250000   -1.020782590e-01   -1.492778361e-01
     2402000000   -9.108152241e-02   -1.557107568e-01
     2402750000   -7.921935618e-02   -1.619917899e-01
     2403500000   -6.745260954e-02   -1.666050851e-01
     2404250000   -5.461934581e-02   -1.707146764e-01
     2405000000   -4.179444909e-02   -1.739362478e-01
     2405750000   -2.884263732e-02   -1.764513105e-01
     2406500000   -1.567371190e-02   -1.774816662e-01
     2407250000   -2.858500928e-03   -1.777476966e-01
     2408000000    1.073102001e-02   -1.775511950e-01
     2408750000    2.427227795e-02   -1.758585423e-01
     2409500000    3.666930273e-02   -1.733766496e-01
     2410250000    4.993940517e-02   -1.701732576e-01
     2411000000    6.211370602e-02   -1.662489027e-01
     2411750000    7.482112199e-02   -1.608443111e-01
     2412500000    8.685603738e-02   -1.547841728e-01
     2413250000    9.773220122e-02   -1.481772661e-01
     2414000000    1.087382659e-01   -1.403217465e-01
     2414750000    1.190520525e-01   -1.316543370e-01
     2415500000    1.283536851e-01   -1.220711693e-01
     2416250000    1.380441785e-01   -1.120239496e-01
     2417000000    1.463476121e-01   -1.010112613e-01
     2417750000    1.538712382e-01   -8.950076997e-02
     2418500000    1.604225785e-01   -7.718828321e-02
     2419250000    1.665882021e-01   -6.474383920e-02
     2420000000    1.709307134e-01   -5.176164582e-02
     2420750000    1.746090949e-01   -3.826222941e-02
     2421500000    1.774328202e-01   -2.440311760e-02
     2422250000    1.793200374e-01   -1.012361236e-02
     2423000000    1.805407256e-01    4.376384430e-03
     2423750000    1.799269468e-01    1.795290224e-02
     2424500000    1.796859056e-01    3.267726675e-02
     2425250000    1.772724390e-01    4.702548683e-02
     2426000000    1.737710387e-01    6.117410958e-02
     2426750000    1.696793586e-01    7.489324361e-02
     2427500000    1.640184373e-01    8.842149377e-02
     2428250000    1.581202149e-01    1.015908644e-01
     2429000000    1.506883204e-01    1.138269976e-01
     2429750000    1.419363022e-01    1.260559708e-01
     2430500000    1.336096972e-01    1.382714361e-01
     2431250000    1.231891960e-01    1.472100466e-01
     2432000000    1.120178923e-01    1.577844769e-01
     2432750000    9.998673201e-02    1.675432175e-01
     2433500000    8.777806163e-02    1.747439951e-01
     2434250000    7.469500601e-02    1.806852520e-01
     2435000000    6.091965735e-02    1.869838089e-01
     2435750000    4.660571367e-02    1.919390559e-01
     2436500000    3.161141649e-02    1.962996721e-01
     2437250000    1.684645377e-02    1.977516562e-01
     2438000000    9.944712510e-04    2.028380185e-01
     2438750000   -1.376097277e-02    1.995787919e-01
     2439500000   -3.009411879e-02    1.992524862e-01
     2440250000   -4.379643500e-02    1.952710897e-01
     2441000000   -6.068465114e-02    1.934607178e-01
     2441750000   -7.440626621e-02    1.871394664e-01
     2442500000   -8.957219869e-02    1.816069186e-01
     2443250000   -1.039885432e-01    1.747639477e-01
     2444000000   -1.171626374e-01    1.663414091e-01
     2444750000   -1.306649297e-01    1.562441885e-01
     2445500000   -1.415556967e-01    1.454346478e-01
     2446250000   -1.539679468e-01    1.340423375e-01
     2447000000   -1.656734347e-01    1.207896620e-01
     2447750000   -1.734374464e-01    1.073866263e-01
     2448500000   -1.825612634e-01    9.247905016e-02
     2449250000   -1.899153739e-01    7.719710469e-02
     2450000000   -1.965767592e-01    6.178348511e-02
     2450750000   -2.008199543e-01    4.596104473e-02
     2451500000   -2.044279575e-01    2.942400053e-02
     2452250000   -2.073264122e-01    1.160083991e-02
     2453000000   -2.085350454e-01   -4.973501433e-03
     2453750000   -2.083592713e-01   -2.258819900e-02
     2454500000   -2.062097341e-01   -3.904931620e-02
     2455250000   -2.030573785e-01   -5.588082597e-02
     2456000000   -1.979779303e-01   -7.264544815e-02
     2456750000   -1.921818852e-01   -8.931776881e-02
     2457500000   -1.853088588e-01   -1.058083847e-01
     2458250000   -1.769959480e-01   -1.221989989e-01
     2459000000   -1.667486727e-01   -1.373442262e-01
     2459750000   -1.561204046e-01   -1.509556174e-01
     2460500000   -1.434357017e-01   -1.618815064e-01
     2461250000   -1.301007420e-01   -1.742148101e-01
     2462000000   -1.153611764e-01   -1.879812330e-01
     2462750000   -1.008896232e-01   -1.963337660e-01
     2463500000   -8.500792086e-02   -2.027397454e-01
     2464250000   -6.780805439e-02   -2.123870701e-01
     2465000000   -4.970006645e-02   -2.191808075e-01
     2465750000   -3.186761215e-02   -2.229116708e-01
     2466500000   -1.430680323e-02   -2.259879708e-01
     2467250000    2.483507851e-03   -2.265421599e-01
     2468000000    2.289022505e-02   -2.275039405e-01
     2468750000    4.138966277e-02   -2.262822241e-01
     2469500000    5.803439766e-02   -2.230199575e-01
     2470250000    7.693250477e-02   -2.183556855e-01
     2471000000    9.495854378e-02   -2.114595175e-01
     2471750000    1.105100960e-01   -2.042526752e-01
     2472500000    1.243364140e-01   -1.946469247e-01
     2473250000    1.418820471e-01   -1.840930283e-01
     2474000000    1.581664979e-01   -1.710887253e-01
     2474750000    1.723054498e-01   -1.581035703e-01
     2475500000    1.797217429e-01   -1.438733935e-01
     2476250000    1.964755803e-01   -1.274454594e-01
     2477000000    2.049348950e-01   -1.120702699e-01
     2477750000    2.142737955e-01   -9.395120293e-02
     2478500000    2.203759551e-01   -7.551205903e-02
     2479250000    2.271811366e-01   -5.720379204e-02
     2480000000    2.304914892e-01   -3.752453998e-02
     2480750000    2.337597907e-01   -1.869035885e-02
     2481500000    2.355241030e-01    2.746543905e-04
     2482250000    2.346610278e-01    2.030084468e-02
     2483000000    2.323090881e-01    4.005048424e-02
     2483750000    2.287714183e-01    6.051768363e-02
     2484500000    2.230560929e-01    7.933426648e-02
     2485250000    2.158708274e-01    9.799553454e-02
     2486000000    2.069954723e-01    1.149942651e-01
     2486750000    1.965363026e-01    1.313406229e-01
     2487500000    1.849884689e-01    1.467606574e-01
     2488250000    1.725255251e-01    1.635683179e-01
     2489000000    1.588655859e-01    1.759728789e-01
     2489750000    1.432600021e-01    1.884883642e-01
     2490500000    1.261829734e-01    2.012677342e-01
     2491250000    1.081706807e-01    2.112559378e-01
     2492000000    8.908333629e-02    2.204774618e-01
     2492750000    7.059985399e-02    2.267675549e-01
     2493500000    5.160590261e-02    2.314815670e-01
     2494250000    3.021130152e-02    2.355354279e-01
     2495000000    1.048467401e-02    2.374583036e-01
     2495750000   -9.965233505e-03    2.382999212e-01
     2496500000   -2.997308783e-02    2.357929647e-01
     2497250000   -5.248686671e-02    2.342635542e-01
     2498000000   -6.979795545e-02    2.288109064e-01
     2498750000   -8.973549306e-02    2.219585925e-01
     2499500000   -1.114523709e-01    2.133400589e-01
     2500250000   -1.288413405e-01    2.043614835e-01
     2501000000   -1.425486058e-01    1.928859055e-01
     2501750000   -1.621964872e-01    1.799313128e-01
     2502500000   -1.760460287e-01    1.665348411e-01
     2503250000   -1.895259321e-01    1.519320309e-01
     2504000000   -2.039183378e-01    1.338151097e-01
     2504750000   -2.128646076e-01    1.180913597e-01
     2505500000   -2.207230479e-01    1.019902751e-01
     2506250000   -2.318952084e-01    8.066277951e-02
     2507000000   -2.371473759e-01    6.238439679e-02
     2507750000   -2.409497648e-01    4.294150695e-02
     2508500000   -2.447151244e-01    2.290654555e-02
     2509250000   -2.447896451e-01    3.583687358e-03
     2510000000   -2.458615005e-01   -1.679484919e-02
     2510750000   -2.441155612e-01   -3.977178037e-02
     2511500000   -2.401284575e-01   -5.856802687e-02
     2512250000   -2.338748574e-01   -7.885321975e-02
     2513000000   -2.266966552e-01   -9.728341550e-02
     2513750000   -2.132173479e-01   -1.172339842e-01
     2514500000   -2.024772316e-01   -1.332032084e-01
     2515250000   -1.899762452e-01   -1.514164358e-01
     2516000000   -1.756255627e-01   -1.664047986e-01
     2516750000   -1.607941389e-01   -1.820366830e-01
     2517500000   -1.446187496e-01   -1.942901909e-01
     2518250000   -1.270067543e-01   -2.060771435e-01
     2519000000   -1.071399525e-01   -2.170069069e-01
     2519750000   -8.928042650e-02   -2.241222858e-01
     2520500000   -6.797578186e-02   -2.321189493e-01
     2521250000   -4.845730215e-02   -2.368794233e-01
     2522000000   -2.805633843e-02   -2.402914912e-01
     2522750000   -4.246673547e-03   -2.426096201e-01
     2523500000    1.367776096e-02   -2.408290952e-01
     2524250000    3.675389662e-02   -2.400724143e-01
     2525000000    5.619619787e-02   -2.353994697e-01
     2525750000    7.659330219e-02   -2.297061533e-01
     2526500000    9.791505337e-02   -2.225221843e-01
     2527250000    1.131158620e-01   -2.136081308e-01
     2528000000    1.364767849e-01   -2.021639645e-01
     2528750000    1.522296220e-01   -1.904146969e-01
     2529500000    1.690851599e-01   -1.765559316e-01
     2530250000    1.841819882e-01   -1.609077156e-01
     2531000000    1.969413161e-01   -1.461004019e-01
     2531750000    2.088847458e-01   -1.288669854e-01
     2532500000    2.204350531e-01   -1.102359146e-01
     2533250000    2.291494012e-01   -9.132952988e-02
     2534000000    2.365643978e-01   -7.105681300e-02
     2534750000    2.424712032e-01   -5.057071522e-02
     2535500000    2.461807430e-01   -2.898967452e-02
     2536250000    2.484947294e-01   -9.576128796e-03
     2537000000    2.481639683e-01    1.456221100e-02
     2537750000    2.465770692e-01    3.480863199e-02
     2538500000    2.427420020e-01    5.491790175e-02
     2539250000    2.375026047e-01    7.596288621e-02
     2540000000    2.309967726e-01    9.533612430e-02
     2540750000    2.217488587e-01    1.144285128e-01
     2541500000    2.113042772e-01    1.320361197e-01
     2542250000    1.990641654e-01    1.513557434e-01
     2543000000    1.853745580e-01    1.673792601e-01
     2543750000    1.695859283e-01    1.832521558e-01
     2544500000    1.534512788e-01    1.964585930e-01
     2545250000    1.371906996e-01    2.096543610e-01
     2546000000    1.157737821e-01    2.226745635e-01
     2546750000    1.000695080e-01    2.299691588e-01
     2547500000    7.756655663e-02    2.378073931e-01
     2548250000    5.795289949e-02    2.441397607e-01
     2549000000    3.676218167e-02    2.481394708e-01
     2549750000    1.425294951e-02    2.513654828e-01
     2550500000   -5.797788035e-03    2.528317869e-01
     2551250000   -2.781045437e-02    2.509022355e-01
     2552000000   -5.077365413e-02    2.469624281e-01
     2552750000   -6.808101386e-02    2.436122596e-01
     2553500000   -8.898100257e-02    2.373370379e-01
     2554250000   -1.119675636e-01    2.277309299e-01
     2555000000   -1.283536851e-01    2.175966650e-01
     2555750000   -1.486711353e-01    2.045711428e-01
     2556500000   -1.634531766e-01    1.935528517e-01
     2557250000   -1.803631932e-01    1.783237904e-01
     2558000000   -1.926259845e-01    1.647329926e-01
     2558750000   -2.075160295e-01    1.457599252e-01
     2559500000   -2.195916474e-01    1.260495484e-01
     2560250000   -2.270144373e-01    1.118924469e-01
     2561000000   -2.364969254e-01    8.914180845e-02
     2561750000   -2.447173893e-01    6.597949564e-02
     2562500000   -2.492087930e-01    4.719815403e-02
     2563250000   -2.518675327e-01    2.676673606e-02
     2564000000   -2.530682385e-01    5.121175200e-03
     2564750000   -2.520103157e-01   -1.691378281e-02
     2565500000   -2.501072288e-01   -3.552306443e-02
     2566250000   -2.454861552e-01   -5.850513652e-02
     2567000000   -2.390714437e-01   -7.894006371e-02
     2567750000   -2.310163975e-01   -9.742356837e-02
     2568500000   -2.214176506e-01   -1.180419251e-01
     2569250000   -2.111592591e-01   -1.353577077e-01
     2570000000   -1.977340132e-01   -1.530033946e-01
     2570750000   -1.836312562e-01   -1.682194173e-01
     2571500000   -1.675992012e-01   -1.835849434e-01
     2572250000   -1.517658383e-01   -1.974643171e-01
     2573000000   -1.344970763e-01   -2.085729837e-01
     2573750000   -1.143755093e-01   -2.205740958e-01
     2574500000   -9.518575668e-02   -2.288836986e-01
     2575250000   -7.652806491e-02   -2.362058163e-01
     2576000000   -5.406280234e-02   -2.426573038e-01
     2576750000   -3.479337320e-02   -2.455218136e-01
     2577500000   -1.277666632e-02   -2.478628755e-01
     2578250000    8.550439961e-03   -2.475088239e-01
     2579000000    2.863882110e-02   -2.466622591e-01
     2579750000    5.033474416e-02   -2.435569316e-01
     2580500000    6.894471496e-02   -2.389276773e-01
     2581250000    9.016269445e-02   -2.325589210e-01
     2582000000    1.111024693e-01   -2.231998891e-01
     2582750000    1.275963783e-01   -2.132475972e-01
     2583500000    1.457052231e-01   -2.028817683e-01
     2584250000    1.615198851e-01   -1.892579794e-01
     2585000000    1.758545637e-01   -1.755786836e-01
     2585750000    1.917321980e-01   -1.595562547e-01
     2586500000    2.022026330e-01   -1.446838230e-01
     2587250000    2.151700705e-01   -1.244345158e-01
     2588000000    2.227814347e-01   -1.097299308e-01
     2588750000    2.332199514e-01   -8.723969758e-02
     2589500000    2.389469445e-01   -6.998009980e-02
     2590250000    2.436052561e-01   -4.754082859e-02
     2591000000    2.463735938e-01   -3.131675348e-02
     2591750000    2.466035932e-01   -9.176107123e-03
     2592500000    2.468260974e-01    1.044219639e-02
     2593250000    2.445977330e-01    2.992180921e-02
     2594000000    2.397470921e-01    5.202784389e-02
     2594750000    2.346439362e-01    7.037924975e-02
     2595500000    2.275174409e-01    8.977832645e-02
     2596250000    2.181630135e-01    1.077494398e-01
     2597000000    2.097030133e-01    1.225311384e-01
     2597750000    1.946205944e-01    1.435321718e-01
     2598500000    1.867322028e-01    1.542381197e-01
     2599250000    1.696139425e-01    1.710874140e-01
     2600000000    1.559176892e-01    1.814659387e-01
