! NanoVNA-App
! Date: 2026-05-22 18:31:29
! Start: 2.3GHz Stop: 2.6GHz Points: 401
! S-Parameter data: F S11
# Hz S RI R 50
!     Frequency           S11_Real           S11_Imag
     2300000000    2.568803430e-01    2.534889281e-01
     2300750000    2.317014635e-01    2.729144096e-01
     2301500000    2.078517079e-01    2.874793410e-01
     2302250000    1.779738963e-01    3.038038313e-01
     2303000000    1.524108350e-01    3.127808273e-01
     2303750000    1.206944734e-01    3.232333064e-01
     2304500000    8.958234638e-02    3.308301866e-01
     2305250000    6.292397529e-02    3.330541551e-01
     2306000000    3.440764919e-02    3.342223167e-01
     2306750000    3.503032727e-03    3.335402310e-01
     2307500000   -2.471945621e-02    3.294311464e-01
     2308250000   -5.512544885e-02    3.230778575e-01
     2309000000   -8.293378353e-02    3.138913810e-01
     2309750000   -1.101467162e-01    3.026570678e-01
     2310500000   -1.334323436e-01    2.892321646e-01
     2311250000   -1.570763290e-01    2.747615576e-01
     2312000000   -1.784326583e-01    2.573869526e-01
     2312750000   -1.993210763e-01    2.390964925e-01
     2313500000   -2.169571817e-01    2.187160999e-01
     2314250000   -2.324406654e-01    1.978726387e-01
     2315000000   -2.464172542e-01    1.757376641e-01
     2315750000   -2.598146498e-01    1.496576965e-01
     2316500000   -2.685787976e-01    1.265006065e-01
     2317250000   -2.764355838e-01    1.005767509e-01
     2318000000   -2.812011838e-01    7.440191507e-02
     2318750000   -2.836902142e-01    5.040419847e-02
     2319500000   -2.831907272e-01    2.813340165e-02
     2320250000   -2.821387947e-01    2.447523410e-03
     2321000000   -2.782900333e-01   -2.417671867e-02
     2321750000   -2.720951736e-01   -4.781576246e-02
     2322500000   -2.640111446e-01   -7.166173309e-02
     2323250000   -2.538799644e-01   -9.481605142e-02
     2324000000   -2.419731468e-01   -1.138411462e-01
     2324750000   -2.303554416e-01   -1.314006150e-01
     2325500000   -2.166117877e-01   -1.466583312e-01
     2326250000   -1.978414506e-01   -1.660972834e-01
     2327000000   -1.799533218e-01   -1.818722486e-01
     2327750000   -1.632901877e-01   -1.918737739e-01
     2328500000   -1.384547800e-01   -2.073337436e-01
     2329250000   -1.253679544e-01   -2.104192823e-01
     2330000000   -1.021136120e-01   -2.191141695e-01
     2330750000   -8.245305717e-02   -2.240220308e-01
     2331500000   -6.261687726e-02   -2.259128839e-01
     2332250000   -3.840037808e-02   -2.276329547e-01
     2333000000   -2.256160229e-02   -2.260834575e-01
     2333750000    4.711332731e-03   -2.237734497e-01
     2334500000    1.838227734e-02   -2.198578864e-01
     2335250000    4.217522219e-02   -2.126569152e-01
     2336000000    5.873138458e-02   -2.058003843e-01
     2336750000    7.464071363e-02   -1.968923956e-01
     2337500000    9.219479561e-02   -1.858615875e-01
     2338250000    1.080903038e-01   -1.728366315e-01
     2339000000    1.186225265e-01   -1.617384553e-01
     2339750000    1.316160262e-01   -1.473464072e-01
     2340500000    1.422896087e-01   -1.320028603e-01
     2341250000    1.513861120e-01   -1.172915548e-01
     2342000000    1.584247947e-01   -1.009926349e-01
     2342750000    1.653889120e-01   -8.334783465e-02
     2343500000    1.695891321e-01   -6.722874194e-02
     2344250000    1.717435569e-01   -5.072335154e-02
     2345000000    1.730811745e-01   -3.165309131e-02
     2345750000    1.726981252e-01   -1.483502518e-02
     2346500000    1.705964804e-01   -1.536135678e-03
     2347250000    1.678714752e-01    1.284668129e-02
     2348000000    1.627091616e-01    3.003115952e-02
     2348750000    1.562184393e-01    4.579471052e-02
     2349500000    1.503051817e-01    5.592019111e-02
     2350250000    1.418662369e-01    6.821777672e-02
     2351000000    1.311436445e-01    8.247993141e-02
     2351750000    1.212435812e-01    9.118178487e-02
     2352500000    1.123789400e-01    9.845444560e-02
     2353250000    9.851603955e-02    1.084932685e-01
     2354000000    8.505049348e-02    1.154494435e-01
     2354750000    7.395234704e-02    1.194218025e-01
     2355500000    6.489278376e-02    1.216200143e-01
     2356250000    4.767990485e-02    1.256718934e-01
     2357000000    3.563667834e-02    1.262600571e-01
     2357750000    2.404168062e-02    1.260552257e-01
     2358500000    1.345853321e-02    1.253403127e-01
     2359250000   -1.412614598e-03    1.223000884e-01
     2360000000   -1.285374071e-02    1.184414104e-01
     2360750000   -2.234350517e-02    1.139508933e-01
     2361500000   -3.252593428e-02    1.078461260e-01
     2362250000   -4.360986128e-02    1.007197201e-01
     2363000000   -4.858658835e-02    9.468232095e-02
     2363750000   -5.766340345e-02    8.582227677e-02
     2364500000   -6.365243345e-02    7.673969120e-02
     2365250000   -6.937488168e-02    6.762149185e-02
     2366000000   -7.346557826e-02    5.827276036e-02
     2366750000   -7.661852986e-02    4.762508348e-02
     2367500000   -7.829395682e-02    3.779679537e-02
     2368250000   -7.918279618e-02    2.739847079e-02
     2369000000   -7.906118780e-02    1.798518002e-02
     2369750000   -7.773146778e-02    7.935141213e-03
     2370500000   -7.557737082e-02   -1.743793953e-03
     2371250000   -7.200708240e-02   -1.073642448e-02
     2372000000   -6.822067499e-02   -1.875830442e-02
     2372750000   -6.298754364e-02   -2.750140801e-02
     2373500000   -5.709021166e-02   -3.497251868e-02
     2374250000   -5.027629435e-02   -4.203026369e-02
     2375000000   -4.370874912e-02   -4.722806811e-02
     2375750000   -3.471167386e-02   -5.346402526e-02
     2376500000   -2.671857551e-02   -5.775959045e-02
     2377250000   -2.019909211e-02   -5.981728807e-02
     2378000000   -1.098505966e-02   -6.252303720e-02
     2378750000   -1.249833615e-03   -6.425078958e-02
     2379500000    8.550210856e-03   -6.448756903e-02
     2380250000    1.557238307e-02   -6.387655437e-02
     2381000000    2.389711142e-02   -6.214894354e-02
     2381750000    3.239891678e-02   -5.941629410e-02
     2382500000    3.834042698e-02   -5.680568144e-02
     2383250000    4.764759541e-02   -5.174807832e-02
     2384000000    5.490040407e-02   -4.641153663e-02
     2384750000    5.942380428e-02   -4.179156199e-02
     2385500000    6.377496570e-02   -3.565553576e-02
     2386250000    6.785815954e-02   -2.968209609e-02
     2387000000    7.380578667e-02   -1.935807429e-02
     2387750000    7.430756837e-02   -1.381021086e-02
     2388500000    7.585997880e-02   -5.859023891e-03
     2389250000    7.706528902e-02    3.246114822e-03
     2390000000    7.671792060e-02    1.263477653e-02
     2390750000    7.382826507e-02    1.764518954e-02
     2391500000    7.200915366e-02    2.955356054e-02
     2392250000    6.872285903e-02    3.566658869e-02
     2393000000    6.450653076e-02    4.553651810e-02
     2393750000    5.912014470e-02    5.186143517e-02
     2394500000    5.346686020e-02    5.845696479e-02
     2395250000    4.672203213e-02    6.477253139e-02
     2396000000    3.941614181e-02    7.032363117e-02
     2396750000    3.153367713e-02    7.523757219e-02
     2397500000    2.302730270e-02    7.899469882e-02
     2398250000    1.440817397e-02    8.193171024e-02
     2399000000    5.966898054e-03    8.340252936e-02
     2399750000   -3.691447433e-03    8.474636078e-02
     2400500000   -1.363144908e-02    8.571846783e-02
     2401250000   -2.190084942e-02    8.343681693e-02
     2402000000   -3.333726525e-02    8.216544241e-02
     2402750000   -4.146362096e-02    7.915196568e-02
     2403500000   -5.074371397e-02    7.469329983e-02
     2404250000   -5.937088653e-02    6.992498040e-02
     2405000000   -6.811416894e-02    6.428101659e-02
     2405750000   -7.652996480e-02    5.693499371e-02
     2406500000   -8.329275250e-02    4.934890941e-02
     2407250000   -8.867557347e-02    4.129160196e-02
     2408000000   -9.459821880e-02    3.244161606e-02
     2408750000   -9.868406504e-02    2.320975065e-02
     2409500000   -1.035215631e-01    1.170256827e-02
     2410250000   -1.055810899e-01    1.400817884e-03
     2411000000   -1.086814106e-01   -1.143584214e-02
     2411750000   -1.090853736e-01   -2.167342231e-02
     2412500000   -1.087022126e-01   -3.341140971e-02
     2413250000   -1.079970971e-01   -4.360714182e-02
     2414000000   -1.053475514e-01   -5.668409914e-02
     2414750000   -1.017445326e-01   -6.714412570e-02
     2415500000   -9.747130424e-02   -7.876584679e-02
     2416250000   -9.181831777e-02   -8.937148005e-02
     2417000000   -8.519148082e-02   -9.687767178e-02
     2417750000   -7.719463110e-02   -1.055241376e-01
     2418500000   -6.826600432e-02   -1.158935130e-01
     2419250000   -5.850739777e-02   -1.232383922e-01
     2420000000   -4.750661552e-02   -1.313862950e-01
     2420750000   -4.117944464e-02   -1.388016343e-01
     2421500000   -2.973879874e-02   -1.432981789e-01
     2422250000   -1.715126820e-02   -1.472382993e-01
     2423000000   -4.076191690e-03   -1.499705762e-01
     2423750000    8.853754960e-03   -1.511004418e-01
     2424500000    2.213526145e-02   -1.519260257e-01
     2425250000    3.581302613e-02   -1.510066986e-01
     2426000000    4.900101572e-02   -1.485245675e-01
     2426750000    6.120447442e-02   -1.451150030e-01
     2427500000    7.486803085e-02   -1.405675560e-01
     2428250000    8.783894032e-02   -1.339840293e-01
     2429000000    9.906507283e-02   -1.259041131e-01
     2429750000    1.072130352e-01   -1.181589812e-01
     2430500000    1.184721664e-01   -1.085135415e-01
     2431250000    1.304167062e-01   -9.668586403e-02
     2432000000    1.352552325e-01   -8.616782725e-02
     2432750000    1.424430311e-01   -7.387415320e-02
     2433500000    1.507305801e-01   -5.868026242e-02
     2434250000    1.553131491e-01   -4.505315423e-02
     2435000000    1.565050483e-01   -3.381693736e-02
     2435750000    1.613892764e-01   -1.497531589e-02
     2436500000    1.623336077e-01    3.226411645e-04
     2437250000    1.595014930e-01    1.159810647e-02
     2438000000    1.595877707e-01    3.067774884e-02
     2438750000    1.561390460e-01    4.460164905e-02
     2439500000    1.516129375e-01    6.401486695e-02
     2440250000    1.455233246e-01    7.467088848e-02
     2441000000    1.383472085e-01    8.703977615e-02
     2441750000    1.289356947e-01    1.048059762e-01
     2442500000    1.197065189e-01    1.162261441e-01
     2443250000    1.093498170e-01    1.262091249e-01
     2444000000    9.552243352e-02    1.413396150e-01
     2444750000    8.375370502e-02    1.488807946e-01
     2445500000    6.985959411e-02    1.578230709e-01
     2446250000    5.380497128e-02    1.670946032e-01
     2447000000    3.937985376e-02    1.723035723e-01
     2447750000    2.410827018e-02    1.762184203e-01
     2448500000    8.931872435e-03    1.794248521e-01
     2449250000   -9.096519090e-03    1.813182533e-01
     2450000000   -2.527559549e-02    1.822183132e-01
     2450750000   -4.192303121e-02    1.799020469e-01
     2451500000   -5.890002102e-02    1.768851280e-01
     2452250000   -7.527516782e-02    1.729860455e-01
     2453000000   -9.048365057e-02    1.664319634e-01
     2453750000   -1.048671454e-01    1.593414694e-01
     2454500000   -1.203281432e-01    1.509405673e-01
     2455250000   -1.332914978e-01    1.396518946e-01
     2456000000   -1.460359097e-01    1.278407872e-01
     2456750000   -1.578564346e-01    1.153903529e-01
     2457500000   -1.684435308e-01    1.005275175e-01
     2458250000   -1.775985956e-01    8.647143096e-02
     2459000000   -1.859129667e-01    7.059689611e-02
     2459750000   -1.924610287e-01    5.325408280e-02
     2460500000   -1.973069161e-01    3.645275906e-02
     2461250000   -2.017986625e-01    1.733501069e-02
     2462000000   -2.014213800e-01    3.785368055e-03
     2462750000   -2.029314637e-01   -1.748989709e-02
     2463500000   -2.015917152e-01   -3.768547624e-02
     2464250000   -1.983212680e-01   -5.274506286e-02
     2465000000   -1.940502077e-01   -6.742974371e-02
     2465750000   -1.868619323e-01   -8.962282538e-02
     2466500000   -1.788851768e-01   -1.058694273e-01
     2467250000   -1.700799763e-01   -1.186736599e-01
     2468000000   -1.603674740e-01   -1.319449842e-01
     2468750000   -1.455348581e-01   -1.506415457e-01
     2469500000   -1.334974170e-01   -1.589607149e-01
     2470250000   -1.183791310e-01   -1.717000455e-01
     2471000000   -1.009404957e-01   -1.830234975e-01
     2471750000   -8.321467787e-02   -1.918047220e-01
     2472500000   -6.854595244e-02   -1.971831173e-01
     2473250000   -4.767864943e-02   -2.029632032e-01
     2474000000   -2.792813256e-02   -2.079138607e-01
     2474750000   -8.327412419e-03   -2.093077749e-01
     2475500000    1.117581874e-02   -2.104720622e-01
     2476250000    3.247404471e-02   -2.090169191e-01
     2477000000    5.301099643e-02   -2.066572756e-01
     2477750000    7.137247920e-02   -2.023684531e-01
     2478500000    8.918411285e-02   -1.955120414e-01
     2479250000    1.110378802e-01   -1.874336600e-01
     2480000000    1.251581311e-01   -1.798293740e-01
     2480750000    1.446001232e-01   -1.670888364e-01
     2481500000    1.601594090e-01   -1.549187005e-01
     2482250000    1.743461341e-01   -1.409779638e-01
     2483000000    1.878330261e-01   -1.259057820e-01
     2483750000    1.978154331e-01   -1.108222753e-01
     2484500000    2.102479190e-01   -9.221597761e-02
     2485250000    2.199091315e-01   -7.333252579e-02
     2486000000    2.263178974e-01   -5.458128452e-02
     2486750000    2.320855409e-01   -3.492046148e-02
     2487500000    2.353455424e-01   -1.571475156e-02
     2488250000    2.380302101e-01    5.831725895e-03
     2489000000    2.380776554e-01    2.544405311e-02
     2489750000    2.358431220e-01    4.583187401e-02
     2490500000    2.326346934e-01    6.708315015e-02
     2491250000    2.271931171e-01    8.684475720e-02
     2492000000    2.196602076e-01    1.058610305e-01
     2492750000    2.099204957e-01    1.253113002e-01
     2493500000    2.001097053e-01    1.405839473e-01
     2494250000    1.882309914e-01    1.570814103e-01
     2495000000    1.721933931e-01    1.765076220e-01
     2495750000    1.592428684e-01    1.870905608e-01
     2496500000    1.417372376e-01    2.001917362e-01
     2497250000    1.210596636e-01    2.139204144e-01
     2498000000    1.056245342e-01    2.219289541e-01
     2498750000    8.591960371e-02    2.292919904e-01
     2499500000    6.194004044e-02    2.359985560e-01
     2500250000    4.545255378e-02    2.403472066e-01
     2501000000    1.919426955e-02    2.443188429e-01
     2501750000   -5.213972181e-04    2.442301065e-01
     2502500000   -2.244690247e-02    2.430284619e-01
     2503250000   -4.368384928e-02    2.401845306e-01
     2504000000   -6.174432859e-02    2.367324978e-01
     2504750000   -8.744401485e-02    2.286268920e-01
     2505500000   -1.053033993e-01    2.212865651e-01
     2506250000   -1.248852834e-01    2.108625025e-01
     2507000000   -1.453792155e-01    1.981324404e-01
     2507750000   -1.614785790e-01    1.850142032e-01
     2508500000   -1.776489019e-01    1.703310609e-01
     2509250000   -1.913781315e-01    1.540111899e-01
     2510000000   -2.033481151e-01    1.384810209e-01
     2510750000   -2.165797353e-01    1.177048162e-01
     2511500000   -2.245398462e-01    9.943735600e-02
     2512250000   -2.338981926e-01    7.693303376e-02
     2513000000   -2.403220981e-01    5.588015914e-02
     2513750000   -2.442593426e-01    3.670957685e-02
     2514500000   -2.450681776e-01    1.415270567e-02
     2515250000   -2.458884120e-01   -8.375889622e-03
     2516000000   -2.437060624e-01   -3.019926883e-02
     2516750000   -2.404242456e-01   -5.229836330e-02
     2517500000   -2.340218872e-01   -7.337936759e-02
     2518250000   -2.264371216e-01   -9.572612494e-02
     2519000000   -2.171916217e-01   -1.151495650e-01
     2519750000   -2.069186866e-01   -1.342691481e-01
     2520500000   -1.942454129e-01   -1.523941904e-01
     2521250000   -1.776756495e-01   -1.714516729e-01
     2522000000   -1.628257930e-01   -1.856045872e-01
     2522750000   -1.443879604e-01   -2.016723752e-01
     2523500000   -1.267919689e-01   -2.144919187e-01
     2524250000   -1.079837307e-01   -2.249088287e-01
     2525000000   -8.926888555e-02   -2.346300781e-01
     2525750000   -6.623357534e-02   -2.430064082e-01
     2526500000   -4.281629622e-02   -2.487202883e-01
     2527250000   -2.235915884e-02   -2.520673871e-01
     2528000000   -1.255857875e-03   -2.548901737e-01
     2528750000    2.126517706e-02   -2.535388470e-01
     2529500000    4.658891261e-02   -2.521385849e-01
     2530250000    6.549342722e-02   -2.480910867e-01
     2531000000    8.946257085e-02   -2.426299155e-01
     2531750000    1.098726168e-01   -2.335534245e-01
     2532500000    1.270893216e-01   -2.255271226e-01
     2533250000    1.483739913e-01   -2.116226554e-01
     2534000000    1.645686626e-01   -1.997390687e-01
     2534750000    1.814280748e-01   -1.855112314e-01
     2535500000    1.949470788e-01   -1.704069674e-01
     2536250000    2.100652307e-01   -1.516271830e-01
     2537000000    2.216517925e-01   -1.317483634e-01
     2537750000    2.318439633e-01   -1.132279709e-01
     2538500000    2.409111261e-01   -9.112701565e-02
     2539250000    2.472739518e-01   -6.986253709e-02
     2540000000    2.526468337e-01   -4.770817608e-02
     2540750000    2.556398511e-01   -2.537550591e-02
     2541500000    2.561395168e-01   -3.093767446e-03
     2542250000    2.553262711e-01    1.906015724e-02
     2543000000    2.529740334e-01    4.156689718e-02
     2543750000    2.473905385e-01    6.376820058e-02
     2544500000    2.399642318e-01    8.602881432e-02
     2545250000    2.317613810e-01    1.066149101e-01
     2546000000    2.212575823e-01    1.258323789e-01
     2546750000    2.088440955e-01    1.446068287e-01
     2547500000    1.951025575e-01    1.629481018e-01
     2548250000    1.805654168e-01    1.785141826e-01
     2549000000    1.629175544e-01    1.934090108e-01
     2549750000    1.431778967e-01    2.076990157e-01
     2550500000    1.282870173e-01    2.176612467e-01
     2551250000    1.037857533e-01    2.280308455e-01
     2552000000    8.567189425e-02    2.355215400e-01
     2552750000    6.085101143e-02    2.420489788e-01
     2553500000    4.471800104e-02    2.452906221e-01
     2554250000    1.651011966e-02    2.481858581e-01
     2555000000   -1.363817952e-03    2.482862025e-01
     2555750000   -2.699467912e-02    2.464723587e-01
     2556500000   -4.862082750e-02    2.437667698e-01
     2557250000   -6.656598300e-02    2.388100475e-01
     2558000000   -9.046503156e-02    2.304037660e-01
     2558750000   -1.101720929e-01    2.209687382e-01
     2559500000   -1.293465793e-01    2.105984390e-01
     2560250000   -1.464967728e-01    1.991377026e-01
     2561000000   -1.653691083e-01    1.829623878e-01
     2561750000   -1.799518317e-01    1.681596041e-01
     2562500000   -1.943566352e-01    1.497952491e-01
     2563250000   -2.066242695e-01    1.316609830e-01
     2564000000   -2.178780884e-01    1.125003695e-01
     2564750000   -2.255631238e-01    9.487801790e-02
     2565500000   -2.336336672e-01    7.179069519e-02
     2566250000   -2.384745181e-01    5.160919949e-02
     2567000000   -2.422982007e-01    2.950053103e-02
     2567750000   -2.442113012e-01    1.126582455e-02
     2568500000   -2.425701916e-01   -1.375450194e-02
     2569250000   -2.396593541e-01   -3.726578876e-02
     2570000000   -2.371017337e-01   -5.542849749e-02
     2570750000   -2.298052609e-01   -7.761076838e-02
     2571500000   -2.219307870e-01   -9.813752025e-02
     2572250000   -2.121252567e-01   -1.167665422e-01
     2573000000   -2.006687969e-01   -1.348195970e-01
     2573750000   -1.869849414e-01   -1.525272280e-01
     2574500000   -1.728136837e-01   -1.678822637e-01
     2575250000   -1.568855345e-01   -1.827266663e-01
     2576000000   -1.401635706e-01   -1.948940158e-01
     2576750000   -1.219479665e-01   -2.058499753e-01
     2577500000   -1.021786928e-01   -2.160730809e-01
     2578250000   -8.158186078e-02   -2.233852148e-01
     2579000000   -6.112916395e-02   -2.288009524e-01
     2579750000   -4.073410109e-02   -2.336931080e-01
     2580500000   -1.942846924e-02   -2.356050611e-01
     2581250000    2.801698400e-03   -2.357307225e-01
     2582000000    2.285479568e-02   -2.345276177e-01
     2582750000    4.597853124e-02   -2.292648107e-01
     2583500000    6.766368449e-02   -2.243970782e-01
     2584250000    8.578449488e-02   -2.171140462e-01
     2585000000    1.061481535e-01   -2.069521099e-01
     2585750000    1.252142489e-01   -1.949139535e-01
     2586500000    1.413002461e-01   -1.833220273e-01
     2587250000    1.576516330e-01   -1.705332249e-01
     2588000000    1.708356291e-01   -1.586000174e-01
     2588750000    1.870524138e-01   -1.354256719e-01
     2589500000    1.988808215e-01   -1.197324917e-01
     2590250000    2.080540955e-01   -1.042312905e-01
     2591000000    2.174979448e-01   -7.972541451e-02
     2591750000    2.241252065e-01   -6.031340361e-02
     2592500000    2.287151963e-01   -3.972772881e-02
     2593250000    2.312650084e-01   -1.752074435e-02
     2594000000    2.319814563e-01    5.580551457e-03
     2594750000    2.322280854e-01    2.283168770e-02
     2595500000    2.276374996e-01    4.906468838e-02
     2596250000    2.236285508e-01    6.840799004e-02
     2597000000    2.178396434e-01    8.807510138e-02
     2597750000    2.103431523e-01    1.069747806e-01
     2598500000    1.976197809e-01    1.290880889e-01
     2599250000    1.867889464e-01    1.450071335e-01
     2600000000    1.741778105e-01    1.620126367e-01
