! NanoVNA-App
! Date: 2026-05-22 22:09:54
! Start: 1GHz Stop: 1.2GHz Points: 401
! S-Parameter data: F S11
# Hz S RI R 50
!     Frequency           S11_Real           S11_Imag
     1000000000    3.139941990e-01   -3.894470930e-01
     1000500000    3.284755349e-01   -3.764583766e-01
     1001000000    3.420391381e-01   -3.647448421e-01
     1001500000    3.555791378e-01   -3.513423204e-01
     1002000000    3.688103557e-01   -3.385019302e-01
     1002500000    3.810570836e-01   -3.250814080e-01
     1003000000    3.928505480e-01   -3.108377457e-01
     1003500000    4.043575525e-01   -2.960663140e-01
     1004000000    4.155101478e-01   -2.808801532e-01
     1004500000    4.259429276e-01   -2.662683427e-01
     1005000000    4.359088540e-01   -2.515562773e-01
     1005500000    4.463374019e-01   -2.339731008e-01
     1006000000    4.542759061e-01   -2.189826518e-01
     1006500000    4.626560509e-01   -2.019362748e-01
     1007000000    4.708352387e-01   -1.861063540e-01
     1007500000    4.777609706e-01   -1.679592580e-01
     1008000000    4.840389490e-01   -1.523191333e-01
     1008500000    4.906335175e-01   -1.352940798e-01
     1009000000    4.958556592e-01   -1.175854877e-01
     1009500000    5.006657839e-01   -9.852285683e-02
     1010000000    5.045548677e-01   -8.193461597e-02
     1010500000    5.081220269e-01   -6.342203170e-02
     1011000000    5.107629895e-01   -4.605556652e-02
     1011500000    5.129024386e-01   -2.726031095e-02
     1012000000    5.142318606e-01   -9.933040477e-03
     1012500000    5.146821141e-01    8.866232820e-03
     1013000000    5.148121715e-01    2.703650668e-02
     1013500000    5.142077804e-01    4.499728233e-02
     1014000000    5.128099322e-01    6.296814233e-02
     1014500000    5.106929541e-01    8.234760165e-02
     1015000000    5.077284575e-01    1.000582203e-01
     1015500000    5.044972301e-01    1.183533743e-01
     1016000000    5.004016161e-01    1.361955404e-01
     1016500000    4.954772890e-01    1.538581550e-01
     1017000000    4.901322424e-01    1.726225317e-01
     1017500000    4.841190279e-01    1.906718463e-01
     1018000000    4.779886901e-01    2.069344968e-01
     1018500000    4.701089859e-01    2.246646881e-01
     1019000000    4.618078768e-01    2.423016429e-01
     1019500000    4.529035687e-01    2.597363889e-01
     1020000000    4.438624978e-01    2.763733566e-01
     1020500000    4.342229366e-01    2.922707200e-01
     1021000000    4.226567447e-01    3.093543351e-01
     1021500000    4.123786390e-01    3.250034153e-01
     1022000000    4.017188251e-01    3.394638300e-01
     1022500000    3.871765435e-01    3.566806316e-01
     1023000000    3.756150305e-01    3.700523376e-01
     1023500000    3.607462347e-01    3.851307631e-01
     1024000000    3.479127288e-01    3.983382285e-01
     1024500000    3.324640095e-01    4.126895070e-01
     1025000000    3.184820414e-01    4.249541163e-01
     1025500000    3.017545640e-01    4.378312230e-01
     1026000000    2.862481773e-01    4.500781298e-01
     1026500000    2.698415518e-01    4.609009624e-01
     1027000000    2.525330186e-01    4.718658924e-01
     1027500000    2.340083569e-01    4.824910462e-01
     1028000000    2.175326645e-01    4.909783006e-01
     1028500000    1.989922971e-01    5.003722906e-01
     1029000000    1.806909442e-01    5.087813735e-01
     1029500000    1.618754268e-01    5.164926648e-01
     1030000000    1.418992579e-01    5.232139826e-01
     1030500000    1.235564873e-01    5.289242864e-01
     1031000000    1.020505279e-01    5.349896550e-01
     1031500000    8.333960176e-02    5.393831730e-01
     1032000000    6.179951131e-02    5.435361862e-01
     1032500000    4.191297293e-02    5.466431975e-01
     1033000000    2.151284367e-02    5.495198369e-01
     1033500000   -2.616192214e-04    5.510964394e-01
     1034000000   -2.141682431e-02    5.518836975e-01
     1034500000   -4.177473858e-02    5.520518422e-01
     1035000000   -6.235755980e-02    5.511134267e-01
     1035500000   -8.417847008e-02    5.494875908e-01
     1036000000   -1.045747697e-01    5.471221209e-01
     1036500000   -1.256394982e-01    5.432989001e-01
     1037000000   -1.472374350e-01    5.394293070e-01
     1037500000   -1.674987674e-01    5.345265865e-01
     1038000000   -1.882617176e-01    5.282790661e-01
     1038500000   -2.088562697e-01    5.213389993e-01
     1039000000   -2.282151282e-01    5.137968063e-01
     1039500000   -2.488379776e-01    5.059448481e-01
     1040000000   -2.683109045e-01    4.967689216e-01
     1040500000   -2.881923616e-01    4.866663516e-01
     1041000000   -3.071358800e-01    4.757085145e-01
     1041500000   -3.259260654e-01    4.634629488e-01
     1042000000   -3.449662030e-01    4.509309232e-01
     1042500000   -3.626407385e-01    4.380706549e-01
     1043000000   -3.793600202e-01    4.244783521e-01
     1043500000   -3.970707059e-01    4.098812342e-01
     1044000000   -4.133992195e-01    3.946121931e-01
     1044500000   -4.292415977e-01    3.781239986e-01
     1045000000   -4.448531270e-01    3.616318405e-01
     1045500000   -4.597349763e-01    3.440485597e-01
     1046000000   -4.730027914e-01    3.268136084e-01
     1046500000   -4.859882593e-01    3.079037964e-01
     1047000000   -4.991842508e-01    2.877802551e-01
     1047500000   -5.099349022e-01    2.692967653e-01
     1048000000   -5.212002397e-01    2.491083294e-01
     1048500000   -5.319214463e-01    2.270044684e-01
     1049000000   -5.402250290e-01    2.071209699e-01
     1049500000   -5.496925116e-01    1.828367412e-01
     1050000000   -5.554804802e-01    1.650527716e-01
     1050500000   -5.632242560e-01    1.395485997e-01
     1051000000   -5.690737963e-01    1.170539260e-01
     1051500000   -5.735437274e-01    9.536852688e-02
     1052000000   -5.781353116e-01    6.950009614e-02
     1052500000   -5.803539157e-01    4.816742614e-02
     1053000000   -5.830402970e-01    2.266807854e-02
     1053500000   -5.833422542e-01    6.303573027e-04
     1054000000   -5.837180614e-01   -2.483067103e-02
     1054500000   -5.828475356e-01   -4.835589603e-02
     1055000000   -5.811520815e-01   -7.253257185e-02
     1055500000   -5.787083507e-01   -9.649623930e-02
     1056000000   -5.747869611e-01   -1.204623878e-01
     1056500000   -5.701846480e-01   -1.445784867e-01
     1057000000   -5.647002459e-01   -1.679943204e-01
     1057500000   -5.580828786e-01   -1.913766265e-01
     1058000000   -5.501449108e-01   -2.156482637e-01
     1058500000   -5.417234898e-01   -2.373715490e-01
     1059000000   -5.325008035e-01   -2.595941722e-01
     1059500000   -5.217510462e-01   -2.824167907e-01
     1060000000   -5.108046532e-01   -3.036332726e-01
     1060500000   -4.990651608e-01   -3.245759606e-01
     1061000000   -4.852643013e-01   -3.463212252e-01
     1061500000   -4.717228115e-01   -3.661934733e-01
     1062000000   -4.567507505e-01   -3.861898482e-01
     1062500000   -4.420925677e-01   -4.040002823e-01
     1063000000   -4.248881042e-01   -4.233497977e-01
     1063500000   -4.077124596e-01   -4.411879182e-01
     1064000000   -3.908022046e-01   -4.564418197e-01
     1064500000   -3.716123998e-01   -4.733417332e-01
     1065000000   -3.529577553e-01   -4.881395102e-01
     1065500000   -3.331787884e-01   -5.027465820e-01
     1066000000   -3.123130500e-01   -5.169575214e-01
     1066500000   -2.898010314e-01   -5.300725698e-01
     1067000000   -2.697220147e-01   -5.404522419e-01
     1067500000   -2.463328540e-01   -5.525184274e-01
     1068000000   -2.255712003e-01   -5.609109402e-01
     1068500000   -2.013229579e-01   -5.710725188e-01
     1069000000   -1.764466166e-01   -5.793387890e-01
     1069500000   -1.545125097e-01   -5.860553980e-01
     1070000000   -1.294336617e-01   -5.919580460e-01
     1070500000   -1.062110439e-01   -5.966807008e-01
     1071000000   -8.137134463e-02   -6.005584598e-01
     1071500000   -5.614611506e-02   -6.041353941e-01
     1072000000   -3.205569834e-02   -6.060488820e-01
     1072500000   -7.555956487e-03   -6.069707870e-01
     1073000000    1.867406629e-02   -6.064448357e-01
     1073500000    4.352752492e-02   -6.053515673e-01
     1074000000    6.812287122e-02   -6.032364368e-01
     1074500000    9.252773970e-02   -5.993411541e-01
     1075000000    1.171514913e-01   -5.953099132e-01
     1075500000    1.412957162e-01   -5.898973942e-01
     1076000000    1.651652455e-01   -5.834628940e-01
     1076500000    1.897517443e-01   -5.761867762e-01
     1077000000    2.133243531e-01   -5.676030517e-01
     1077500000    2.361383289e-01   -5.581557751e-01
     1078000000    2.589968443e-01   -5.480403304e-01
     1078500000    2.824390233e-01   -5.364519358e-01
     1079000000    3.036471307e-01   -5.239081383e-01
     1079500000    3.249320686e-01   -5.112088919e-01
     1080000000    3.460246921e-01   -4.972900748e-01
     1080500000    3.665122092e-01   -4.826706648e-01
     1081000000    3.856262863e-01   -4.670395553e-01
     1081500000    4.054777324e-01   -4.498676062e-01
     1082000000    4.223977327e-01   -4.340359569e-01
     1082500000    4.403763711e-01   -4.159834385e-01
     1083000000    4.575570226e-01   -3.965810239e-01
     1083500000    4.739119709e-01   -3.769921958e-01
     1084000000    4.881097972e-01   -3.575948477e-01
     1084500000    5.019834042e-01   -3.378912508e-01
     1085000000    5.139840841e-01   -3.185526431e-01
     1085500000    5.277119875e-01   -2.954460979e-01
     1086000000    5.396740437e-01   -2.725762725e-01
     1086500000    5.487473011e-01   -2.525831163e-01
     1087000000    5.591620207e-01   -2.282513827e-01
     1087500000    5.675445795e-01   -2.051942945e-01
     1088000000    5.744243264e-01   -1.841214895e-01
     1088500000    5.818985105e-01   -1.588927209e-01
     1089000000    5.874612331e-01   -1.346306652e-01
     1089500000    5.925276279e-01   -1.102375686e-01
     1090000000    5.953189731e-01   -8.719149232e-02
     1090500000    5.980145931e-01   -6.193003058e-02
     1091000000    5.997250676e-01   -3.807351738e-02
     1091500000    6.006517410e-01   -1.352972165e-02
     1092000000    5.998784304e-01    9.810092859e-03
     1092500000    5.992881656e-01    3.471845761e-02
     1093000000    5.969889164e-01    5.870560184e-02
     1093500000    5.936813951e-01    8.321575075e-02
     1094000000    5.892021060e-01    1.066732779e-01
     1094500000    5.839210749e-01    1.309273690e-01
     1095000000    5.776190758e-01    1.527394950e-01
     1095500000    5.705453157e-01    1.764433831e-01
     1096000000    5.627332926e-01    1.993176341e-01
     1096500000    5.536456704e-01    2.218531519e-01
     1097000000    5.442097783e-01    2.430046052e-01
     1097500000    5.338153839e-01    2.630279064e-01
     1098000000    5.222191215e-01    2.850919068e-01
     1098500000    5.108639002e-01    3.033767939e-01
     1099000000    4.967259169e-01    3.245606124e-01
     1099500000    4.842239618e-01    3.418182135e-01
     1100000000    4.688254297e-01    3.616753221e-01
     1100500000    4.547499418e-01    3.785620630e-01
     1101000000    4.388150871e-01    3.961978257e-01
     1101500000    4.207123518e-01    4.136150777e-01
     1102000000    4.051780701e-01    4.280826449e-01
     1102500000    3.878725767e-01    4.425798357e-01
     1103000000    3.678607643e-01    4.579300582e-01
     1103500000    3.508976400e-01    4.708252251e-01
     1104000000    3.316854537e-01    4.838300049e-01
     1104500000    3.118429184e-01    4.957579374e-01
     1105000000    2.911721468e-01    5.066743493e-01
     1105500000    2.713056803e-01    5.169231296e-01
     1106000000    2.500619590e-01    5.266347528e-01
     1106500000    2.291051596e-01    5.350224972e-01
     1107000000    2.090981454e-01    5.427331328e-01
     1107500000    1.874067783e-01    5.497552752e-01
     1108000000    1.648268104e-01    5.557843447e-01
     1108500000    1.443732232e-01    5.613237619e-01
     1109000000    1.217395812e-01    5.652860403e-01
     1109500000    9.917362779e-02    5.690298080e-01
     1110000000    7.978192717e-02    5.719210505e-01
     1110500000    5.480648205e-02    5.738677979e-01
     1111000000    3.512701020e-02    5.749591589e-01
     1111500000    1.075953804e-02    5.744902492e-01
     1112000000   -8.350265212e-03    5.740963221e-01
     1112500000   -3.129568696e-02    5.725838542e-01
     1113000000   -5.494800583e-02    5.699734688e-01
     1113500000   -7.248423994e-02    5.676677823e-01
     1114000000   -9.752137214e-02    5.626897812e-01
     1114500000   -1.167397797e-01    5.580999851e-01
     1115000000   -1.390033960e-01    5.521917343e-01
     1115500000   -1.582187563e-01    5.465643406e-01
     1116000000   -1.778966188e-01    5.398484468e-01
     1116500000   -1.972956061e-01    5.321879387e-01
     1117000000   -2.175898403e-01    5.231321454e-01
     1117500000   -2.365454137e-01    5.144775510e-01
     1118000000   -2.561653554e-01    5.040474534e-01
     1118500000   -2.741836607e-01    4.929402471e-01
     1119000000   -2.914168835e-01    4.826809466e-01
     1119500000   -3.085639179e-01    4.710428715e-01
     1120000000   -3.255762160e-01    4.582581222e-01
     1120500000   -3.423232734e-01    4.453781545e-01
     1121000000   -3.593239784e-01    4.310297966e-01
     1121500000   -3.728562593e-01    4.184603691e-01
     1122000000   -3.888022900e-01    4.022299051e-01
     1122500000   -4.024401307e-01    3.892955482e-01
     1123000000   -4.159419835e-01    3.731514215e-01
     1123500000   -4.296776950e-01    3.569848239e-01
     1124000000   -4.425370395e-01    3.398617208e-01
     1124500000   -4.541302323e-01    3.237984776e-01
     1125000000   -4.643573165e-01    3.087708056e-01
     1125500000   -4.761482179e-01    2.876676023e-01
     1126000000   -4.857672751e-01    2.711380720e-01
     1126500000   -4.945472181e-01    2.556482852e-01
     1127000000   -5.043492317e-01    2.339771837e-01
     1127500000   -5.121123195e-01    2.163646072e-01
     1128000000   -5.190408230e-01    1.982621998e-01
     1128500000   -5.258466601e-01    1.781243980e-01
     1129000000   -5.310483575e-01    1.619300246e-01
     1129500000   -5.371369720e-01    1.396476179e-01
     1130000000   -5.415098071e-01    1.205815822e-01
     1130500000   -5.448632836e-01    1.016232967e-01
     1131000000   -5.483572483e-01    8.208861947e-02
     1131500000   -5.506156683e-01    6.181706116e-02
     1132000000   -5.518266559e-01    4.343926534e-02
     1132500000   -5.532727838e-01    2.254044265e-02
     1133000000   -5.537868142e-01    3.235246288e-03
     1133500000   -5.535449386e-01   -1.666655578e-02
     1134000000   -5.524443984e-01   -3.591506556e-02
     1134500000   -5.499674678e-01   -5.647433177e-02
     1135000000   -5.473030210e-01   -7.572738081e-02
     1135500000   -5.447079539e-01   -9.436064959e-02
     1136000000   -5.403385162e-01   -1.156833321e-01
     1136500000   -5.363582373e-01   -1.329442412e-01
     1137000000   -5.313876867e-01   -1.518133581e-01
     1137500000   -5.247977376e-01   -1.723167300e-01
     1138000000   -5.182079077e-01   -1.901420951e-01
     1138500000   -5.118747950e-01   -2.072717696e-01
     1139000000   -5.033831000e-01   -2.275898755e-01
     1139500000   -4.950255454e-01   -2.450353056e-01
     1140000000   -4.867843091e-01   -2.619381547e-01
     1140500000   -4.765493274e-01   -2.812276781e-01
     1141000000   -4.674652517e-01   -2.963744700e-01
     1141500000   -4.565965235e-01   -3.121153712e-01
     1142000000   -4.453759193e-01   -3.283384442e-01
     1142500000   -4.333098829e-01   -3.439798951e-01
     1143000000   -4.207913280e-01   -3.596502841e-01
     1143500000   -4.090183675e-01   -3.732180595e-01
     1144000000   -3.949341178e-01   -3.887026310e-01
     1144500000   -3.810327649e-01   -4.030017555e-01
     1145000000   -3.671475053e-01   -4.159187376e-01
     1145500000   -3.524842560e-01   -4.286455810e-01
     1146000000   -3.352940381e-01   -4.417821765e-01
     1146500000   -3.200493753e-01   -4.534230232e-01
     1147000000   -3.035030067e-01   -4.646994472e-01
     1147500000   -2.875758410e-01   -4.756024182e-01
     1148000000   -2.708996236e-01   -4.852339327e-01
     1148500000   -2.515745759e-01   -4.961160123e-01
     1149000000   -2.342058718e-01   -5.045933723e-01
     1149500000   -2.158867866e-01   -5.125209689e-01
     1150000000   -1.959936917e-01   -5.208867192e-01
     1150500000   -1.788078099e-01   -5.277106762e-01
     1151000000   -1.590154469e-01   -5.341844559e-01
     1151500000   -1.396425217e-01   -5.397250652e-01
     1152000000   -1.197878644e-01   -5.444709659e-01
     1152500000   -1.000394449e-01   -5.489098430e-01
     1153000000   -8.144941181e-02   -5.520056486e-01
     1153500000   -5.884306505e-02   -5.554501414e-01
     1154000000   -3.831917420e-02   -5.569998026e-01
     1154500000   -1.867985167e-02   -5.586353540e-01
     1155000000    1.668709330e-03   -5.592854619e-01
     1155500000    2.336659655e-02   -5.590275526e-01
     1156000000    4.357540607e-02   -5.583394766e-01
     1156500000    6.485589594e-02   -5.563726425e-01
     1157000000    8.556976914e-02   -5.539269447e-01
     1157500000    1.064734310e-01   -5.511748195e-01
     1158000000    1.253076792e-01   -5.468472838e-01
     1158500000    1.481346786e-01   -5.417715907e-01
     1159000000    1.687528789e-01   -5.364752412e-01
     1159500000    1.874131858e-01   -5.302920341e-01
     1160000000    2.078911960e-01   -5.235036612e-01
     1160500000    2.279850543e-01   -5.157359838e-01
     1161000000    2.464404851e-01   -5.072917342e-01
     1161500000    2.685725689e-01   -4.969787300e-01
     1162000000    2.855375707e-01   -4.878080785e-01
     1162500000    3.056973219e-01   -4.763911664e-01
     1163000000    3.225757182e-01   -4.653068781e-01
     1163500000    3.426540792e-01   -4.522715807e-01
     1164000000    3.581265807e-01   -4.397052228e-01
     1164500000    3.745364249e-01   -4.268245399e-01
     1165000000    3.939520419e-01   -4.105884731e-01
     1165500000    4.069643021e-01   -3.977114558e-01
     1166000000    4.239829481e-01   -3.807632327e-01
     1166500000    4.381129146e-01   -3.651526272e-01
     1167000000    4.531699419e-01   -3.477395773e-01
     1167500000    4.668198824e-01   -3.296055496e-01
     1168000000    4.803861082e-01   -3.110362589e-01
     1168500000    4.912196994e-01   -2.936393917e-01
     1169000000    5.035636425e-01   -2.741028965e-01
     1169500000    5.141400099e-01   -2.539044023e-01
     1170000000    5.239155293e-01   -2.340642810e-01
     1170500000    5.331072807e-01   -2.137237042e-01
     1171000000    5.431183577e-01   -1.906305403e-01
     1171500000    5.495563149e-01   -1.713961214e-01
     1172000000    5.562201142e-01   -1.491160542e-01
     1172500000    5.624613762e-01   -1.258380264e-01
     1173000000    5.674462318e-01   -1.055333167e-01
     1173500000    5.710005164e-01   -8.319073915e-02
     1174000000    5.755443573e-01   -5.801703408e-02
     1174500000    5.777788758e-01   -3.559932485e-02
     1175000000    5.787983537e-01   -1.210563723e-02
     1175500000    5.794139504e-01    1.145598013e-02
     1176000000    5.789771080e-01    3.416247293e-02
     1176500000    5.779659748e-01    5.888000131e-02
     1177000000    5.756778717e-01    8.281790465e-02
     1177500000    5.727573633e-01    1.040076911e-01
     1178000000    5.682047606e-01    1.296201944e-01
     1178500000    5.634516478e-01    1.492356062e-01
     1179000000    5.577991605e-01    1.748497188e-01
     1179500000    5.507741570e-01    1.984614730e-01
     1180000000    5.428192616e-01    2.209427059e-01
     1180500000    5.340484977e-01    2.426931113e-01
     1181000000    5.244626403e-01    2.657740116e-01
     1181500000    5.139935017e-01    2.851690352e-01
     1182000000    5.025752783e-01    3.072320521e-01
     1182500000    4.907529950e-01    3.278867900e-01
     1183000000    4.774788320e-01    3.484104276e-01
     1183500000    4.633072317e-01    3.679393530e-01
     1184000000    4.488783181e-01    3.865350187e-01
     1184500000    4.316343963e-01    4.070093930e-01
     1185000000    4.165308774e-01    4.229313731e-01
     1185500000    3.989635110e-01    4.409305751e-01
     1186000000    3.807914555e-01    4.580155611e-01
     1186500000    3.650034368e-01    4.713453948e-01
     1187000000    3.432480395e-01    4.879518449e-01
     1187500000    3.243829608e-01    5.014115572e-01
     1188000000    3.027631640e-01    5.155697465e-01
     1188500000    2.830505371e-01    5.267228484e-01
     1189000000    2.603985667e-01    5.390344858e-01
     1189500000    2.386235744e-01    5.493884683e-01
     1190000000    2.172934115e-01    5.588199496e-01
     1190500000    1.922881901e-01    5.683257580e-01
     1191000000    1.711650789e-01    5.752707124e-01
     1191500000    1.452858299e-01    5.830324888e-01
     1192000000    1.215181574e-01    5.885705948e-01
     1192500000    9.900911897e-02    5.929033756e-01
     1193000000    7.119270414e-02    5.974653363e-01
     1193500000    5.015495792e-02    5.993127227e-01
     1194000000    2.562705614e-02    6.010403633e-01
     1194500000   -1.914988388e-03    6.021535993e-01
     1195000000   -2.606556378e-02    6.018862724e-01
     1195500000   -5.011774972e-02    5.997346640e-01
     1196000000   -7.580652088e-02    5.978736281e-01
     1196500000   -1.005355641e-01    5.939053297e-01
     1197000000   -1.251837760e-01    5.897215009e-01
     1197500000   -1.485649198e-01    5.842900872e-01
     1198000000   -1.730989069e-01    5.777819157e-01
     1198500000   -1.961298287e-01    5.703822970e-01
     1199000000   -2.207936496e-01    5.611123443e-01
     1199500000   -2.450053990e-01    5.513797402e-01
     1200000000   -2.645080388e-01    5.416321754e-01
