! NanoVNA-App
! Date: 2026-05-22 22:13:50
! Start: 1GHz Stop: 1.2GHz Points: 401
! S-Parameter data: F S11
# Hz S RI R 50
!     Frequency           S11_Real           S11_Imag
     1000000000   -2.440062463e-01   -1.428050101e-01
     1000500000   -2.357874960e-01   -1.478272676e-01
     1001000000   -2.269317210e-01   -1.533269286e-01
     1001500000   -2.181047499e-01   -1.579824537e-01
     1002000000   -2.088033408e-01   -1.621383578e-01
     1002500000   -1.997947097e-01   -1.659439653e-01
     1003000000   -1.899127811e-01   -1.699824780e-01
     1003500000   -1.810603440e-01   -1.725998819e-01
     1004000000   -1.711764187e-01   -1.763004363e-01
     1004500000   -1.621091068e-01   -1.785476804e-01
     1005000000   -1.522729993e-01   -1.803891212e-01
     1005500000   -1.425762773e-01   -1.822766066e-01
     1006000000   -1.330235004e-01   -1.838285327e-01
              0   -7.365003228e-02    5.353530496e-02
              0   -7.379066944e-02    5.338428169e-02
     1007500000   -1.047764346e-01   -1.843790710e-01
     1008000000   -9.548702091e-02   -1.838631779e-01
     1008500000   -8.636647463e-02   -1.833902597e-01
     1009000000   -7.711486518e-02   -1.817679703e-01
     1009500000   -6.799737364e-02   -1.801064163e-01
     1010000000   -5.922845379e-02   -1.777637452e-01
     1010500000   -5.056418851e-02   -1.750693023e-01
     1011000000   -4.109957069e-02   -1.722715795e-01
     1011500000   -3.316222131e-02   -1.683746129e-01
     1012000000   -2.468301542e-02   -1.648259163e-01
     1012500000   -1.659786142e-02   -1.604653299e-01
     1013000000   -8.334009908e-03   -1.556898355e-01
     1013500000   -6.331149489e-04   -1.506617516e-01
     1014000000    6.898175459e-03   -1.451435983e-01
     1014500000    1.441481803e-02   -1.391021609e-01
     1015000000    2.144286036e-02   -1.333923787e-01
     1015500000    2.802540734e-02   -1.268598884e-01
     1016000000    3.468688577e-02   -1.202264875e-01
     1016500000    4.093125835e-02   -1.130536571e-01
     1017000000    4.674781486e-02   -1.058845520e-01
     1017500000    5.256226659e-02   -9.769696742e-02
     1018000000    5.779903010e-02   -9.017013758e-02
     1018500000    6.262240559e-02   -8.158273250e-02
     1019000000    6.737452000e-02   -7.332260907e-02
     1019500000    7.131927460e-02   -6.470488012e-02
     1020000000    7.488081604e-02   -5.577765405e-02
     1020500000    7.790363580e-02   -4.667763785e-02
     1021000000    8.069308847e-02   -3.752144054e-02
     1021500000    8.307990432e-02   -2.813330479e-02
     1022000000    8.465936035e-02   -1.888642646e-02
     1022500000    8.637209237e-02   -9.229796007e-03
     1023000000    8.685188740e-02    4.671961069e-04
     1023500000    8.706264198e-02    1.086287573e-02
     1024000000    8.689493686e-02    2.047667839e-02
     1024500000    8.623963594e-02    3.084098734e-02
     1025000000    8.512969315e-02    4.105556756e-02
     1025500000    8.337317407e-02    5.076764897e-02
     1026000000    8.115266263e-02    6.079250202e-02
     1026500000    7.881946862e-02    7.091953605e-02
     1027000000    7.609044015e-02    8.107285947e-02
     1027500000    7.230120897e-02    9.111861885e-02
     1028000000    6.876412779e-02    1.007975042e-01
     1028500000    6.471938640e-02    1.109099016e-01
     1029000000    5.999873206e-02    1.202430129e-01
     1029500000    5.448507890e-02    1.297394782e-01
     1030000000    4.913762212e-02    1.385091841e-01
     1030500000    4.283495620e-02    1.475862414e-01
     1031000000    3.638894856e-02    1.554027200e-01
     1031500000    2.966581099e-02    1.639371365e-01
     1032000000    2.201221511e-02    1.712979078e-01
     1032500000    1.476013288e-02    1.790238172e-01
     1033000000    5.945056211e-03    1.859904230e-01
     1033500000   -3.090903396e-03    1.924052536e-01
     1034000000   -1.178160124e-02    1.988835633e-01
     1034500000   -2.141241916e-02    2.046389282e-01
     1035000000   -3.089099377e-02    2.102175355e-01
     1035500000   -4.135072231e-02    2.149766237e-01
     1036000000   -5.188167095e-02    2.199206352e-01
     1036500000   -6.280614436e-02    2.236295342e-01
     1037000000   -7.355741411e-02    2.273529768e-01
     1037500000   -8.486838639e-02    2.299709171e-01
     1038000000   -9.694077820e-02    2.328197658e-01
     1038500000   -1.080669612e-01    2.345893383e-01
     1039000000   -1.201202422e-01    2.359475940e-01
     1039500000   -1.322384477e-01    2.365339547e-01
     1040000000   -1.447429210e-01    2.369434834e-01
     1040500000   -1.563961208e-01    2.364648283e-01
     1041000000   -1.686366051e-01    2.354489416e-01
     1041500000   -1.806411296e-01    2.340520024e-01
     1042000000   -1.930629909e-01    2.314539552e-01
     1042500000   -2.052066624e-01    2.287009656e-01
     1043000000   -2.172321677e-01    2.253821343e-01
     1043500000   -2.288379222e-01    2.208878249e-01
     1044000000   -2.407076806e-01    2.160739750e-01
     1044500000   -2.524968982e-01    2.099830657e-01
     1045000000   -2.641922534e-01    2.043599188e-01
     1045500000   -2.753151953e-01    1.976196468e-01
     1046000000   -2.867885530e-01    1.900703907e-01
     1046500000   -2.975259125e-01    1.820665002e-01
     1047000000   -3.080188930e-01    1.733752787e-01
     1047500000   -3.183857203e-01    1.644583195e-01
     1048000000   -3.286165297e-01    1.540130377e-01
     1048500000   -3.379317224e-01    1.443174928e-01
     1049000000   -3.471970558e-01    1.331541240e-01
     1049500000   -3.555354476e-01    1.222434491e-01
     1050000000   -3.633988202e-01    1.110349745e-01
     1050500000   -3.718491197e-01    9.741240740e-02
     1051000000   -3.786080182e-01    8.582568169e-02
     1051500000   -3.858619034e-01    7.108987868e-02
     1052000000   -3.916802108e-01    5.811538547e-02
     1052500000   -3.969715536e-01    4.417686164e-02
     1053000000   -4.024808705e-01    2.927648835e-02
     1053500000   -4.064694345e-01    1.517166197e-02
     1054000000   -4.103900790e-01   -6.914584665e-04
     1054500000   -4.135599136e-01   -1.610576548e-02
     1055000000   -4.159325957e-01   -3.264112025e-02
     1055500000   -4.175418615e-01   -4.838513210e-02
     1056000000   -4.187960923e-01   -6.408920139e-02
     1056500000   -4.190065265e-01   -8.131625503e-02
     1057000000   -4.186913967e-01   -9.732251614e-02
     1057500000   -4.174745381e-01   -1.142490581e-01
     1058000000   -4.160085320e-01   -1.310603619e-01
     1058500000   -4.131019413e-01   -1.471762210e-01
     1059000000   -4.100576639e-01   -1.638431698e-01
     1059500000   -4.057638943e-01   -1.811971515e-01
     1060000000   -4.011452794e-01   -1.979163140e-01
     1060500000   -3.961212337e-01   -2.135204077e-01
     1061000000   -3.895755708e-01   -2.309204042e-01
     1061500000   -3.831042945e-01   -2.471688539e-01
     1062000000   -3.750343323e-01   -2.640295029e-01
     1062500000   -3.672512174e-01   -2.788269222e-01
     1063000000   -3.582227230e-01   -2.949326336e-01
     1063500000   -3.487531841e-01   -3.088636696e-01
     1064000000   -3.377187848e-01   -3.258214295e-01
     1064500000   -3.273019493e-01   -3.395115733e-01
     1065000000   -3.157720864e-01   -3.542489409e-01
     1065500000   -3.041774929e-01   -3.667184412e-01
     1066000000   -2.910106182e-01   -3.810341358e-01
     1066500000   -2.771471739e-01   -3.938516378e-01
     1067000000   -2.627179027e-01   -4.065201581e-01
     1067500000   -2.484662235e-01   -4.175212979e-01
     1068000000   -2.336712629e-01   -4.284959733e-01
     1068500000   -2.184342295e-01   -4.389245510e-01
     1069000000   -2.016821951e-01   -4.493818879e-01
     1069500000   -1.858721823e-01   -4.579908550e-01
     1070000000   -1.680755615e-01   -4.674203694e-01
     1070500000   -1.510220915e-01   -4.752479196e-01
     1071000000   -1.336872131e-01   -4.825135469e-01
     1071500000   -1.152641475e-01   -4.892648160e-01
     1072000000   -9.740473330e-02   -4.949177206e-01
     1072500000   -7.881242037e-02   -5.006480217e-01
     1073000000   -5.974775553e-02   -5.045601130e-01
     1073500000   -4.074886069e-02   -5.084211230e-01
     1074000000   -2.127240226e-02   -5.114054084e-01
     1074500000   -2.050799318e-03   -5.127006173e-01
     1075000000    1.713066176e-02   -5.145829320e-01
     1075500000    3.675548732e-02   -5.147441626e-01
     1076000000    5.547228083e-02   -5.145053864e-01
     1076500000    7.572255284e-02   -5.139714479e-01
     1077000000    9.522837400e-02   -5.119472146e-01
     1077500000    1.143891215e-01   -5.097389817e-01
     1078000000    1.332104951e-01   -5.059667230e-01
     1078500000    1.526812613e-01   -5.016574264e-01
     1079000000    1.720245183e-01   -4.961515665e-01
     1079500000    1.901201755e-01   -4.905067980e-01
     1080000000    2.076188922e-01   -4.841033220e-01
     1080500000    2.265974134e-01   -4.764603078e-01
     1081000000    2.436361313e-01   -4.687740803e-01
     1081500000    2.626634240e-01   -4.592145085e-01
     1082000000    2.797479033e-01   -4.493530393e-01
     1082500000    2.952730060e-01   -4.402653575e-01
     1083000000    3.123305738e-01   -4.288736582e-01
     1083500000    3.273120522e-01   -4.182535410e-01
     1084000000    3.445909619e-01   -4.043789506e-01
     1084500000    3.573187888e-01   -3.929885328e-01
     1085000000    3.729237616e-01   -3.787832558e-01
     1085500000    3.869518638e-01   -3.643966615e-01
     1086000000    3.999567032e-01   -3.504403234e-01
     1086500000    4.123812914e-01   -3.357373774e-01
     1087000000    4.254511595e-01   -3.189467788e-01
     1087500000    4.360750914e-01   -3.042101264e-01
     1088000000    4.475287497e-01   -2.871581912e-01
     1088500000    4.574043453e-01   -2.713360190e-01
     1089000000    4.675824046e-01   -2.532962263e-01
     1089500000    4.769291878e-01   -2.357657999e-01
     1090000000    4.844654202e-01   -2.182281762e-01
     1090500000    4.921104610e-01   -1.996891648e-01
     1091000000    4.991776347e-01   -1.817822903e-01
     1091500000    5.051361322e-01   -1.628338546e-01
     1092000000    5.104619265e-01   -1.438370794e-01
     1092500000    5.149772763e-01   -1.251877695e-01
     1093000000    5.188792944e-01   -1.066596135e-01
     1093500000    5.225268006e-01   -8.762694895e-02
     1094000000    5.249001384e-01   -6.815875322e-02
     1094500000    5.263465643e-01   -4.901331291e-02
     1095000000    5.272190571e-01   -3.089974448e-02
     1095500000    5.278156400e-01   -1.047548186e-02
     1096000000    5.271933079e-01    8.601712994e-03
     1096500000    5.256997943e-01    2.790544555e-02
     1097000000    5.241553187e-01    4.708482698e-02
     1097500000    5.215650201e-01    6.479018182e-02
     1098000000    5.185722709e-01    8.444341272e-02
     1098500000    5.136141181e-01    1.035284102e-01
     1099000000    5.092141628e-01    1.223488376e-01
     1099500000    5.043034554e-01    1.382729560e-01
     1100000000    4.984422922e-01    1.568824202e-01
     1100500000    4.908278286e-01    1.752967834e-01
     1101000000    4.845849276e-01    1.920765936e-01
     1101500000    4.761838317e-01    2.100345939e-01
     1102000000    4.687266350e-01    2.252898812e-01
     1102500000    4.589782655e-01    2.427019626e-01
     1103000000    4.499661624e-01    2.577392459e-01
     1103500000    4.403070211e-01    2.731127441e-01
     1104000000    4.291573763e-01    2.881229222e-01
     1104500000    4.176674783e-01    3.033601046e-01
     1105000000    4.066963494e-01    3.164582253e-01
     1105500000    3.943646252e-01    3.302315772e-01
     1106000000    3.815769851e-01    3.439020514e-01
     1106500000    3.683862090e-01    3.567855954e-01
     1107000000    3.556279540e-01    3.686992526e-01
     1107500000    3.424357176e-01    3.796393871e-01
     1108000000    3.272164464e-01    3.917636871e-01
     1108500000    3.123000562e-01    4.029720128e-01
     1109000000    2.979027629e-01    4.125384688e-01
     1109500000    2.816413641e-01    4.226868749e-01
     1110000000    2.671966255e-01    4.315143824e-01
     1110500000    2.501980364e-01    4.408666790e-01
     1111000000    2.361275852e-01    4.481438398e-01
     1111500000    2.185465395e-01    4.558204114e-01
     1112000000    2.041821182e-01    4.623308182e-01
     1112500000    1.858299673e-01    4.694184363e-01
     1113000000    1.688319445e-01    4.748312831e-01
     1113500000    1.539451331e-01    4.802126884e-01
     1114000000    1.338546574e-01    4.853365421e-01
     1114500000    1.192255020e-01    4.887743890e-01
     1115000000    1.000473276e-01    4.922947586e-01
     1115500000    8.508676291e-02    4.955860674e-01
     1116000000    6.649190187e-02    4.979357123e-01
     1116500000    4.954387248e-02    4.992870986e-01
     1117000000    3.302448243e-02    5.008088946e-01
     1117500000    1.479182951e-02    5.008780956e-01
     1118000000   -2.517569577e-03    5.016054511e-01
     1118500000   -2.019985020e-02    5.005444288e-01
     1119000000   -3.642687574e-02    4.998653233e-01
     1119500000   -5.325134844e-02    4.979160130e-01
     1120000000   -6.988943368e-02    4.957474470e-01
     1120500000   -8.737215400e-02    4.933191240e-01
     1121000000   -1.045643389e-01    4.897564054e-01
     1121500000   -1.209409460e-01    4.859941006e-01
     1122000000   -1.375220269e-01    4.810430408e-01
     1122500000   -1.539569199e-01    4.757431448e-01
     1123000000   -1.697172523e-01    4.706875682e-01
     1123500000   -1.867911667e-01    4.645160437e-01
     1124000000   -2.019976676e-01    4.586682022e-01
     1124500000   -2.172255516e-01    4.513047040e-01
     1125000000   -2.314324528e-01    4.447048008e-01
     1125500000   -2.481791228e-01    4.361488819e-01
     1126000000   -2.619631588e-01    4.283027053e-01
     1126500000   -2.776876390e-01    4.190340042e-01
     1127000000   -2.914984822e-01    4.100494385e-01
     1127500000   -3.057018220e-01    4.002029598e-01
     1128000000   -3.194082975e-01    3.899276555e-01
     1128500000   -3.331004381e-01    3.787262440e-01
     1129000000   -3.438485265e-01    3.694898188e-01
     1129500000   -3.581414223e-01    3.559502661e-01
     1130000000   -3.694998324e-01    3.452848196e-01
     1130500000   -3.813345730e-01    3.326389492e-01
     1131000000   -3.921075463e-01    3.211247921e-01
     1131500000   -4.030427933e-01    3.075530827e-01
     1132000000   -4.138566852e-01    2.941528857e-01
     1132500000   -4.230327308e-01    2.809477746e-01
     1133000000   -4.331958890e-01    2.665067613e-01
     1133500000   -4.423041046e-01    2.530669868e-01
     1134000000   -4.510779083e-01    2.376373559e-01
     1134500000   -4.595032930e-01    2.218941748e-01
     1135000000   -4.666648209e-01    2.078633755e-01
     1135500000   -4.732636213e-01    1.928523928e-01
     1136000000   -4.803045392e-01    1.753146797e-01
     1136500000   -4.863444269e-01    1.603269279e-01
     1137000000   -4.919714034e-01    1.423716098e-01
     1137500000   -4.967306852e-01    1.286150366e-01
     1138000000   -5.015362501e-01    1.097430438e-01
     1138500000   -5.060138702e-01    9.424834698e-02
     1139000000   -5.089565516e-01    7.547885925e-02
     1139500000   -5.116993189e-01    5.956664309e-02
     1140000000   -5.137268901e-01    4.390193149e-02
     1140500000   -5.157994032e-01    2.386960201e-02
     1141000000   -5.162088275e-01    8.691051044e-03
     1141500000   -5.169719458e-01   -1.134596393e-02
     1142000000   -5.166038275e-01   -2.819623053e-02
     1142500000   -5.158287287e-01   -4.581919685e-02
     1143000000   -5.146254301e-01   -6.280855834e-02
     1143500000   -5.126192570e-01   -8.183211088e-02
     1144000000   -5.101714730e-01   -9.943476319e-02
     1144500000   -5.063594580e-01   -1.172765270e-01
     1145000000   -5.028975010e-01   -1.348385364e-01
     1145500000   -4.987972677e-01   -1.523516178e-01
     1146000000   -4.933148026e-01   -1.699245870e-01
     1146500000   -4.873584211e-01   -1.888488829e-01
     1147000000   -4.810374081e-01   -2.045052052e-01
     1147500000   -4.744614959e-01   -2.217750549e-01
     1148000000   -4.666797221e-01   -2.395249307e-01
     1148500000   -4.588534832e-01   -2.552162707e-01
     1149000000   -4.500552118e-01   -2.721516490e-01
     1149500000   -4.410232902e-01   -2.875524163e-01
     1150000000   -4.312875569e-01   -3.037970364e-01
     1150500000   -4.210146368e-01   -3.192984164e-01
     1151000000   -4.088926911e-01   -3.353849351e-01
     1151500000   -3.975368142e-01   -3.506178260e-01
     1152000000   -3.845199347e-01   -3.655280173e-01
     1152500000   -3.729393482e-01   -3.778101802e-01
     1153000000   -3.587102592e-01   -3.927162588e-01
     1153500000   -3.447472751e-01   -4.059920609e-01
     1154000000   -3.309528232e-01   -4.177664816e-01
     1154500000   -3.168090582e-01   -4.288942218e-01
     1155000000   -3.004810512e-01   -4.417835474e-01
     1155500000   -2.853027582e-01   -4.528511465e-01
     1156000000   -2.688769698e-01   -4.632795751e-01
     1156500000   -2.516078055e-01   -4.739186466e-01
     1157000000   -2.343201637e-01   -4.829669893e-01
     1157500000   -2.170636803e-01   -4.917245805e-01
     1158000000   -1.995424777e-01   -4.991899729e-01
     1158500000   -1.806840152e-01   -5.071589947e-01
     1159000000   -1.628177762e-01   -5.133897662e-01
     1159500000   -1.421273947e-01   -5.205001831e-01
     1160000000   -1.251853108e-01   -5.245018601e-01
     1160500000   -1.051886901e-01   -5.295095444e-01
     1161000000   -8.499008417e-02   -5.338965654e-01
     1161500000   -6.532555073e-02   -5.364942551e-01
     1162000000   -4.344094545e-02   -5.395755768e-01
     1162500000   -2.669348381e-02   -5.403991342e-01
     1163000000   -3.466346767e-03   -5.418334007e-01
     1163500000    1.488564350e-02   -5.412684679e-01
     1164000000    3.563096374e-02   -5.404146910e-01
     1164500000    5.669812858e-02   -5.391761065e-01
     1165000000    7.600909472e-02   -5.366972089e-01
     1165500000    9.650672227e-02   -5.334884524e-01
     1166000000    1.164531037e-01   -5.292177200e-01
     1166500000    1.367729157e-01   -5.242310166e-01
     1167000000    1.560314149e-01   -5.192226171e-01
     1167500000    1.750331521e-01   -5.129715204e-01
     1168000000    1.960988492e-01   -5.051114559e-01
     1168500000    2.151225209e-01   -4.971664250e-01
     1169000000    2.335170954e-01   -4.885136187e-01
     1169500000    2.527168691e-01   -4.787603319e-01
     1170000000    2.702783346e-01   -4.686703384e-01
     1170500000    2.890552580e-01   -4.572699368e-01
     1171000000    3.059600294e-01   -4.457803965e-01
     1171500000    3.231391907e-01   -4.335268736e-01
     1172000000    3.393167853e-01   -4.201957285e-01
     1172500000    3.563691080e-01   -4.058744311e-01
     1173000000    3.697608411e-01   -3.932222128e-01
     1173500000    3.872056305e-01   -3.764063716e-01
     1174000000    4.014691114e-01   -3.612392545e-01
     1174500000    4.141263664e-01   -3.459354043e-01
     1175000000    4.286287427e-01   -3.285827041e-01
     1175500000    4.398669600e-01   -3.118564487e-01
     1176000000    4.515061975e-01   -2.949425578e-01
     1176500000    4.626683295e-01   -2.767013609e-01
     1177000000    4.730467200e-01   -2.582270801e-01
     1177500000    4.824111760e-01   -2.401860505e-01
     1178000000    4.922172725e-01   -2.178437561e-01
     1178500000    4.988431036e-01   -2.012071460e-01
     1179000000    5.070511103e-01   -1.797747165e-01
     1179500000    5.128743649e-01   -1.607167125e-01
     1180000000    5.182459950e-01   -1.394044906e-01
     1180500000    5.226741433e-01   -1.202333644e-01
     1181000000    5.263823867e-01   -9.923466295e-02
     1181500000    5.289595127e-01   -7.865043730e-02
     1182000000    5.311757922e-01   -5.679406598e-02
     1182500000    5.322490335e-01   -3.656946868e-02
     1183000000    5.326335430e-01   -1.472181734e-02
     1183500000    5.317584872e-01    5.930235144e-03
     1184000000    5.304315090e-01    2.654598653e-02
     1184500000    5.281630754e-01    4.819376022e-02
     1185000000    5.248746276e-01    6.834310293e-02
     1185500000    5.210488439e-01    8.884076774e-02
     1186000000    5.163331032e-01    1.097527742e-01
     1186500000    5.109778047e-01    1.281694472e-01
     1187000000    5.041405559e-01    1.489805281e-01
     1187500000    4.970939159e-01    1.677967757e-01
     1188000000    4.885542393e-01    1.880926192e-01
     1188500000    4.800374508e-01    2.056165040e-01
     1189000000    4.704947174e-01    2.241844237e-01
     1189500000    4.609393477e-01    2.401229590e-01
     1190000000    4.487765431e-01    2.595264912e-01
     1190500000    4.365850389e-01    2.775100470e-01
     1191000000    4.257939756e-01    2.911826670e-01
     1191500000    4.108016789e-01    3.095575571e-01
     1192000000    3.985067904e-01    3.227516115e-01
     1192500000    3.842146099e-01    3.378185630e-01
     1193000000    3.676026464e-01    3.535480499e-01
     1193500000    3.542928398e-01    3.651514351e-01
     1194000000    3.371833265e-01    3.783868253e-01
     1194500000    3.216297626e-01    3.898341954e-01
     1195000000    3.064025044e-01    4.002309442e-01
     1195500000    2.873948812e-01    4.120429158e-01
     1196000000    2.701077163e-01    4.219602644e-01
     1196500000    2.545994818e-01    4.298597574e-01
     1197000000    2.352947146e-01    4.393078089e-01
     1197500000    2.185725272e-01    4.459394515e-01
     1198000000    1.997029781e-01    4.528575242e-01
     1198500000    1.822690815e-01    4.584204555e-01
     1199000000    1.625503451e-01    4.637486637e-01
     1199500000    1.442517489e-01    4.680742025e-01
     1200000000    1.253968030e-01    4.709419012e-01
