! NanoVNA-App
! Date: 2026-05-22 17:33:49
! Start: 2.3GHz Stop: 2.6GHz Points: 401
! S-Parameter data: F S11
# Hz S RI R 50
!     Frequency           S11_Real           S11_Imag
     2300000000    2.568075359e-01    1.807304025e-01
     2300750000    2.380288392e-01    2.013169080e-01
     2301500000    2.155835330e-01    2.216461599e-01
     2302250000    1.939855665e-01    2.379711419e-01
     2303000000    1.704667062e-01    2.515890896e-01
     2303750000    1.456587762e-01    2.634342909e-01
     2304500000    1.202849597e-01    2.740275264e-01
              0    1.588030905e-01    1.007617861e-01
              0    1.584005356e-01    1.012803540e-01
              0    1.584189385e-01    1.014015228e-01
              0    1.581119597e-01    1.020239890e-01
              0    1.582258940e-01    1.019759178e-01
              0    1.578276157e-01    1.026565656e-01
              0    1.577159017e-01    1.030668616e-01
     2310500000   -8.816064149e-02    2.661328018e-01
     2311250000   -1.098865420e-01    2.549157739e-01
     2312000000   -1.318033934e-01    2.428714931e-01
     2312750000   -1.516306549e-01    2.280928195e-01
     2313500000   -1.719036400e-01    2.107665837e-01
     2314250000   -1.881944984e-01    1.940405369e-01
     2315000000   -2.047424763e-01    1.731747091e-01
     2315750000   -2.183546424e-01    1.534714252e-01
     2316500000   -2.283924073e-01    1.329398751e-01
     2317250000   -2.401002944e-01    1.085980609e-01
     2318000000   -2.458354235e-01    8.883045614e-02
     2318750000   -2.525185347e-01    6.268461794e-02
     2319500000   -2.546847761e-01    4.178977758e-02
     2320250000   -2.556680441e-01    1.789745316e-02
     2321000000   -2.543591559e-01   -3.581974190e-03
     2321750000   -2.515684366e-01   -2.769439295e-02
     2322500000   -2.464597225e-01   -4.767492041e-02
     2323250000   -2.391348779e-01   -7.021220028e-02
     2324000000   -2.306006700e-01   -8.768907934e-02
     2324750000   -2.189047486e-01   -1.095074713e-01
     2325500000   -2.074777782e-01   -1.256961077e-01
     2326250000   -1.909501702e-01   -1.461977661e-01
     2327000000   -1.778811663e-01   -1.581562161e-01
     2327750000   -1.613427401e-01   -1.727433354e-01
     2328500000   -1.431816220e-01   -1.850675941e-01
     2329250000   -1.266359836e-01   -1.947042048e-01
     2330000000   -1.079720035e-01   -2.037009746e-01
     2330750000   -8.736944944e-02   -2.109374553e-01
     2331500000   -6.486211717e-02   -2.170455009e-01
     2332250000   -4.670909420e-02   -2.199009359e-01
     2333000000   -2.703502774e-02   -2.211496383e-01
     2333750000   -7.326009683e-03   -2.212098837e-01
     2334500000    1.182359923e-02   -2.191096246e-01
     2335250000    3.171892837e-02   -2.150591612e-01
     2336000000    5.020818859e-02   -2.099222988e-01
     2336750000    6.838473678e-02   -2.030549049e-01
     2337500000    8.535725623e-02   -1.946835965e-01
     2338250000    1.015319079e-01   -1.849495769e-01
     2339000000    1.171225533e-01   -1.738108844e-01
     2339750000    1.313256770e-01   -1.604875773e-01
     2340500000    1.427389830e-01   -1.484531313e-01
     2341250000    1.526062340e-01   -1.360943615e-01
     2342000000    1.619942933e-01   -1.210735291e-01
     2342750000    1.718510687e-01   -1.037334129e-01
     2343500000    1.775602996e-01   -8.872973919e-02
     2344250000    1.831482202e-01   -7.243356109e-02
     2345000000    1.863885820e-01   -5.564379320e-02
     2345750000    1.882735491e-01   -4.006590694e-02
     2346500000    1.887267381e-01   -2.530679479e-02
     2347250000    1.884965897e-01   -5.315767135e-03
     2348000000    1.853940189e-01    9.442705661e-03
     2348750000    1.812834442e-01    2.588362806e-02
     2349500000    1.770498008e-01    3.874438256e-02
     2350250000    1.697365642e-01    5.344676971e-02
     2351000000    1.624670625e-01    6.705111265e-02
     2351750000    1.527763754e-01    8.166197687e-02
     2352500000    1.453666985e-01    9.018111229e-02
     2353250000    1.332708895e-01    1.032487601e-01
     2354000000    1.206404194e-01    1.143311709e-01
     2354750000    1.113902256e-01    1.206214800e-01
     2355500000    9.911198914e-02    1.284666061e-01
     2356250000    8.478327096e-02    1.354038566e-01
     2357000000    7.130750269e-02    1.406103075e-01
     2357750000    6.010799110e-02    1.440303773e-01
     2358500000    4.670118168e-02    1.467075944e-01
     2359250000    3.257052228e-02    1.479555815e-01
     2360000000    1.933128946e-02    1.483482271e-01
     2360750000    7.500421721e-03    1.474238187e-01
     2361500000   -5.791832227e-03    1.453091353e-01
     2362250000   -1.576600038e-02    1.425353438e-01
     2363000000   -2.672663517e-02    1.386788934e-01
     2363750000   -3.786302358e-02    1.337222308e-01
     2364500000   -4.861453548e-02    1.279605180e-01
     2365250000   -5.719088763e-02    1.212660149e-01
     2366000000   -6.689256430e-02    1.135091260e-01
     2366750000   -7.435395569e-02    1.058562919e-01
     2367500000   -8.109726012e-02    9.795651585e-02
     2368250000   -8.728294820e-02    8.858802915e-02
     2369000000   -9.310191870e-02    7.908552140e-02
     2369750000   -9.787115455e-02    6.885774434e-02
     2370500000   -1.009821966e-01    6.011012942e-02
     2371250000   -1.034533381e-01    5.002555251e-02
     2372000000   -1.055628359e-01    3.971232846e-02
     2372750000   -1.068270504e-01    3.141516820e-02
     2373500000   -1.066880822e-01    2.023270354e-02
     2374250000   -1.068323255e-01    1.301704813e-02
     2375000000   -1.051936001e-01    2.292121761e-03
     2375750000   -1.031391025e-01   -5.109774880e-03
     2376500000   -9.954088181e-02   -1.477719937e-02
     2377250000   -9.762024134e-02   -2.071654983e-02
     2378000000   -9.348978847e-02   -2.826869674e-02
     2378750000   -8.820674568e-02   -3.581028804e-02
     2379500000   -8.354309201e-02   -4.215425253e-02
     2380250000   -7.773770392e-02   -4.717162251e-02
     2381000000   -7.460913062e-02   -5.139158666e-02
     2381750000   -6.658401340e-02   -5.606361851e-02
     2382500000   -6.082852557e-02   -5.953087658e-02
     2383250000   -5.730423331e-02   -6.223910674e-02
     2384000000   -4.990178347e-02   -6.464939564e-02
     2384750000   -4.191011935e-02   -6.654696167e-02
     2385500000   -3.909409046e-02   -6.815194339e-02
     2386250000   -3.083584458e-02   -6.805236638e-02
     2387000000   -2.657897025e-02   -6.891313195e-02
     2387750000   -1.933868229e-02   -6.814815849e-02
     2388500000   -1.488124579e-02   -6.801012903e-02
     2389250000   -9.838282131e-03   -6.652726978e-02
     2390000000   -5.398599431e-03   -6.494908035e-02
     2390750000   -8.179452852e-04   -6.357432157e-02
     2391500000    3.963612951e-03   -6.139195338e-02
     2392250000    8.049387485e-03   -5.811657012e-02
     2393000000    1.074381080e-02   -5.744785815e-02
     2393750000    1.446553599e-02   -5.414996669e-02
     2394500000    1.776354387e-02   -5.110919476e-02
     2395250000    1.999566332e-02   -4.958926514e-02
     2396000000    2.245857008e-02   -4.668414593e-02
     2396750000    2.438599430e-02   -4.410279170e-02
     2397500000    2.632222697e-02   -4.173577204e-02
     2398250000    2.754648030e-02   -3.933164850e-02
     2399000000    2.857142501e-02   -3.745378554e-02
     2399750000    3.009046987e-02   -3.533178568e-02
     2400500000    3.101946414e-02   -3.409953043e-02
     2401250000    3.138341382e-02   -3.208180144e-02
     2402000000    3.135527670e-02   -2.983359620e-02
     2402750000    3.231698275e-02   -2.983201481e-02
     2403500000    3.202257305e-02   -2.802149020e-02
     2404250000    3.191868961e-02   -2.650501765e-02
     2405000000    3.282066435e-02   -2.571003512e-02
     2405750000    3.247785941e-02   -2.449151874e-02
     2406500000    3.298909217e-02   -2.389001474e-02
     2407250000    3.302016482e-02   -2.287926339e-02
     2408000000    3.325955942e-02   -2.212249115e-02
     2408750000    3.425171971e-02   -2.039657161e-02
     2409500000    3.370882571e-02   -1.953175478e-02
     2410250000    3.532632813e-02   -1.841567084e-02
     2411000000    3.639397025e-02   -1.731662825e-02
     2411750000    3.814438358e-02   -1.611659676e-02
     2412500000    3.855743259e-02   -1.515727583e-02
     2413250000    3.987169266e-02   -1.352005359e-02
     2414000000    4.172121361e-02   -1.216367073e-02
     2414750000    4.357494414e-02   -1.006993372e-02
     2415500000    4.488918930e-02   -8.819077164e-03
     2416250000    4.623225704e-02   -6.911298260e-03
     2417000000    4.844873771e-02   -4.480369855e-03
     2417750000    4.957661778e-02   -1.606806414e-03
     2418500000    5.139029399e-02    1.181208878e-03
     2419250000    5.249564350e-02    3.969423473e-03
     2420000000    5.350092426e-02    6.684540771e-03
     2420750000    5.456472561e-02    1.002646610e-02
     2421500000    5.543893203e-02    1.344216708e-02
     2422250000    5.623539910e-02    1.748264581e-02
     2423000000    5.630350485e-02    2.164366283e-02
     2423750000    5.591494590e-02    2.562348917e-02
     2424500000    5.567649007e-02    2.962683886e-02
     2425250000    5.511682853e-02    3.407149389e-02
     2426000000    5.361086875e-02    3.911964968e-02
     2426750000    5.141837522e-02    4.357404634e-02
     2427500000    5.020072311e-02    4.814784601e-02
     2428250000    4.692978412e-02    5.279663578e-02
     2429000000    4.386576265e-02    5.705996603e-02
     2429750000    4.051496089e-02    6.178677827e-02
     2430500000    3.622939810e-02    6.572906673e-02
     2431250000    3.210488334e-02    6.985967606e-02
     2432000000    2.739909664e-02    7.380571961e-02
     2432750000    2.160488814e-02    7.701259106e-02
     2433500000    1.567155682e-02    7.986147702e-02
     2434250000    9.812327102e-03    8.171468973e-02
     2435000000    3.761790460e-03    8.427462727e-02
     2435750000   -3.480175743e-03    8.573698997e-02
     2436500000   -1.033238973e-02    8.684828877e-02
     2437250000   -1.749509200e-02    8.726296574e-02
     2438000000   -2.467104048e-02    8.699310571e-02
     2438750000   -3.216294944e-02    8.568213880e-02
     2439500000   -4.015778378e-02    8.266951889e-02
     2440250000   -4.745153710e-02    8.076622337e-02
     2441000000   -5.449409783e-02    7.788160443e-02
     2441750000   -6.216463447e-02    7.304878533e-02
     2442500000   -6.919144839e-02    6.943062693e-02
     2443250000   -7.623315603e-02    6.362621486e-02
     2444000000   -8.250672370e-02    5.724408478e-02
     2444750000   -8.814436197e-02    5.038253590e-02
     2445500000   -9.374221414e-02    4.305085912e-02
     2446250000   -9.925843030e-02    3.578541055e-02
     2447000000   -1.033110097e-01    2.722631022e-02
     2447750000   -1.067656726e-01    1.773658022e-02
     2448500000   -1.095732003e-01    8.315360174e-03
     2449250000   -1.109712720e-01   -1.631626510e-03
     2450000000   -1.121540293e-01   -1.232263725e-02
     2450750000   -1.119196489e-01   -2.258395776e-02
     2451500000   -1.116135269e-01   -3.280092031e-02
     2452250000   -1.098094434e-01   -4.389695451e-02
     2453000000   -1.068742424e-01   -5.451767519e-02
     2453750000   -1.027926207e-01   -6.535219401e-02
     2454500000   -9.924578667e-02   -7.655914873e-02
     2455250000   -9.361056238e-02   -8.610723168e-02
     2456000000   -8.646899462e-02   -9.555824101e-02
     2456750000   -7.950717956e-02   -1.050168648e-01
     2457500000   -7.158843428e-02   -1.136808246e-01
     2458250000   -6.281252950e-02   -1.215782315e-01
     2459000000   -5.256010219e-02   -1.281168312e-01
     2459750000   -4.301127419e-02   -1.350067556e-01
     2460500000   -3.186323866e-02   -1.393431425e-01
     2461250000   -2.028034069e-02   -1.434049606e-01
     2462000000   -7.539943792e-03   -1.482252181e-01
     2462750000    4.099464044e-03   -1.483318359e-01
     2463500000    1.651981845e-02   -1.506876796e-01
     2464250000    2.948072925e-02   -1.496479362e-01
     2465000000    4.282014444e-02   -1.492284685e-01
     2465750000    5.623477697e-02   -1.461367905e-01
     2466500000    6.918106228e-02   -1.433439702e-01
     2467250000    8.095300198e-02   -1.373260915e-01
     2468000000    9.311841428e-02   -1.313180327e-01
     2468750000    1.047615856e-01   -1.237516180e-01
     2469500000    1.162084416e-01   -1.152116954e-01
     2470250000    1.265016645e-01   -1.055475548e-01
     2471000000    1.356088966e-01   -9.505081922e-02
     2471750000    1.452515423e-01   -8.319465816e-02
     2472500000    1.527565420e-01   -7.066656649e-02
     2473250000    1.600102931e-01   -5.742618814e-02
     2474000000    1.648461968e-01   -4.363755509e-02
     2474750000    1.690626442e-01   -2.861535363e-02
     2475500000    1.719216853e-01   -1.352729928e-02
     2476250000    1.741483659e-01    1.710778452e-03
     2477000000    1.748446524e-01    1.693620719e-02
     2477750000    1.734766811e-01    3.270395100e-02
     2478500000    1.713945121e-01    4.952017590e-02
     2479250000    1.676507741e-01    6.400554627e-02
     2480000000    1.628885865e-01    7.981355488e-02
     2480750000    1.555217952e-01    9.430023283e-02
     2481500000    1.480078697e-01    1.084117442e-01
     2482250000    1.387601644e-01    1.220013872e-01
     2483000000    1.281141937e-01    1.342054009e-01
     2483750000    1.164014265e-01    1.460925192e-01
     2484500000    1.034238487e-01    1.574575901e-01
     2485250000    8.903358132e-02    1.669568866e-01
     2486000000    7.407248020e-02    1.746768802e-01
     2486750000    5.808355287e-02    1.817148477e-01
     2487500000    4.121324047e-02    1.884683818e-01
     2488250000    2.489804849e-02    1.914551705e-01
     2489000000    6.394895259e-03    1.946806312e-01
     2489750000   -1.151851658e-02    1.959013939e-01
     2490500000   -2.878839150e-02    1.959874183e-01
     2491250000   -4.695571959e-02    1.937587708e-01
     2492000000   -6.479021907e-02    1.900285035e-01
     2492750000   -8.221974969e-02    1.855034679e-01
     2493500000   -9.906101972e-02    1.781498641e-01
     2494250000   -1.156330407e-01    1.701425314e-01
     2495000000   -1.308178753e-01    1.599398255e-01
     2495750000   -1.454068422e-01    1.477952451e-01
     2496500000   -1.592688709e-01    1.353409290e-01
     2497250000   -1.727000922e-01    1.208422035e-01
     2498000000   -1.818246692e-01    1.059668809e-01
     2498750000   -1.926758885e-01    8.915708959e-02
     2499500000   -2.009549439e-01    7.191035897e-02
     2500250000   -2.100554854e-01    5.280619487e-02
     2501000000   -2.143130153e-01    3.437506780e-02
     2501750000   -2.175484449e-01    1.613774709e-02
     2502500000   -2.199767232e-01   -4.836463369e-03
     2503250000   -2.183249593e-01   -2.289125510e-02
     2504000000   -2.180982232e-01   -4.467025027e-02
     2504750000   -2.139900774e-01   -6.367123127e-02
     2505500000   -2.089338750e-01   -8.530122042e-02
     2506250000   -2.024247944e-01   -1.035248712e-01
     2507000000   -1.920779496e-01   -1.208471730e-01
     2507750000   -1.822370142e-01   -1.392572075e-01
     2508500000   -1.698471308e-01   -1.532779038e-01
     2509250000   -1.557759792e-01   -1.716729552e-01
     2510000000   -1.403161436e-01   -1.858262718e-01
     2510750000   -1.233364120e-01   -1.962827444e-01
     2511500000   -1.054691821e-01   -2.089914680e-01
     2512250000   -8.636344224e-02   -2.190273851e-01
     2513000000   -6.671944261e-02   -2.274682969e-01
     2513750000   -4.575634748e-02   -2.343361676e-01
     2514500000   -2.551558614e-02   -2.376352698e-01
     2515250000   -1.735777594e-03   -2.411244810e-01
     2516000000    1.980115660e-02   -2.417984605e-01
     2516750000    3.994813934e-02   -2.389474958e-01
     2517500000    6.161104515e-02   -2.350039482e-01
     2518250000    8.375016600e-02   -2.301242203e-01
     2519000000    1.047862843e-01   -2.221958786e-01
     2519750000    1.250544041e-01   -2.126172036e-01
     2520500000    1.469668299e-01   -2.011099458e-01
     2521250000    1.644139439e-01   -1.872549057e-01
     2522000000    1.817373931e-01   -1.718200445e-01
     2522750000    1.976812929e-01   -1.552341282e-01
     2523500000    2.127601057e-01   -1.374189407e-01
     2524250000    2.253022194e-01   -1.171182692e-01
     2525000000    2.372436076e-01   -9.613627195e-02
     2525750000    2.468237579e-01   -7.433882356e-02
     2526500000    2.557304800e-01   -5.048776790e-02
     2527250000    2.604638040e-01   -2.773430757e-02
     2528000000    2.642092109e-01   -3.502699081e-03
     2528750000    2.658235729e-01    2.001210488e-02
     2529500000    2.646253705e-01    4.349838570e-02
     2530250000    2.621819973e-01    6.819531322e-02
     2531000000    2.575940192e-01    9.234327823e-02
     2531750000    2.500891387e-01    1.165918782e-01
     2532500000    2.404278517e-01    1.371814013e-01
     2533250000    2.282719612e-01    1.597499847e-01
     2534000000    2.141631544e-01    1.787969470e-01
     2534750000    1.988324076e-01    1.981246471e-01
     2535500000    1.812109798e-01    2.158074081e-01
     2536250000    1.621818542e-01    2.324462235e-01
     2537000000    1.409057826e-01    2.467618287e-01
     2537750000    1.191706732e-01    2.581873834e-01
     2538500000    9.529761970e-02    2.698860466e-01
     2539250000    7.027401775e-02    2.794159055e-01
     2540000000    4.593822733e-02    2.836798131e-01
     2540750000    2.006134763e-02    2.880200148e-01
     2541500000   -5.555767100e-03    2.896406353e-01
     2542250000   -3.208738938e-02    2.886773348e-01
     2543000000   -5.758064985e-02    2.851374149e-01
     2543750000   -8.377210051e-02    2.790509164e-01
     2544500000   -1.094680205e-01    2.714774311e-01
     2545250000   -1.338963807e-01    2.610552013e-01
     2546000000   -1.590634137e-01    2.489325553e-01
     2546750000   -1.796082258e-01    2.332098186e-01
     2547500000   -2.022934556e-01    2.169381231e-01
     2548250000   -2.216600329e-01    1.977286935e-01
     2549000000   -2.402516901e-01    1.775179803e-01
     2549750000   -2.562496066e-01    1.544776261e-01
     2550500000   -2.716607451e-01    1.304194033e-01
     2551250000   -2.817256153e-01    1.057567969e-01
     2552000000   -2.916157544e-01    8.160674572e-02
     2552750000   -2.972307503e-01    5.437831581e-02
     2553500000   -3.039107919e-01    2.666530758e-02
     2554250000   -3.059792221e-01   -5.314233713e-03
     2555000000   -3.060848117e-01   -3.159426153e-02
     2555750000   -3.023481667e-01   -5.864737183e-02
     2556500000   -2.973936498e-01   -8.992318064e-02
     2557250000   -2.895253301e-01   -1.131889224e-01
     2558000000   -2.790364921e-01   -1.439598501e-01
     2558750000   -2.656342089e-01   -1.711499244e-01
     2559500000   -2.509418130e-01   -1.938623488e-01
     2560250000   -2.331083417e-01   -2.182039171e-01
     2561000000   -2.143244147e-01   -2.374111414e-01
     2561750000   -1.926645339e-01   -2.588993311e-01
     2562500000   -1.685803086e-01   -2.787345648e-01
     2563250000   -1.432343572e-01   -2.952047586e-01
     2564000000   -1.178215221e-01   -3.079100549e-01
     2564750000   -9.246167541e-02   -3.174804747e-01
     2565500000   -5.991053954e-02   -3.293792903e-01
     2566250000   -3.265104070e-02   -3.339078426e-01
     2567000000   -1.736065722e-03   -3.381621242e-01
     2567750000    2.692816779e-02   -3.375462592e-01
     2568500000    5.987206101e-02   -3.365441263e-01
     2569250000    8.719816804e-02   -3.309749961e-01
     2570000000    1.196850389e-01   -3.245790005e-01
     2570750000    1.474270523e-01   -3.146143854e-01
     2571500000    1.755760610e-01   -3.011121750e-01
     2572250000    2.016862333e-01   -2.864109576e-01
     2573000000    2.246899158e-01   -2.682501674e-01
     2573750000    2.496873736e-01   -2.472982258e-01
     2574500000    2.708559036e-01   -2.258899212e-01
     2575250000    2.905457318e-01   -2.011148632e-01
     2576000000    3.079867661e-01   -1.749745011e-01
     2576750000    3.219950795e-01   -1.490805745e-01
     2577500000    3.358862996e-01   -1.181847900e-01
     2578250000    3.454845846e-01   -8.819416910e-02
     2579000000    3.520833850e-01   -5.718924105e-02
     2579750000    3.573232293e-01   -2.700104751e-02
     2580500000    3.585064709e-01    6.087839138e-03
     2581250000    3.567804992e-01    3.884233162e-02
     2582000000    3.523394465e-01    7.115052640e-02
     2582750000    3.468796015e-01    1.038356498e-01
     2583500000    3.352610767e-01    1.337226629e-01
     2584250000    3.231142461e-01    1.645218283e-01
     2585000000    3.067169785e-01    1.931524724e-01
     2585750000    2.884220481e-01    2.227422297e-01
     2586500000    2.684077024e-01    2.465913594e-01
     2587250000    2.450218499e-01    2.728556991e-01
     2588000000    2.213473916e-01    2.927607596e-01
     2588750000    1.931573898e-01    3.133974075e-01
     2589500000    1.660217345e-01    3.286773860e-01
     2590250000    1.337543577e-01    3.456006944e-01
     2591000000    1.033681259e-01    3.558801711e-01
     2591750000    6.864949316e-02    3.654787242e-01
     2592500000    3.743465990e-02    3.695260882e-01
     2593250000    3.745534690e-03    3.743938804e-01
     2594000000   -3.020906262e-02    3.727485240e-01
     2594750000   -6.459549814e-02    3.699186444e-01
     2595500000   -9.514047951e-02    3.635453582e-01
     2596250000   -1.316864341e-01    3.541974723e-01
     2597000000   -1.611931175e-01    3.426636159e-01
     2597750000   -1.940461397e-01    3.267677426e-01
     2598500000   -2.233616114e-01    3.076292276e-01
     2599250000   -2.505125701e-01    2.874466181e-01
     2600000000   -2.796527147e-01    2.635614574e-01
