! NanoVNA-App
! Date: 2026-05-22 17:30:44
! Start: 4.8GHz Stop: 6GHz Points: 401
! S-Parameter data: F S11
# Hz S RI R 50
!     Frequency           S11_Real           S11_Imag
     4800000000    5.521656871e-01    2.314377725e-01
     4803000000    4.310413301e-01    4.158280492e-01
     4806000000    2.543718815e-01    5.431404114e-01
     4809000000    3.990731388e-02    5.961050987e-01
     4812000000   -1.767791808e-01    5.733556151e-01
     4815000000   -3.726165295e-01    4.704093635e-01
     4818000000   -5.174723864e-01    3.024858236e-01
     4821000000   -5.925565362e-01    9.672939777e-02
     4824000000   -5.879566669e-01   -1.226174831e-01
     4827000000   -5.043303370e-01   -3.299199641e-01
     4830000000   -3.523443937e-01   -4.888700545e-01
     4833000000   -1.534522474e-01   -5.845174193e-01
     4836000000    6.791656464e-02   -6.018275023e-01
     4839000000    2.818785906e-01   -5.363588929e-01
     4842000000    4.564484060e-01   -3.987300098e-01
     4845000000    5.691468120e-01   -2.093040347e-01
     4848000000    6.068196893e-01    1.001506019e-02
     4851000000    5.617313385e-01    2.291006297e-01
     4854000000    4.421180785e-01    4.175558388e-01
     4857000000    2.626157105e-01    5.493294597e-01
     4860000000    4.427714273e-02    6.084602475e-01
     4863000000   -1.795320362e-01    5.851896405e-01
     4866000000   -3.767627776e-01    4.847334921e-01
     4869000000   -5.284026265e-01    3.136582971e-01
     4872000000   -6.053219438e-01    1.056412682e-01
     4875000000   -6.051092148e-01   -1.200174168e-01
     4878000000   -5.180698633e-01   -3.341962397e-01
     4881000000   -3.635529280e-01   -4.979678392e-01
     4884000000   -1.639468968e-01   -5.967840552e-01
     4887000000    6.536442786e-02   -6.166281104e-01
     4890000000    2.821415067e-01   -5.522006750e-01
     4893000000    4.622684419e-01   -4.134029746e-01
     4896000000    5.808230042e-01   -2.192049325e-01
     4899000000    6.215080023e-01    4.267582670e-03
     4902000000    5.776567459e-01    2.302823514e-01
     4905000000    4.571054876e-01    4.229270518e-01
     4908000000    2.751072943e-01    5.603272915e-01
     4911000000    5.523436517e-02    6.215640903e-01
     4914000000   -1.750937700e-01    5.991751552e-01
     4917000000   -3.791027069e-01    4.972355366e-01
     4920000000   -5.327200890e-01    3.269629180e-01
     4923000000   -6.144729257e-01    1.121087074e-01
     4926000000   -6.139174700e-01   -1.159205884e-01
     4929000000   -5.291566849e-01   -3.304833770e-01
     4932000000   -3.728217483e-01   -5.002917647e-01
     4935000000   -1.682356745e-01   -6.019106507e-01
     4938000000    6.333786249e-02   -6.236813068e-01
     4941000000    2.873748839e-01   -5.571873784e-01
     4944000000    4.669789374e-01   -4.206497669e-01
     4947000000    5.867577195e-01   -2.251593620e-01
     4950000000    6.282137036e-01    2.625169232e-03
     4953000000    5.842499137e-01    2.305629253e-01
     4956000000    4.603957236e-01    4.269553721e-01
     4959000000    2.774888873e-01    5.626598597e-01
     4962000000    5.376747996e-02    6.248291135e-01
     4965000000   -1.786147952e-01    6.016983390e-01
     4968000000   -3.845658898e-01    4.986886084e-01
     4971000000   -5.379450321e-01    3.276463151e-01
     4974000000   -6.199645400e-01    1.118456349e-01
     4977000000   -6.191806793e-01   -1.201584563e-01
     4980000000   -5.348125696e-01   -3.344671428e-01
     4983000000   -3.767426908e-01   -5.050104856e-01
     4986000000   -1.688831896e-01   -6.056752205e-01
     4989000000    6.261795759e-02   -6.250447035e-01
     4992000000    2.800473869e-01   -5.589319468e-01
     4995000000    4.638935328e-01   -4.187556803e-01
     4998000000    5.863319635e-01   -2.196950316e-01
     5001000000    6.241287589e-01    8.489830419e-03
     5004000000    5.776471496e-01    2.332781553e-01
     5007000000    4.582206011e-01    4.210519493e-01
     5010000000    2.699252665e-01    5.637176037e-01
     5013000000    4.340126738e-02    6.236509085e-01
     5016000000   -1.816918403e-01    5.981827378e-01
     5019000000   -3.860572278e-01    4.910535514e-01
     5022000000   -5.354788303e-01    3.202134073e-01
     5025000000   -6.190137267e-01    1.004104987e-01
     5028000000   -6.119934320e-01   -1.294167936e-01
     5031000000   -5.240648389e-01   -3.405339122e-01
     5034000000   -3.641602397e-01   -5.083030462e-01
     5037000000   -1.565116495e-01   -6.051361561e-01
     5040000000    7.230877131e-02   -6.195189357e-01
     5043000000    2.914310396e-01   -5.525861979e-01
     5046000000    4.744591713e-01   -4.087321460e-01
     5049000000    5.886595845e-01   -2.117134333e-01
     5052000000    6.256726384e-01    1.666714996e-02
     5055000000    5.780446529e-01    2.414657325e-01
     5058000000    4.505806863e-01    4.368242919e-01
     5061000000    2.644211054e-01    5.670728087e-01
     5064000000    4.330006987e-02    6.233972311e-01
     5067000000   -1.837225258e-01    5.936664343e-01
     5070000000   -3.849183619e-01    4.856866300e-01
     5073000000   -5.327218175e-01    3.119160831e-01
     5076000000   -6.088745594e-01    9.448606521e-02
     5079000000   -6.008038521e-01   -1.320101321e-01
     5082000000   -5.110932589e-01   -3.409427404e-01
     5085000000   -3.529846370e-01   -5.040892959e-01
     5088000000   -1.464060396e-01   -5.994450450e-01
     5091000000    7.936549932e-02   -6.108179092e-01
     5094000000    2.938580811e-01   -5.404913425e-01
     5097000000    4.713156819e-01   -3.964680731e-01
     5100000000    5.811007619e-01   -1.996042281e-01
     5103000000    6.146302819e-01    2.725293115e-02
     5106000000    5.622431040e-01    2.420490682e-01
     5109000000    4.331593513e-01    4.221310616e-01
     5112000000    2.442966700e-01    5.609107614e-01
     5115000000    2.826417796e-02    6.037678719e-01
     5118000000   -1.916133761e-01    5.743063092e-01
     5121000000   -3.970866799e-01    4.623459876e-01
     5124000000   -5.281364918e-01    2.915790975e-01
     5127000000   -6.033632755e-01    7.381080091e-02
     5130000000   -5.858327746e-01   -1.414457709e-01
     5133000000   -4.953933656e-01   -3.512444198e-01
     5136000000   -3.371175230e-01   -5.000962615e-01
     5139000000   -1.349501610e-01   -5.786306262e-01
     5142000000    9.228403121e-02   -5.956629515e-01
     5145000000    3.005526662e-01   -5.164599419e-01
     5148000000    4.682198763e-01   -3.711561263e-01
     5151000000    5.714846253e-01   -1.772591174e-01
     5154000000    5.974356532e-01    4.472405091e-02
     5157000000    5.407312512e-01    2.569997609e-01
     5160000000    4.115904868e-01    4.362216592e-01
     5163000000    2.267340273e-01    5.554513335e-01
     5166000000    4.109105095e-03    6.025713086e-01
     5169000000   -2.041480988e-01    5.628719330e-01
     5172000000   -3.998614848e-01    4.490035176e-01
     5175000000   -5.262058377e-01    2.790897191e-01
     5178000000   -5.945833325e-01    6.290881336e-02
     5181000000   -5.748850703e-01   -1.473889649e-01
     5184000000   -4.826225936e-01   -3.583349288e-01
     5187000000   -3.209306598e-01   -4.966725111e-01
     5190000000   -1.206049621e-01   -5.723592639e-01
     5193000000    1.000457928e-01   -5.820145607e-01
     5196000000    3.074869812e-01   -5.074277520e-01
     5199000000    4.543339312e-01   -3.604861200e-01
     5202000000    5.607551932e-01   -1.689727306e-01
     5205000000    5.795516372e-01    4.111853987e-02
     5208000000    5.277343392e-01    2.563591301e-01
     5211000000    3.968547285e-01    4.273738861e-01
     5214000000    2.200153470e-01    5.329150558e-01
     5217000000    7.189603057e-03    5.781471729e-01
     5220000000   -2.001499683e-01    5.390121937e-01
     5223000000   -3.809450865e-01    4.263862371e-01
     5226000000   -5.073403120e-01    2.589800358e-01
     5229000000   -5.689908266e-01    5.576502159e-02
     5232000000   -5.450820327e-01   -1.526451558e-01
     5235000000   -4.535470009e-01   -3.385109901e-01
     5238000000   -3.012111187e-01   -4.775043428e-01
     5241000000   -1.004754528e-01   -5.588316321e-01
     5244000000    9.845323116e-02   -5.515958071e-01
     5247000000    2.896924317e-01   -4.749310315e-01
     5250000000    4.494363368e-01   -3.360059261e-01
     5253000000    5.397341251e-01   -1.492580324e-01
     5256000000    5.534705520e-01    5.574045330e-02
     5259000000    4.958933294e-01    2.586951554e-01
     5262000000    3.680332899e-01    4.004680514e-01
     5265000000    1.880235374e-01    5.215759277e-01
     5268000000   -6.983776111e-03    5.487435460e-01
     5271000000   -2.105080038e-01    5.091221929e-01
     5274000000   -3.763274252e-01    3.967444897e-01
     5277000000   -4.978807867e-01    2.322639972e-01
     5280000000   -5.392397642e-01    4.849385470e-02
     5283000000   -5.249817371e-01   -1.825598180e-01
     5286000000   -4.271883965e-01   -3.368053734e-01
     5289000000   -2.716421783e-01   -4.736020565e-01
     5292000000   -8.051271737e-02   -5.401423573e-01
     5295000000    1.224461719e-01   -5.292150974e-01
     5298000000    2.974500954e-01   -4.477743804e-01
     5301000000    4.458679855e-01   -3.104182184e-01
     5304000000    5.260271430e-01   -1.265387237e-01
     5307000000    5.348234177e-01    7.205222547e-02
     5310000000    4.746790826e-01    2.611997724e-01
     5313000000    3.469429314e-01    4.109525383e-01
     5316000000    1.730554551e-01    5.055938363e-01
     5319000000   -2.387928590e-02    5.341982841e-01
     5322000000   -2.104700953e-01    4.873669147e-01
     5325000000   -3.752295673e-01    3.738463819e-01
     5328000000   -4.902862906e-01    2.061723024e-01
     5331000000   -5.203101039e-01    2.293832973e-02
     5334000000   -4.931245446e-01   -1.734209508e-01
     5337000000   -3.963133693e-01   -3.382184803e-01
     5340000000   -2.465838194e-01   -4.565737844e-01
     5343000000   -6.372250617e-02   -5.132540464e-01
     5346000000    1.133422777e-01   -4.954380691e-01
     5349000000    2.949824035e-01   -4.156016111e-01
     5352000000    4.270449579e-01   -2.762179673e-01
     5355000000    4.922772348e-01   -1.054467037e-01
     5358000000    4.960993528e-01    8.949922025e-02
     5361000000    4.255066812e-01    2.663139999e-01
     5364000000    3.001738191e-01    4.006034434e-01
     5367000000    1.448363662e-01    4.663419127e-01
     5370000000   -4.248274863e-02    4.857392907e-01
     5373000000   -2.196829021e-01    4.412461519e-01
     5376000000   -3.797108233e-01    3.254565895e-01
     5379000000   -4.568836093e-01    1.720633358e-01
     5382000000   -4.882778525e-01   -1.158907078e-03
     5385000000   -4.573291838e-01   -2.095752507e-01
     5388000000   -3.521385789e-01   -3.241856992e-01
     5391000000   -1.932959408e-01   -4.628079236e-01
     5394000000   -4.164307564e-02   -4.781855643e-01
     5397000000    1.362648904e-01   -4.587052763e-01
     5400000000    2.971934378e-01   -3.744285107e-01
     5403000000    4.178120792e-01   -2.391042858e-01
     5406000000    4.719341397e-01   -7.004534453e-02
     5409000000    4.614653587e-01    1.051997840e-01
     5412000000    3.912558258e-01    2.668617070e-01
     5415000000    2.647286952e-01    3.937509656e-01
     5418000000    1.051675528e-01    4.567971826e-01
     5421000000   -6.136373058e-02    4.632459581e-01
     5424000000   -2.293641716e-01    4.074654579e-01
     5427000000   -3.719978631e-01    2.841397524e-01
     5430000000   -4.513702989e-01    1.300023943e-01
     5433000000   -4.597040117e-01   -2.177939191e-02
     5436000000   -4.180401862e-01   -1.840348691e-01
     5439000000   -3.134807348e-01   -3.333962858e-01
     5442000000   -1.764308810e-01   -4.201514423e-01
     5445000000   -2.585797384e-02   -4.491481781e-01
     5448000000    1.526968032e-01   -4.258955419e-01
     5451000000    3.026282489e-01   -3.299649060e-01
     5454000000    3.960941732e-01   -2.024670988e-01
     5457000000    4.356272519e-01   -5.401650816e-02
     5460000000    4.233483970e-01    1.244084835e-01
     5463000000    3.467526436e-01    2.594143748e-01
     5466000000    2.235808074e-01    3.722500801e-01
     5469000000    7.319994271e-02    4.234907627e-01
     5472000000   -7.756527513e-02    4.191088676e-01
     5475000000   -2.334566861e-01    3.573199809e-01
     5478000000   -3.370153010e-01    2.514600456e-01
     5481000000   -4.029362798e-01    1.102710515e-01
     5484000000   -4.146959782e-01   -5.850008875e-02
     5487000000   -3.642148972e-01   -1.946003586e-01
     5490000000   -2.727905214e-01   -3.017461300e-01
     5493000000   -1.132963523e-01   -3.903911114e-01
     5496000000    1.503367908e-02   -3.985587358e-01
     5499000000    1.586024761e-01   -3.630244732e-01
     5502000000    2.836314440e-01   -2.737134397e-01
     5505000000    3.615245223e-01   -1.496597975e-01
     5508000000    3.883293867e-01    2.515523694e-03
     5511000000    3.609719872e-01    1.282823682e-01
     5514000000    2.824586332e-01    2.556473017e-01
     5517000000    1.669424772e-01    3.397462666e-01
     5520000000    3.923910111e-02    3.725071847e-01
     5523000000   -1.157420948e-01    3.534265161e-01
     5526000000   -2.218485028e-01    2.938002348e-01
     5529000000   -3.091613054e-01    1.932721734e-01
     5532000000   -3.548485041e-01    4.887026176e-02
     5535000000   -3.479699492e-01   -8.512717485e-02
     5538000000   -2.910827994e-01   -2.028385252e-01
     5541000000   -1.827162355e-01   -3.021356463e-01
     5544000000   -8.652739972e-02   -3.389795423e-01
     5547000000    7.297635823e-02   -3.394016325e-01
     5550000000    1.637213081e-01   -3.012872040e-01
     5553000000    2.801042497e-01   -1.938300133e-01
     5556000000    3.277829885e-01   -8.451145142e-02
     5559000000    3.310638368e-01    3.727525100e-02
     5562000000    2.819704413e-01    1.708335876e-01
     5565000000    2.149448097e-01    2.479702979e-01
     5568000000    1.070555970e-01    3.040014803e-01
     5571000000   -2.980972081e-02    3.197479844e-01
     5574000000   -1.272846907e-01    2.893241346e-01
     5577000000   -2.322914451e-01    2.094893306e-01
     5580000000   -2.874564230e-01    1.176694855e-01
     5583000000   -3.086938858e-01    3.330545267e-03
     5586000000   -2.784858346e-01   -1.211527288e-01
     5589000000   -2.107565105e-01   -2.139060348e-01
     5592000000   -1.148996875e-01   -2.743122876e-01
     5595000000    2.497494221e-03   -2.991424799e-01
     5598000000    1.175993904e-01   -2.710228562e-01
     5601000000    1.891390532e-01   -2.276924998e-01
     5604000000    2.671085596e-01   -1.179922000e-01
     5607000000    2.856693268e-01   -2.547310665e-02
     5610000000    2.685805261e-01    9.966088086e-02
     5613000000    2.132929116e-01    1.872347295e-01
     5616000000    1.257603616e-01    2.503832877e-01
     5619000000    2.448140830e-02    2.780789137e-01
     5622000000   -8.974687010e-02    2.611331940e-01
     5625000000   -1.853210777e-01    2.022874802e-01
     5628000000   -2.434478998e-01    1.282035112e-01
     5631000000   -2.697407007e-01    9.395383298e-03
     5634000000   -2.639102042e-01   -7.151764631e-02
     5637000000   -2.077854872e-01   -1.740480512e-01
     5640000000   -1.209946871e-01   -2.402853221e-01
     5643000000   -4.430481046e-02   -2.661701739e-01
     5646000000    8.239492774e-02   -2.529549003e-01
     5649000000    1.501561105e-01   -2.186690271e-01
     5652000000    2.344008237e-01   -1.193825901e-01
     5655000000    2.581242323e-01   -4.118026420e-02
     5658000000    2.549523711e-01    6.095677614e-02
     5661000000    2.216803879e-01    1.443406641e-01
     5664000000    1.247164384e-01    2.291184366e-01
     5667000000    3.096402995e-02    2.563152909e-01
     5670000000   -6.193483993e-02    2.521105111e-01
     5673000000   -1.560069323e-01    2.058135718e-01
     5676000000   -2.208861858e-01    1.308839321e-01
     5679000000   -2.525834143e-01    3.646832705e-02
     5682000000   -2.474139482e-01   -6.518663466e-02
     5685000000   -2.179793268e-01   -1.382888556e-01
     5688000000   -1.273286492e-01   -2.248266339e-01
     5691000000   -3.194306046e-02   -2.567615807e-01
     5694000000    6.287686527e-02   -2.541429996e-01
     5697000000    1.582451165e-01   -2.093683630e-01
     5700000000    2.228684723e-01   -1.425278634e-01
     5703000000    2.622223198e-01   -3.481150046e-02
     5706000000    2.616231143e-01    6.066813692e-02
     5709000000    2.211006135e-01    1.558950841e-01
     5712000000    1.359539032e-01    2.393336296e-01
     5715000000    3.490675241e-02    2.734594047e-01
     5718000000   -6.305604428e-02    2.743391097e-01
     5721000000   -1.583754867e-01    2.374329120e-01
     5724000000   -2.460411638e-01    1.466303319e-01
     5727000000   -2.844488323e-01    4.572696611e-02
     5730000000   -2.863412499e-01   -5.958707631e-02
     5733000000   -2.455299348e-01   -1.666730046e-01
     5736000000   -1.715648174e-01   -2.470532656e-01
     5739000000   -5.510490015e-02   -2.970948517e-01
     5742000000    3.419861943e-02   -3.055505157e-01
     5745000000    1.722255498e-01   -2.576591074e-01
     5748000000    2.580149770e-01   -1.804035455e-01
     5751000000    3.060326874e-01   -1.010363847e-01
     5754000000    3.152328432e-01    6.082881615e-02
     5757000000    2.936539352e-01    1.489562392e-01
     5760000000    2.020893693e-01    2.623235285e-01
     5763000000    9.260181338e-02    3.229543269e-01
     5766000000   -2.165292203e-02    3.376227915e-01
     5769000000   -1.533291936e-01    3.033234179e-01
     5772000000   -2.529262006e-01    2.359707355e-01
     5775000000   -3.249760270e-01    1.247428730e-01
     5778000000   -3.519161046e-01   -8.385661989e-03
     5781000000   -3.346733451e-01   -1.276576817e-01
     5784000000   -2.499575019e-01   -2.561806738e-01
     5787000000   -1.432753652e-01   -3.343450129e-01
     5790000000   -1.739113219e-02   -3.704489470e-01
     5793000000    1.219364032e-01   -3.530544639e-01
     5796000000    2.513491213e-01   -2.829629183e-01
     5799000000    3.402820826e-01   -1.671632528e-01
     5802000000    3.830140531e-01   -3.332535550e-02
     5805000000    3.783177137e-01    1.033495441e-01
     5808000000    3.129738867e-01    2.379704267e-01
     5811000000    2.004648298e-01    3.434695303e-01
     5814000000    8.680612594e-02    3.974473178e-01
     5817000000   -6.988932937e-02    4.004827738e-01
     5820000000   -2.219548076e-01    3.415813148e-01
     5823000000   -3.342219591e-01    2.389396876e-01
     5826000000   -4.042478204e-01    1.189532652e-01
     5829000000   -4.131432772e-01   -5.816520751e-02
     5832000000   -3.691808581e-01   -2.001239806e-01
     5835000000   -2.889110744e-01   -3.199723065e-01
     5838000000   -1.302851588e-01   -4.069194794e-01
     5841000000    7.111168467e-03   -4.378724694e-01
     5844000000    1.859357655e-01   -3.917532563e-01
     5847000000    3.104933500e-01   -3.244068027e-01
     5850000000    4.131112397e-01   -1.692896932e-01
     5853000000    4.549623132e-01   -2.648470551e-02
     5856000000    4.192748964e-01    1.672249436e-01
     5859000000    3.570228219e-01    2.942630649e-01
     5862000000    2.222813219e-01    4.048171639e-01
     5865000000    6.329703331e-02    4.624498785e-01
     5868000000   -1.069604158e-01    4.618529379e-01
     5871000000   -2.792038620e-01    3.769080341e-01
     5874000000   -3.926743269e-01    2.821444273e-01
     5877000000   -4.708769619e-01    1.149284691e-01
     5880000000   -4.756730199e-01   -7.735568285e-02
     5883000000   -4.214357436e-01   -2.427212000e-01
     5886000000   -3.025276959e-01   -3.853079677e-01
     5889000000   -1.485584229e-01   -4.743574858e-01
     5892000000    3.667546436e-02   -4.946797788e-01
     5895000000    2.017533034e-01   -4.625659585e-01
     5898000000    3.607678413e-01   -3.462481797e-01
     5901000000    4.610140920e-01   -1.967753172e-01
     5904000000    5.116398931e-01   -3.256550431e-02
     5907000000    4.810203016e-01    1.695660055e-01
     5910000000    3.913633525e-01    3.266744912e-01
     5913000000    2.321823537e-01    4.526817203e-01
     5916000000    7.868966460e-02    5.157005787e-01
     5919000000   -1.237123907e-01    5.090891123e-01
     5922000000   -2.974017262e-01    4.354219139e-01
     5925000000   -4.347493649e-01    2.938692868e-01
     5928000000   -5.139446855e-01    1.211279407e-01
     5931000000   -5.167710185e-01   -7.987425476e-02
     5934000000   -4.700339139e-01   -2.570951283e-01
     5937000000   -3.445743620e-01   -4.117312729e-01
     5940000000   -1.693593115e-01   -5.013518333e-01
     5943000000    2.564184926e-02   -5.394264460e-01
     5946000000    2.095427662e-01   -4.987892509e-01
     5949000000    3.781472743e-01   -3.883489072e-01
     5952000000    4.947822392e-01   -2.370332032e-01
     5955000000    5.352326035e-01   -2.488208376e-02
     5958000000    5.248669386e-01    1.628158092e-01
     5961000000    4.429817200e-01    3.376705348e-01
     5964000000    2.693954408e-01    4.721700549e-01
     5967000000    1.016697809e-01    5.434042215e-01
     5970000000   -1.143099144e-01    5.387563705e-01
     5973000000   -2.962635458e-01    4.546861649e-01
     5976000000   -4.481842518e-01    3.294828534e-01
     5979000000   -5.315642953e-01    1.417790502e-01
     5982000000   -5.541986227e-01   -5.092440173e-02
     5985000000   -5.075424910e-01   -2.465251535e-01
     5988000000   -3.527958393e-01   -4.112884998e-01
     5991000000   -2.030332386e-01   -5.180891156e-01
     5994000000   -2.894557314e-03   -5.528079867e-01
     5997000000    1.964392364e-01   -5.195217729e-01
     6000000000    3.655560613e-01   -4.095950723e-01
