! NanoVNA-App
! Date: 2026-05-22 18:27:48
! Start: 4.8GHz Stop: 6GHz Points: 401
! S-Parameter data: F S11
# Hz S RI R 50
!     Frequency           S11_Real           S11_Imag
     4800000000    2.042862922e-01    7.624983042e-02
     4803000000    1.631169766e-01    1.458399445e-01
     4806000000    9.807008505e-02    1.956086755e-01
     4809000000    1.954145171e-02    2.168474048e-01
     4812000000   -6.306423992e-02    2.110992670e-01
     4815000000   -1.374654919e-01    1.749328971e-01
     4818000000   -1.925215423e-01    1.111903861e-01
     4821000000   -2.217533737e-01    3.399437666e-02
     4824000000   -2.195821404e-01   -4.900378734e-02
     4827000000   -1.877940297e-01   -1.265041977e-01
     4830000000   -1.290099919e-01   -1.869694889e-01
     4833000000   -5.216727033e-02   -2.183594555e-01
     4836000000    3.190083429e-02   -2.229679972e-01
     4839000000    1.128401086e-01   -1.968180835e-01
     4842000000    1.775255650e-01   -1.402344704e-01
     4845000000    2.175713032e-01   -6.513122469e-02
     4848000000    2.273234278e-01    1.929693855e-02
     4851000000    2.053861022e-01    1.023718491e-01
     4854000000    1.538418233e-01    1.714916229e-01
     4857000000    8.228125423e-02    2.154747844e-01
     4860000000   -1.864742720e-03    2.314561605e-01
     4863000000   -8.714689314e-02    2.141836435e-01
     4866000000   -1.583562046e-01    1.676106453e-01
     4869000000   -2.115564942e-01    9.667358547e-02
     4872000000   -2.291064262e-01    1.398955937e-02
     4875000000   -2.202049494e-01   -7.432442158e-02
     4878000000   -1.740675420e-01   -1.480918378e-01
     4881000000   -1.078279838e-01   -2.032498121e-01
     4884000000   -2.567982115e-02   -2.280679792e-01
     4887000000    6.403924525e-02   -2.218689471e-01
     4890000000    1.422934532e-01   -1.828098744e-01
     4893000000    2.016744018e-01   -1.190719381e-01
     4896000000    2.323510349e-01   -3.589691222e-02
     4899000000    2.286571562e-01    5.078397691e-02
     4902000000    1.950461119e-01    1.327361614e-01
     4905000000    1.309247762e-01    1.960788518e-01
     4908000000    5.014117435e-02    2.308407426e-01
     4911000000   -3.987381980e-02    2.346748114e-01
     4914000000   -1.263382137e-01    2.015166581e-01
     4917000000   -1.949757040e-01    1.414583772e-01
     4920000000   -2.350275218e-01    5.988914147e-02
     4923000000   -2.426117957e-01   -3.216293082e-02
     4926000000   -2.163463086e-01   -1.200048700e-01
     4929000000   -1.574066281e-01   -1.913056970e-01
     4932000000   -7.849198580e-02   -2.354952693e-01
     4935000000    1.591522992e-02   -2.505540550e-01
     4938000000    1.062935293e-01   -2.276215106e-01
     4941000000    1.846278310e-01   -1.716845632e-01
     4944000000    2.365992814e-01   -9.113431722e-02
     4947000000    2.553412318e-01    4.044515372e-04
     4950000000    2.388404757e-01    9.850505739e-02
     4953000000    1.878774762e-01    1.798813641e-01
     4956000000    1.097625643e-01    2.362139374e-01
     4959000000    1.321710926e-02    2.610689700e-01
     4962000000   -8.456734568e-02    2.504014671e-01
     4965000000   -1.723451167e-01    2.019120604e-01
     4968000000   -2.366565168e-01    1.262983978e-01
     4971000000   -2.682411969e-01    2.898023091e-02
     4974000000   -2.615903318e-01   -7.072811574e-02
     4977000000   -2.191677839e-01   -1.652974188e-01
     4980000000   -1.444252878e-01   -2.356819510e-01
     4983000000   -4.587490857e-02   -2.755916715e-01
     4986000000    5.851586908e-02   -2.763575315e-01
     4989000000    1.567628831e-01   -2.397065908e-01
     4992000000    2.349379808e-01   -1.670420021e-01
     4995000000    2.799065113e-01   -7.340038568e-02
     4998000000    2.895850539e-01    3.547325730e-02
     5001000000    2.577634454e-01    1.392475963e-01
     5004000000    1.895346940e-01    2.267532796e-01
     5007000000    9.706728160e-02    2.794136107e-01
     5010000000   -1.193339750e-02    2.960636020e-01
     5013000000   -1.234782636e-01    2.711341977e-01
     5016000000   -2.147927284e-01    2.103740126e-01
     5019000000   -2.788376510e-01    1.168304682e-01
     5022000000   -3.040206730e-01    8.176604286e-03
     5025000000   -2.877629399e-01   -1.034230664e-01
     5028000000   -2.313396186e-01   -2.022407204e-01
     5031000000   -1.428679973e-01   -2.723190784e-01
     5034000000   -3.209913522e-02   -3.058994710e-01
     5037000000    8.315840364e-02   -2.966729403e-01
     5040000000    1.883025616e-01   -2.462520599e-01
     5043000000    2.657949328e-01   -1.618281156e-01
     5046000000    3.093804419e-01   -5.204689503e-02
     5049000000    3.088989854e-01    6.583911926e-02
     5052000000    2.654014826e-01    1.756763756e-01
     5055000000    1.829097569e-01    2.624693215e-01
     5058000000    7.512971014e-02    3.140214086e-01
     5061000000   -4.408839718e-02    3.224112689e-01
     5064000000   -1.598868668e-01    2.858795226e-01
     5067000000   -2.548978031e-01    2.096907049e-01
     5070000000   -3.159651756e-01    1.037640348e-01
     5073000000   -3.324837089e-01   -1.832266711e-02
     5076000000   -3.058360219e-01   -1.391789168e-01
     5079000000   -2.342326343e-01   -2.427037954e-01
     5082000000   -1.302108318e-01   -3.126410842e-01
     5085000000   -7.142478134e-03   -3.404427171e-01
     5088000000    1.182771027e-01   -3.218449354e-01
     5091000000    2.279550135e-01   -2.582406104e-01
     5094000000    3.076907098e-01   -1.584223956e-01
     5097000000    3.476907313e-01   -3.523878008e-02
     5100000000    3.367766738e-01    9.418797493e-02
     5103000000    2.829019725e-01    2.124085724e-01
     5106000000    1.875012368e-01    3.005723357e-01
     5109000000    6.573941559e-02    3.532532454e-01
     5112000000   -6.516667455e-02    3.524495065e-01
     5115000000   -1.906834245e-01    3.087319434e-01
     5118000000   -2.892009914e-01    2.203339040e-01
     5121000000   -3.492942750e-01    9.728697687e-02
     5124000000   -3.615834117e-01   -3.467322886e-02
     5127000000   -3.252672851e-01   -1.663983017e-01
     5130000000   -2.435373664e-01   -2.734081447e-01
     5133000000   -1.303299516e-01   -3.481290042e-01
     5136000000    4.809160251e-03   -3.703664541e-01
     5139000000    1.414527446e-01   -3.441413939e-01
     5142000000    2.568309307e-01   -2.721226513e-01
     5145000000    3.395109475e-01   -1.586304903e-01
     5148000000    3.750664890e-01   -2.513177507e-02
     5151000000    3.583839834e-01    1.118493229e-01
     5154000000    2.950236499e-01    2.352773398e-01
     5157000000    1.893638670e-01    3.288389146e-01
     5160000000    5.784409866e-02    3.790524304e-01
     5163000000   -8.145327121e-02    3.702147305e-01
     5166000000   -2.147655338e-01    3.203593194e-01
     5169000000   -3.152402043e-01    2.214004695e-01
     5172000000   -3.772627115e-01    9.172697365e-02
     5175000000   -3.881330788e-01   -5.108522996e-02
     5178000000   -3.395067453e-01   -1.865449697e-01
     5181000000   -2.529074252e-01   -3.012939990e-01
     5184000000   -1.274869442e-01   -3.679938614e-01
     5187000000    1.591312699e-02   -3.954618573e-01
     5190000000    1.539951116e-01   -3.535712659e-01
     5193000000    2.799811959e-01   -2.802441716e-01
     5196000000    3.604411781e-01   -1.595581621e-01
     5199000000    3.928645551e-01   -1.623248495e-02
     5202000000    3.738431633e-01    1.251640469e-01
     5205000000    3.057646155e-01    2.567537129e-01
     5208000000    1.914253235e-01    3.513029814e-01
     5211000000    5.317840353e-02    3.970263898e-01
     5214000000   -9.623930603e-02    3.925606012e-01
     5217000000   -2.299356908e-01    3.295523226e-01
     5220000000   -3.358433247e-01    2.242517173e-01
     5223000000   -3.968935013e-01    8.788389713e-02
     5226000000   -3.979199529e-01   -6.016644463e-02
     5229000000   -3.532997966e-01   -2.025018781e-01
     5232000000   -2.571296096e-01   -3.163484335e-01
     5235000000   -1.259368360e-01   -3.881287575e-01
     5238000000    2.416872978e-02   -4.136061966e-01
     5241000000    1.667378545e-01   -3.719507158e-01
     5244000000    2.947517633e-01   -2.870860100e-01
     5247000000    3.727525175e-01   -1.624317616e-01
     5250000000    4.145897627e-01   -1.242511533e-02
     5253000000    3.871651292e-01    1.337137818e-01
     5256000000    3.151967227e-01    2.653084099e-01
     5259000000    1.971928626e-01    3.624845147e-01
     5262000000    5.085401237e-02    4.060859978e-01
     5265000000   -1.036131009e-01    4.050481021e-01
     5268000000   -2.348429263e-01    3.381525874e-01
     5271000000   -3.473865390e-01    2.308523059e-01
     5274000000   -4.030756950e-01    8.809255064e-02
     5277000000   -4.063962996e-01   -5.873681232e-02
     5280000000   -3.577918112e-01   -2.042937279e-01
     5283000000   -2.573708892e-01   -3.087459505e-01
     5286000000   -1.223492399e-01   -3.962476254e-01
     5289000000    2.777893655e-02   -4.113880396e-01
     5292000000    1.759481579e-01   -3.728723824e-01
     5295000000    2.956942618e-01   -2.817074955e-01
     5298000000    3.787157834e-01   -1.548197269e-01
     5301000000    4.095588028e-01   -8.320826106e-03
     5304000000    3.878049552e-01    1.438735276e-01
     5307000000    3.097924292e-01    2.756623030e-01
     5310000000    1.897244006e-01    3.716383874e-01
     5313000000    4.485270381e-02    4.120819569e-01
     5316000000   -1.084349528e-01    4.009149671e-01
     5319000000   -2.478197515e-01    3.365615308e-01
     5322000000   -3.560935855e-01    2.234496623e-01
     5325000000   -4.100497961e-01    8.053073287e-02
     5328000000   -4.148117304e-01   -7.425941527e-02
     5331000000   -3.580994308e-01   -2.171097845e-01
     5334000000   -2.580606937e-01   -3.330028355e-01
     5337000000   -1.198935136e-01   -4.062903821e-01
     5340000000    3.915353492e-02   -4.267785549e-01
     5343000000    1.848073453e-01   -3.822014332e-01
     5346000000    3.100380599e-01   -2.894651294e-01
     5349000000    3.944279253e-01   -1.577951312e-01
     5352000000    4.276568890e-01   -7.447879179e-04
     5355000000    3.937953115e-01    1.356845349e-01
     5358000000    3.173910677e-01    2.712347806e-01
     5361000000    1.938931197e-01    3.830359578e-01
     5364000000    4.902722314e-02    4.102942646e-01
     5367000000   -1.152019948e-01    4.123162031e-01
     5370000000   -2.455244362e-01    3.347064853e-01
     5373000000   -3.580956161e-01    2.263262719e-01
     5376000000   -4.219417274e-01    8.087493479e-02
     5379000000   -4.159132540e-01   -7.759194821e-02
     5382000000   -3.684947491e-01   -2.318861187e-01
     5385000000   -2.667763233e-01   -3.245906532e-01
     5388000000   -1.173866391e-01   -4.162673354e-01
     5391000000    2.926074713e-02   -4.209593236e-01
     5394000000    1.854357123e-01   -3.858302832e-01
     5397000000    3.120251596e-01   -2.873528302e-01
     5400000000    4.052984118e-01   -1.544368118e-01
     5403000000    4.189796448e-01   -1.426369231e-02
     5406000000    3.932286501e-01    1.413340420e-01
     5409000000    3.170790672e-01    2.742303610e-01
     5412000000    1.943748891e-01    3.691182137e-01
     5415000000    5.455443636e-02    4.113313258e-01
     5418000000   -1.065392941e-01    4.012733996e-01
     5421000000   -2.392115593e-01    3.341332674e-01
     5424000000   -3.544002771e-01    2.212780416e-01
     5427000000   -4.102826118e-01    7.378858328e-02
     5430000000   -3.995305598e-01   -6.019331515e-02
     5433000000   -3.524307907e-01   -2.179968804e-01
     5436000000   -2.453293055e-01   -3.374729753e-01
     5439000000   -1.188257039e-01   -3.962149322e-01
     5442000000    2.494799532e-02   -4.058233500e-01
     5445000000    1.936866939e-01   -3.718193769e-01
     5448000000    2.907639742e-01   -2.859288156e-01
     5451000000    3.897777200e-01   -1.424194127e-01
     5454000000    4.131688476e-01    1.302692457e-03
     5457000000    3.825254142e-01    1.494680792e-01
     5460000000    3.048582077e-01    2.759357095e-01
     5463000000    1.805336475e-01    3.706757724e-01
     5466000000    3.339518607e-02    4.087647796e-01
     5469000000   -1.033722088e-01    3.888760805e-01
     5472000000   -2.682047784e-01    3.184728920e-01
     5475000000   -3.427728713e-01    2.128070295e-01
     5478000000   -4.005812705e-01    6.436569244e-02
     5481000000   -3.980911374e-01   -9.172343463e-02
     5484000000   -3.403502405e-01   -2.212593555e-01
     5487000000   -2.424111664e-01   -3.285511434e-01
     5490000000   -1.060049534e-01   -3.916179240e-01
     5493000000    6.869905442e-02   -4.129083753e-01
     5496000000    1.963625848e-01   -3.650238514e-01
     5499000000    3.017759919e-01   -2.734829485e-01
     5502000000    3.877876103e-01   -1.382143050e-01
     5505000000    4.033666253e-01   -5.809700582e-03
     5508000000    3.763127029e-01    1.685224921e-01
     5511000000    2.963400185e-01    2.823888659e-01
     5514000000    1.705049574e-01    3.713198006e-01
     5517000000    2.259587683e-02    4.063098729e-01
     5520000000   -1.134235859e-01    3.850485086e-01
     5523000000   -2.620037198e-01    3.144142032e-01
     5526000000   -3.447597921e-01    2.099551558e-01
     5529000000   -3.999804556e-01    6.106402352e-02
     5532000000   -3.920642734e-01   -7.451762259e-02
     5535000000   -3.339521885e-01   -2.282205820e-01
     5538000000   -2.309298217e-01   -3.306380212e-01
     5541000000   -1.058990881e-01   -3.820757866e-01
     5544000000    4.557661340e-02   -3.955633342e-01
     5547000000    1.862399876e-01   -3.507226706e-01
     5550000000    2.903434336e-01   -2.664991617e-01
     5553000000    3.740655780e-01   -1.311310977e-01
     5556000000    3.966670334e-01    1.183162350e-02
     5559000000    3.653966188e-01    1.473533660e-01
     5562000000    2.885870039e-01    2.709192634e-01
     5565000000    1.759510338e-01    3.506673574e-01
     5568000000    2.807829529e-02    3.889056444e-01
     5571000000   -1.059296355e-01    3.733605146e-01
     5574000000   -2.414620668e-01    3.039415777e-01
     5577000000   -3.311081529e-01    1.925773770e-01
     5580000000   -3.778613508e-01    6.162210181e-02
     5583000000   -3.743807971e-01   -7.200951874e-02
     5586000000   -3.061600327e-01   -2.200431675e-01
     5589000000   -2.313259989e-01   -2.965758145e-01
     5592000000   -8.702788502e-02   -3.638188243e-01
     5595000000    5.030368641e-02   -3.729352057e-01
     5598000000    1.662819237e-01   -3.322229683e-01
     5601000000    2.869302630e-01   -2.372403890e-01
     5604000000    3.560268581e-01   -1.102193892e-01
     5607000000    3.697741926e-01    1.605495624e-02
     5610000000    3.339335024e-01    1.606902778e-01
     5613000000    2.651457489e-01    2.573705316e-01
     5616000000    1.474221498e-01    3.365032673e-01
     5619000000    2.218801714e-02    3.647131622e-01
     5622000000   -1.022399887e-01    3.491140604e-01
     5625000000   -2.304440588e-01    2.774795890e-01
     5628000000   -3.098163009e-01    1.839417964e-01
     5631000000   -3.533811867e-01    3.422876820e-02
     5634000000   -3.492630720e-01   -7.866565883e-02
     5637000000   -2.871639132e-01   -2.074561864e-01
     5640000000   -2.128944248e-01   -2.891011834e-01
     5643000000   -8.563911170e-02   -3.448383510e-01
     5646000000    5.549720302e-02   -3.479965627e-01
     5649000000    1.765207648e-01   -3.027924597e-01
     5652000000    2.668474019e-01   -2.258330882e-01
     5655000000    3.264411092e-01   -1.376963407e-01
     5658000000    3.417838812e-01    2.540950105e-02
     5661000000    3.191268742e-01    1.288669705e-01
     5664000000    2.328734398e-01    2.431599200e-01
     5667000000    1.481456459e-01    3.050284982e-01
     5670000000    1.468473114e-02    3.332749605e-01
     5673000000   -9.995283931e-02    3.146626353e-01
     5676000000   -1.991852671e-01    2.654175758e-01
     5679000000   -2.808845937e-01    1.709049046e-01
     5682000000   -3.197604120e-01    4.779434577e-02
     5685000000   -3.123961687e-01   -6.768176705e-02
     5688000000   -2.648552358e-01   -1.779036969e-01
     5691000000   -1.845282614e-01   -2.569818795e-01
     5694000000   -7.128797472e-02   -3.055322170e-01
     5697000000    3.346406668e-02   -3.155250251e-01
     5700000000    1.444587260e-01   -2.795179188e-01
     5703000000    2.400141358e-01   -1.934259832e-01
     5706000000    2.919026315e-01   -1.075608730e-01
     5709000000    3.078731000e-01    5.202889908e-03
     5712000000    2.731854022e-01    1.209727228e-01
     5715000000    2.162603736e-01    2.059369534e-01
     5718000000    1.172313392e-01    2.673261166e-01
     5721000000    2.637003362e-02    2.959381938e-01
     5724000000   -8.369655907e-02    2.816613019e-01
     5727000000   -1.755257845e-01    2.289000899e-01
     5730000000   -2.450713515e-01    1.424425691e-01
     5733000000   -2.789191008e-01    4.809946567e-02
     5736000000   -2.744188905e-01   -5.581567064e-02
     5739000000   -2.298737019e-01   -1.499024481e-01
     5742000000   -1.628246605e-01   -2.183871865e-01
     5745000000   -6.888051331e-02   -2.618191838e-01
     5748000000    3.588638827e-02   -2.573168874e-01
     5751000000    1.173841953e-01   -2.483954579e-01
     5754000000    1.960513294e-01   -1.678771377e-01
     5757000000    2.461074889e-01   -9.908977151e-02
     5760000000    2.502376735e-01    8.778462186e-03
     5763000000    2.423747927e-01    8.925985545e-02
     5766000000    1.783946753e-01    1.671655476e-01
     5769000000    1.115332022e-01    2.202919275e-01
     5772000000    2.978629433e-02    2.510416210e-01
     5775000000   -7.292147726e-02    2.196611166e-01
     5778000000   -1.445370764e-01    1.999856234e-01
     5781000000   -1.970413774e-01    1.150761917e-01
     5784000000   -2.262936234e-01    3.974495083e-02
     5787000000   -2.187726498e-01   -4.400638863e-02
     5790000000   -1.975909919e-01   -1.186909527e-01
     5793000000   -1.287764907e-01   -1.731876880e-01
     5796000000   -6.069964916e-02   -2.090132833e-01
     5799000000    1.775366068e-02   -2.154456526e-01
     5802000000    8.999668807e-02   -1.912202686e-01
     5805000000    1.493902355e-01   -1.402500570e-01
     5808000000    1.906809956e-01   -8.052524924e-02
     5811000000    2.086518407e-01   -9.420778602e-03
     5814000000    1.808727086e-01    6.656841189e-02
     5817000000    1.418726742e-01    1.259944141e-01
     5820000000    8.942089230e-02    1.706507802e-01
     5823000000    2.339136414e-02    1.853753775e-01
     5826000000   -4.255663604e-02    1.781452149e-01
     5829000000   -1.029683650e-01    1.469104141e-01
     5832000000   -1.452644169e-01    9.457107633e-02
     5835000000   -1.740508229e-01    3.845809773e-02
     5838000000   -1.773310155e-01   -2.510140277e-02
     5841000000   -1.490238160e-01   -8.177848160e-02
     5844000000   -1.050474420e-01   -1.233200133e-01
     5847000000   -5.738555267e-02   -1.589001864e-01
     5850000000    1.581695513e-03   -1.605370194e-01
     5853000000    5.697534978e-02   -1.435902268e-01
     5856000000    9.591799974e-02   -1.063989475e-01
     5859000000    1.328602433e-01   -6.932355464e-02
     5862000000    1.396337003e-01   -1.658453606e-02
     5865000000    1.350436658e-01    3.224478289e-02
     5868000000    1.073109880e-01    7.159913331e-02
     5871000000    7.135882974e-02    1.013293713e-01
     5874000000    3.047348559e-02    1.249930337e-01
     5877000000   -1.268044300e-02    1.166528836e-01
     5880000000   -5.795580521e-02    1.066294387e-01
     5883000000   -7.676846534e-02    7.141942531e-02
     5886000000   -9.927071631e-02    3.719733283e-02
     5889000000   -1.039623022e-01   -1.297928538e-04
     5892000000   -9.326004237e-02   -3.459496424e-02
     5895000000   -7.675091922e-02   -7.198087871e-02
     5898000000   -4.400529712e-02   -6.966768205e-02
     5901000000   -8.815756068e-03   -9.490191936e-02
     5904000000    1.295488514e-02   -7.827797532e-02
     5907000000    4.128638282e-02   -6.679984182e-02
     5910000000    7.379409671e-02   -4.700027034e-02
     5913000000    6.743273884e-02   -2.446414903e-02
     5916000000    7.258776575e-02    2.391287358e-03
     5919000000    6.489890814e-02    2.519728988e-02
     5922000000    5.125907063e-02    3.985464945e-02
     5925000000    3.731694072e-02    4.321401939e-02
     5928000000    1.784370281e-02    5.283248052e-02
     5931000000    7.604167331e-03    5.075707659e-02
     5934000000   -1.945224032e-02    4.521846026e-02
     5937000000   -2.273538150e-02    3.613266349e-02
     5940000000   -2.471977472e-02    3.068239056e-02
     5943000000   -3.461579606e-02    7.390695624e-03
     5946000000   -3.450773284e-02    1.410153229e-02
     5949000000   -2.651085518e-02   -1.107364241e-02
     5952000000   -2.724882960e-02   -1.179180201e-02
     5955000000   -3.764245659e-02   -1.446892601e-02
     5958000000   -2.192010917e-02   -2.454628050e-02
     5961000000   -4.851410631e-03   -2.368773706e-02
     5964000000   -1.224796381e-02   -3.953005001e-02
     5967000000   -1.406246010e-04   -3.731143475e-02
     5970000000    1.082008425e-02   -4.570744187e-02
     5973000000    2.346616983e-02   -4.067265615e-02
     5976000000    3.187893331e-02   -2.972726524e-02
     5979000000    5.006274953e-02   -2.172278427e-02
     5982000000    5.266670883e-02   -6.148008630e-03
     5985000000    5.938170105e-02    1.281367429e-02
     5988000000    5.268991739e-02    3.263163939e-02
     5991000000    4.234984145e-02    5.347280577e-02
     5994000000    2.441870049e-02    7.309457660e-02
     5997000000    3.728427982e-04    7.850449532e-02
     6000000000   -3.601427376e-02    8.542250097e-02
