! NanoVNA-App
! Date: 2026-05-22 18:47:40
! Start: 4.8GHz Stop: 6GHz Points: 401
! S-Parameter data: F S11
# Hz S RI R 50
!     Frequency           S11_Real           S11_Imag
     4800000000    1.106910780e-01   -5.910100341e-01
     4803000000    3.258472681e-01   -5.094618797e-01
     4806000000    4.834463000e-01   -3.576905429e-01
     4809000000    5.802891850e-01   -1.570332348e-01
     4812000000    5.966994166e-01    7.030922920e-02
     4815000000    5.285339355e-01    2.821878195e-01
     4818000000    3.907885849e-01    4.521242082e-01
     4821000000    1.958708316e-01    5.642570853e-01
     4824000000   -2.369501814e-02    5.977416635e-01
     4827000000   -2.420615256e-01    5.462985635e-01
     4830000000   -4.240679145e-01    4.202131927e-01
     4833000000   -5.517011285e-01    2.333774567e-01
     4836000000   -5.974994898e-01    1.720048860e-02
              0    3.135597408e-01   -1.006575301e-02
     4842000000   -4.503868520e-01   -3.937146068e-01
     4845000000   -2.750221491e-01   -5.301475525e-01
     4848000000   -5.670974031e-02   -5.988546610e-01
     4851000000    1.581845433e-01   -5.757703781e-01
     4854000000    3.646958470e-01   -4.759910107e-01
     4857000000    5.081553459e-01   -3.150810599e-01
     4860000000    5.884214640e-01   -1.035330370e-01
     4863000000    5.856016278e-01    1.188566983e-01
     4866000000    5.033499599e-01    3.241018355e-01
     4869000000    3.454689384e-01    4.906668067e-01
     4872000000    1.476514488e-01    5.801417828e-01
     4875000000   -6.535150111e-02    5.913443565e-01
     4878000000   -2.957162261e-01    5.230451822e-01
     4881000000   -4.556970894e-01    3.865688145e-01
     4884000000   -5.643028021e-01    1.947405785e-01
     4887000000   -5.930065513e-01   -2.039247938e-02
     4890000000   -5.466022491e-01   -2.504363656e-01
     4893000000   -4.195151329e-01   -4.228212237e-01
     4896000000   -2.363714874e-01   -5.434111953e-01
     4899000000   -1.869716682e-02   -5.947679877e-01
     4902000000    2.012293786e-01   -5.604388714e-01
     4905000000    3.892176747e-01   -4.471387267e-01
     4908000000    5.293095112e-01   -2.720913291e-01
     4911000000    5.951823592e-01   -5.800403282e-02
     4914000000    5.716363192e-01    1.570695788e-01
     4917000000    4.762557745e-01    3.575308323e-01
     4920000000    3.091862202e-01    5.068352222e-01
     4923000000    1.111564562e-01    5.799437165e-01
     4926000000   -1.096972972e-01    5.790132284e-01
     4929000000   -3.317043185e-01    4.977700114e-01
     4932000000   -4.829206765e-01    3.463368714e-01
     4935000000   -5.754065514e-01    1.458281279e-01
     4938000000   -5.844608545e-01   -6.873544306e-02
     4941000000   -5.184655786e-01   -2.822015285e-01
     4944000000   -3.795873225e-01   -4.465477169e-01
     4947000000   -1.923750043e-01   -5.608128905e-01
     4950000000    2.871056274e-02   -5.856344700e-01
     4953000000    2.302408218e-01   -5.344529748e-01
     4956000000    4.175182283e-01   -4.120942652e-01
     4959000000    5.376657844e-01   -2.317145765e-01
     4962000000    5.855041146e-01   -1.725227758e-02
     4965000000    5.508857369e-01    1.988125890e-01
     4968000000    4.417526424e-01    3.818065226e-01
     4971000000    2.721480131e-01    5.179749727e-01
     4974000000    6.227358058e-02    5.805627704e-01
     4977000000   -1.532444358e-01    5.618948936e-01
     4980000000   -3.494544327e-01    4.668680131e-01
     4983000000   -4.930365086e-01    3.084649444e-01
     4986000000   -5.703429580e-01    1.070645005e-01
     4989000000   -5.717864633e-01   -1.134605929e-01
     4992000000   -4.921508431e-01   -3.122806847e-01
     4995000000   -3.463666737e-01   -4.662943482e-01
     4998000000   -1.506013125e-01   -5.604726672e-01
     5001000000    7.505907863e-02   -5.760781169e-01
     5004000000    2.720012963e-01   -5.106103420e-01
     5007000000    4.363237321e-01   -3.788986206e-01
     5010000000    5.475063920e-01   -1.917984039e-01
     5013000000    5.759232640e-01    2.516024932e-02
     5016000000    5.277932286e-01    2.347682267e-01
     5019000000    4.100311697e-01    4.015715420e-01
     5022000000    2.243673503e-01    5.345346928e-01
     5025000000    1.674212888e-02    5.798172355e-01
     5028000000   -1.870353669e-01    5.437432528e-01
     5031000000   -3.791105449e-01    4.363189340e-01
     5034000000   -5.086646676e-01    2.692679167e-01
     5037000000   -5.702903271e-01    6.575607508e-02
     5040000000   -5.546215177e-01   -1.507455409e-01
     5043000000   -4.642598331e-01   -3.387845755e-01
     5046000000   -3.046980500e-01   -4.893716872e-01
     5049000000   -1.079744771e-01   -5.621649027e-01
     5052000000    1.016651466e-01   -5.669681430e-01
     5055000000    2.980206609e-01   -4.900555611e-01
     5058000000    4.618513882e-01   -3.423743546e-01
     5061000000    5.576283336e-01   -1.493560672e-01
     5064000000    5.715147853e-01    6.217319891e-02
     5067000000    5.088319182e-01    2.681001723e-01
     5070000000    3.794668615e-01    4.326207340e-01
     5073000000    1.951134652e-01    5.404513478e-01
     5076000000   -1.931715012e-02    5.725418925e-01
     5079000000   -2.236628234e-01    5.296108723e-01
     5082000000   -3.997764289e-01    4.108274281e-01
     5085000000   -5.156976581e-01    2.407066077e-01
     5088000000   -5.733565688e-01    3.002513386e-02
     5091000000   -5.435441732e-01   -1.796801686e-01
     5094000000   -4.408582449e-01   -3.603429496e-01
     5097000000   -2.773427069e-01   -4.996431470e-01
     5100000000   -6.957044452e-02   -5.720617175e-01
     5103000000    1.384165585e-01   -5.560075045e-01
     5106000000    3.262650371e-01   -4.700035453e-01
     5109000000    4.775921404e-01   -3.173236549e-01
     5112000000    5.518430471e-01   -1.301504970e-01
     5115000000    5.653266907e-01    9.285084903e-02
     5118000000    4.929094613e-01    2.867354453e-01
     5121000000    3.476268947e-01    4.583694935e-01
     5124000000    1.729798764e-01    5.415872335e-01
     5127000000   -5.409791321e-02    5.698927641e-01
     5130000000   -2.343895584e-01    5.134736300e-01
     5133000000   -4.253848493e-01    3.817817867e-01
     5136000000   -5.276656151e-01    2.091409862e-01
     5139000000   -5.664116740e-01    3.461467801e-03
     5142000000   -5.284388065e-01   -2.183062881e-01
     5145000000   -4.165263176e-01   -3.801919818e-01
     5148000000   -2.458963692e-01   -5.105752945e-01
     5151000000   -4.842060059e-02   -5.646804571e-01
     5154000000    1.626981497e-01   -5.395703912e-01
     5157000000    3.488046229e-01   -4.440186918e-01
     5160000000    4.810036719e-01   -2.948952317e-01
     5163000000    5.551176667e-01   -9.602548182e-02
     5166000000    5.512928963e-01    1.177165359e-01
     5169000000    4.716067016e-01    3.116574287e-01
     5172000000    3.136594296e-01    4.708656371e-01
     5175000000    1.305920780e-01    5.471568704e-01
     5178000000   -7.408055663e-02    5.554406047e-01
     5181000000   -2.801893950e-01    4.912999570e-01
     5184000000   -4.237651825e-01    3.662786782e-01
     5187000000   -5.438207984e-01    1.620668322e-01
     5190000000   -5.609582663e-01   -3.567738086e-02
     5193000000   -5.149232745e-01   -2.288947552e-01
     5196000000   -3.952747285e-01   -3.970938921e-01
     5199000000   -2.134696096e-01   -5.200986862e-01
     5202000000   -2.398136631e-02   -5.602307320e-01
     5205000000    1.967388988e-01   -5.281481147e-01
     5208000000    3.752734065e-01   -4.209240973e-01
     5211000000    5.049508810e-01   -2.580694258e-01
     5214000000    5.589223504e-01   -6.067971140e-02
     5217000000    5.433120131e-01    1.505474746e-01
     5220000000    4.522132874e-01    3.344188929e-01
     5223000000    2.997912765e-01    4.769945741e-01
     5226000000    1.052262187e-01    5.504085422e-01
     5229000000   -1.011044532e-01    5.517421961e-01
     5232000000   -2.971543372e-01    4.763111770e-01
     5235000000   -4.538316727e-01    3.285945952e-01
     5238000000   -5.371248722e-01    1.484142989e-01
     5241000000   -5.548847914e-01   -5.098353326e-02
     5244000000   -4.963196516e-01   -2.548069358e-01
     5247000000   -3.729154468e-01   -4.158387184e-01
     5250000000   -1.780624688e-01   -5.326597691e-01
     5253000000    1.736086980e-02   -5.573793054e-01
     5256000000    2.156949192e-01   -5.141743422e-01
     5259000000    3.960010111e-01   -3.947439790e-01
     5262000000    5.121243596e-01   -2.242899835e-01
     5265000000    5.573757291e-01   -2.569974586e-02
     5268000000    5.267233253e-01    1.799540520e-01
     5271000000    4.335162342e-01    3.451053798e-01
     5274000000    2.591535747e-01    4.943590760e-01
     5277000000    7.923291624e-02    5.513781905e-01
     5280000000   -1.435520053e-01    5.402363539e-01
     5283000000   -3.160612881e-01    4.568322301e-01
     5286000000   -4.630782902e-01    3.056196272e-01
     5289000000   -5.444252491e-01    1.122827977e-01
     5292000000   -5.470670462e-01   -9.999988228e-02
     5295000000   -4.744968712e-01   -2.796518803e-01
     5298000000   -3.396081626e-01   -4.360799193e-01
     5301000000   -1.538206786e-01   -5.333362818e-01
     5304000000    4.837103188e-02   -5.529984236e-01
     5307000000    2.483154684e-01   -4.941316843e-01
     5310000000    4.028539062e-01   -3.775165975e-01
     5313000000    5.162694454e-01   -2.001106739e-01
     5316000000    5.536388159e-01    6.027831696e-03
     5319000000    5.148568153e-01    2.067561150e-01
     5322000000    3.984737992e-01    3.833487034e-01
     5325000000    2.357842773e-01    4.996868670e-01
     5328000000    3.030853346e-02    5.504151583e-01
     5331000000   -1.634027511e-01    5.254396200e-01
     5334000000   -3.460915387e-01    4.323477745e-01
     5337000000   -4.784729183e-01    2.752449512e-01
     5340000000   -5.451264381e-01    7.632273436e-02
     5343000000   -5.348419547e-01   -1.238340512e-01
     5346000000   -4.507454634e-01   -3.165855110e-01
     5349000000   -3.026039004e-01   -4.581098855e-01
     5352000000   -1.158656701e-01   -5.372802615e-01
     5355000000    8.708439767e-02   -5.422387719e-01
     5358000000    2.918620408e-01   -4.634363353e-01
     5361000000    4.233240485e-01   -3.497978747e-01
     5364000000    5.267791152e-01   -1.568654180e-01
     5367000000    5.419238806e-01    5.180772394e-02
     5370000000    4.882735312e-01    2.460112572e-01
     5373000000    3.651453257e-01    4.034180343e-01
     5376000000    2.054865658e-01    5.064991117e-01
     5379000000    2.425495069e-03    5.430960059e-01
     5382000000   -1.950756013e-01    5.071460605e-01
     5385000000   -3.575955629e-01    4.085203111e-01
     5388000000   -4.977709651e-01    2.063827515e-01
     5391000000   -5.419729948e-01    5.140337721e-02
     5394000000   -5.157933235e-01   -1.624702513e-01
     5397000000   -4.215524793e-01   -3.335362375e-01
     5400000000   -2.659153342e-01   -4.682022631e-01
     5403000000   -7.425902039e-02   -5.309597850e-01
     5406000000    1.201546788e-01   -5.203976631e-01
     5409000000    3.046320379e-01   -4.384079576e-01
     5412000000    4.454598427e-01   -2.942931354e-01
     5415000000    5.208302736e-01   -1.155245006e-01
     5418000000    5.214366317e-01    9.336876869e-02
     5421000000    4.572433829e-01    2.728720903e-01
     5424000000    3.220004439e-01    4.229044318e-01
     5427000000    1.485995203e-01    5.092637539e-01
     5430000000   -3.144488484e-02    5.342983007e-01
     5433000000   -2.418484539e-01    4.703962207e-01
     5436000000   -3.975696266e-01    3.521140516e-01
     5439000000   -4.945715666e-01    2.060832828e-01
     5442000000   -5.287647843e-01   -5.465644412e-03
     5445000000   -4.976997972e-01   -1.906878799e-01
     5448000000   -3.744833171e-01   -3.691945970e-01
     5451000000   -2.241331041e-01   -4.778393805e-01
     5454000000   -2.421276458e-02   -5.237280130e-01
     5457000000    1.613331288e-01   -5.019863248e-01
     5460000000    3.344701827e-01   -4.073655307e-01
     5463000000    4.608446658e-01   -2.453098297e-01
     5466000000    5.189375281e-01   -6.424134225e-02
     5469000000    5.161811709e-01    1.110134050e-01
     5472000000    4.141623080e-01    3.116128445e-01
     5475000000    2.964410782e-01    4.358749986e-01
     5478000000    1.020599529e-01    5.110183358e-01
     5481000000   -9.720230103e-02    5.113804936e-01
     5484000000   -2.611531019e-01    4.622139037e-01
     5487000000   -4.184041619e-01    3.056801856e-01
     5490000000   -5.023071170e-01    1.415941864e-01
     5493000000   -5.146383047e-01   -6.081889570e-02
     5496000000   -4.721240103e-01   -2.274068594e-01
     5499000000   -3.404179513e-01   -3.914290369e-01
     5502000000   -1.659557819e-01   -4.872981906e-01
     5505000000    1.071927231e-02   -5.189130306e-01
     5508000000    2.016731203e-01   -4.766804874e-01
     5511000000    3.615222275e-01   -3.698169589e-01
     5514000000    4.720395505e-01   -2.115686834e-01
     5517000000    5.198813081e-01   -3.276019916e-02
     5520000000    4.874958694e-01    1.667094678e-01
     5523000000    3.796889484e-01    3.397386074e-01
     5526000000    2.514159083e-01    4.534088671e-01
     5529000000    6.145353988e-02    5.092935562e-01
     5532000000   -1.291472316e-01    5.032603145e-01
     5535000000   -3.036322296e-01    4.154909849e-01
     5538000000   -4.356121421e-01    2.607287765e-01
     5541000000   -5.027999282e-01    9.033551067e-02
     5544000000   -5.085219741e-01   -8.308105916e-02
     5547000000   -4.203185439e-01   -2.786036730e-01
     5550000000   -3.070056140e-01   -4.117626548e-01
     5553000000   -1.203747988e-01   -4.884958267e-01
     5556000000    5.900424719e-02   -5.041852593e-01
     5559000000    2.333940119e-01   -4.593525827e-01
     5562000000    3.886057138e-01   -3.182273805e-01
     5565000000    4.786601663e-01   -1.655343771e-01
     5568000000    5.087005496e-01    1.753551513e-02
     5571000000    4.641957581e-01    2.053623497e-01
     5574000000    3.586149216e-01    3.591540456e-01
     5577000000    1.957677901e-01    4.632250071e-01
     5580000000    1.340884902e-02    5.025132895e-01
     5583000000   -1.726383418e-01    4.738453329e-01
     5586000000   -3.330797255e-01    3.705813289e-01
     5589000000   -4.481749237e-01    2.317709476e-01
     5592000000   -4.947038293e-01    4.118546844e-02
     5595000000   -4.762798548e-01   -1.413665265e-01
     5598000000   -3.954972923e-01   -3.071862161e-01
     5601000000   -2.489301264e-01   -4.307772517e-01
     5604000000   -8.215679228e-02   -4.934000969e-01
     5607000000    1.014529318e-01   -4.944197834e-01
     5610000000    2.825484872e-01   -4.028143883e-01
     5613000000    4.113868475e-01   -2.897753119e-01
     5616000000    4.857289791e-01   -1.118423715e-01
     5619000000    4.938237965e-01    7.477586716e-02
     5622000000    4.314430654e-01    2.475354522e-01
     5625000000    3.052278757e-01    3.884837031e-01
     5628000000    1.524512619e-01    4.812026322e-01
     5631000000   -3.786537051e-02    4.926014543e-01
     5634000000   -2.151201218e-01    4.477868974e-01
     5637000000   -3.670541644e-01    3.319860995e-01
     5640000000   -4.644270837e-01    1.783862710e-01
     5643000000   -5.060660243e-01    2.841932233e-03
     5646000000   -4.540050626e-01   -1.903590262e-01
     5649000000   -3.673694730e-01   -3.434667885e-01
     5652000000   -2.044118941e-01   -4.464077652e-01
     5655000000   -3.499278426e-02   -5.026009083e-01
     5658000000    1.578152031e-01   -4.651848078e-01
     5661000000    3.151543736e-01   -3.891116679e-01
     5664000000    4.356554449e-01   -2.433910668e-01
     5667000000    4.944954813e-01   -7.118568569e-02
     5670000000    4.807399809e-01    1.180012077e-01
     5673000000    4.043048322e-01    2.893915474e-01
     5676000000    2.741691768e-01    4.173052609e-01
     5679000000    9.830092639e-02    4.862260818e-01
     5682000000   -9.040942788e-02    4.871558249e-01
     5685000000   -2.593831718e-01    4.274278283e-01
     5688000000   -3.932311833e-01    2.910880148e-01
     5691000000   -4.820789397e-01    1.353580952e-01
     5694000000   -5.013270378e-01   -4.831481725e-02
     5697000000   -4.365188479e-01   -2.287276983e-01
     5700000000   -3.352444172e-01   -3.746303320e-01
     5703000000   -1.654499024e-01   -4.651483297e-01
     5706000000    1.077635400e-02   -5.039532185e-01
     5709000000    1.965822130e-01   -4.527236819e-01
     5712000000    3.500937521e-01   -3.584120870e-01
     5715000000    4.544075727e-01   -2.065701187e-01
     5718000000    4.944983125e-01   -1.761098206e-02
     5721000000    4.707531035e-01    1.601537317e-01
     5724000000    3.812378049e-01    3.238648474e-01
     5727000000    2.349031419e-01    4.390967786e-01
     5730000000    5.652585998e-02    4.942289591e-01
     5733000000   -1.287005246e-01    4.808852971e-01
     5736000000   -2.968581319e-01    4.016510546e-01
     5739000000   -4.202656448e-01    2.652999461e-01
     5742000000   -4.898607135e-01    9.395490587e-02
     5745000000   -4.892870486e-01   -9.201600403e-02
     5748000000   -4.215244651e-01   -2.637989819e-01
     5751000000   -2.935966253e-01   -4.033959210e-01
     5754000000   -1.212252751e-01   -4.715338349e-01
     5757000000    5.731920153e-02   -5.013033152e-01
     5760000000    2.365143895e-01   -4.299290478e-01
     5763000000    3.780335486e-01   -3.185811639e-01
     5766000000    4.702309668e-01   -1.578807235e-01
     5769000000    5.015689135e-01    2.619087324e-02
     5772000000    4.516095519e-01    2.073654085e-01
     5775000000    3.458154202e-01    3.614841700e-01
     5778000000    1.901654750e-01    4.571059346e-01
     5781000000    1.358048432e-02    5.007722974e-01
     5784000000   -1.761416346e-01    4.726393819e-01
     5787000000   -3.320073485e-01    3.698824644e-01
     5790000000   -4.494397938e-01    2.254468650e-01
     5793000000   -4.988559186e-01    4.598992690e-02
     5796000000   -4.797523022e-01   -1.423449516e-01
     5799000000   -3.940666020e-01   -3.087536395e-01
     5802000000   -2.547581792e-01   -4.317557216e-01
     5805000000   -7.929524034e-02   -4.957090914e-01
     5808000000    1.085155159e-01   -4.848301709e-01
     5811000000    2.809638381e-01   -4.186668992e-01
     5814000000    4.110935628e-01   -2.867983580e-01
     5817000000    4.880755544e-01   -1.115756780e-01
     5820000000    4.976105988e-01    7.539196312e-02
     5823000000    4.394311011e-01    2.514601946e-01
     5826000000    3.182570934e-01    3.958707154e-01
     5829000000    1.509618461e-01    4.840166867e-01
     5832000000   -3.686586022e-02    5.089002252e-01
     5835000000   -2.188561857e-01    4.567534924e-01
     5838000000   -3.726711571e-01    3.476206362e-01
     5841000000   -4.739254713e-01    1.880961806e-01
     5844000000   -5.082623363e-01    1.529760542e-03
     5847000000   -4.736597538e-01   -1.864833981e-01
     5850000000   -3.754201829e-01   -3.467998803e-01
     5853000000   -2.201352715e-01   -4.605374336e-01
     5856000000   -3.866140172e-02   -5.113626719e-01
     5859000000    1.487741321e-01   -4.878144860e-01
     5862000000    3.190245926e-01   -4.021954834e-01
     5865000000    4.436574876e-01   -2.564465702e-01
     5868000000    5.064685941e-01   -7.578244060e-02
     5871000000    5.004767179e-01    1.138909087e-01
     5874000000    4.268207550e-01    2.890881598e-01
     5877000000    2.897455096e-01    4.245345294e-01
     5880000000    1.164346859e-01    5.038709641e-01
     5883000000   -7.626150548e-02    5.101474524e-01
     5886000000   -2.595834732e-01    4.430328012e-01
     5889000000   -4.066838026e-01    3.193341792e-01
     5892000000   -4.921294451e-01    1.480976939e-01
     5895000000   -5.210506916e-01   -4.093517363e-02
     5898000000   -4.678012431e-01   -2.273468077e-01
     5901000000   -3.522936106e-01   -3.820281327e-01
     5904000000   -1.862063259e-01   -4.870746434e-01
     5907000000    2.812801162e-03   -5.255049467e-01
     5910000000    1.876313388e-01   -4.865384400e-01
     5913000000    3.598702848e-01   -3.825055361e-01
     5916000000    4.694942534e-01   -2.308941931e-01
     5919000000    5.235180259e-01   -3.674118221e-02
     5922000000    4.990022779e-01    1.537605226e-01
     5925000000    4.107757509e-01    3.260769844e-01
     5928000000    2.637785375e-01    4.538126588e-01
     5931000000    7.960259169e-02    5.203706622e-01
     5934000000   -1.185237691e-01    5.128877163e-01
     5937000000   -2.971367538e-01    4.344982207e-01
     5940000000   -4.375423193e-01    2.974027097e-01
     5943000000   -5.154437423e-01    1.127157211e-01
     5946000000   -5.250467658e-01   -7.701758295e-02
     5949000000   -4.594467282e-01   -2.656946480e-01
     5952000000   -3.312647045e-01   -4.158086479e-01
     5955000000   -1.626597643e-01   -5.077568293e-01
     5958000000    3.858089447e-02   -5.307704210e-01
     5961000000    2.309352160e-01   -4.796196520e-01
     5964000000    3.914609551e-01   -3.658391237e-01
     5967000000    4.975264072e-01   -1.973038018e-01
     5970000000    5.365267992e-01   -6.616776809e-03
     5973000000    5.042731762e-01    1.904405355e-01
     5976000000    3.947199881e-01    3.632172346e-01
     5979000000    2.364925742e-01    4.834697843e-01
     5982000000    4.778964072e-02    5.392940640e-01
     5985000000   -1.531679928e-01    5.182960033e-01
     5988000000   -3.314286768e-01    4.294677973e-01
     5991000000   -4.653182924e-01    2.809251249e-01
     5994000000   -5.368287563e-01    9.265687317e-02
     5997000000   -5.332073569e-01   -1.086760983e-01
     6000000000   -4.623977840e-01   -2.919110656e-01
