! NanoVNA-App
! Date: 2026-05-22 18:50:04
! Start: 2.3GHz Stop: 2.6GHz Points: 401
! S-Parameter data: F S11
# Hz S RI R 50
!     Frequency           S11_Real           S11_Imag
     2300000000    3.130716085e-01    7.485271096e-01
     2300750000    2.403734475e-01    7.720221877e-01
     2301500000    1.656874269e-01    7.888278961e-01
     2302250000    9.124868363e-02    8.013591170e-01
     2303000000    1.446992531e-02    8.041282892e-01
     2303750000   -6.057721004e-02    8.005133271e-01
     2304500000   -1.305580735e-01    7.899011374e-01
     2305250000   -2.050924152e-01    7.733718157e-01
     2306000000   -2.780438662e-01    7.480523586e-01
     2306750000   -3.420901895e-01    7.196022868e-01
     2307500000   -4.046468437e-01    6.825892925e-01
     2308250000   -4.727315009e-01    6.382739544e-01
     2309000000   -5.235173702e-01    5.937701464e-01
     2309750000   -5.763057470e-01    5.393819809e-01
     2310500000   -6.250399351e-01    4.806308746e-01
     2311250000   -6.653486490e-01    4.194040596e-01
     2312000000   -6.987659931e-01    3.557576239e-01
     2312750000   -7.291195393e-01    2.870100737e-01
     2313500000   -7.492929697e-01    2.177003473e-01
     2314250000   -7.635706663e-01    1.532205045e-01
     2315000000   -7.725890875e-01    7.546665519e-02
     2315750000   -7.748067975e-01    4.227954429e-03
     2316500000   -7.719910145e-01   -7.512724400e-02
     2317250000   -7.590301633e-01   -1.450241357e-01
     2318000000   -7.410678864e-01   -2.059107125e-01
     2318750000   -7.149549723e-01   -2.795613706e-01
     2319500000   -6.848567724e-01   -3.397726119e-01
     2320250000   -6.479529142e-01   -4.068213105e-01
     2321000000   -6.050790548e-01   -4.614559412e-01
     2321750000   -5.601758957e-01   -5.108814240e-01
     2322500000   -5.043128133e-01   -5.650954247e-01
     2323250000   -4.508893788e-01   -6.076040864e-01
     2324000000   -3.891978562e-01   -6.468744278e-01
     2324750000   -3.300655782e-01   -6.765481830e-01
     2325500000   -2.600898147e-01   -7.041056752e-01
     2326250000   -1.995243877e-01   -7.193037271e-01
     2327000000   -1.228498891e-01   -7.365550995e-01
     2327750000   -5.665279180e-02   -7.434680462e-01
     2328500000    1.308301371e-02   -7.422649860e-01
     2329250000    7.768066227e-02   -7.358557582e-01
     2330000000    1.512616426e-01   -7.228551507e-01
     2330750000    2.115377188e-01   -7.039160728e-01
     2331500000    2.798929513e-01   -6.767053604e-01
     2332250000    3.430289328e-01   -6.456690431e-01
     2333000000    3.969673216e-01   -6.115604043e-01
     2333750000    4.504970312e-01   -5.698638558e-01
     2334500000    4.996454120e-01   -5.247166753e-01
     2335250000    5.445614457e-01   -4.723409414e-01
     2336000000    5.883801579e-01   -4.134133458e-01
     2336750000    6.189325452e-01   -3.607075810e-01
     2337500000    6.459115744e-01   -3.015381992e-01
     2338250000    6.696749330e-01   -2.372435927e-01
     2339000000    6.858228445e-01   -1.733770967e-01
     2339750000    6.970379353e-01   -1.081511006e-01
     2340500000    7.002658248e-01   -4.482048750e-02
     2341250000    6.986656189e-01    2.236443944e-02
     2342000000    6.902337074e-01    8.492485434e-02
     2342750000    6.772317290e-01    1.510057598e-01
     2343500000    6.576651931e-01    2.110191584e-01
     2344250000    6.309565902e-01    2.742124796e-01
     2345000000    6.010789871e-01    3.269072175e-01
     2345750000    5.655795932e-01    3.794627488e-01
     2346500000    5.236099362e-01    4.304160774e-01
     2347250000    4.826366007e-01    4.710865617e-01
     2348000000    4.299499989e-01    5.158702135e-01
     2348750000    3.747276664e-01    5.532960296e-01
     2349500000    3.283220530e-01    5.771478415e-01
     2350250000    2.642363608e-01    6.053113341e-01
     2351000000    2.027821541e-01    6.260976195e-01
     2351750000    1.480323076e-01    6.382259130e-01
     2352500000    8.450964093e-02    6.468973756e-01
     2353250000    3.051763028e-02    6.466905475e-01
     2354000000   -4.209437221e-02    6.447419524e-01
     2354750000   -9.110885859e-02    6.342561841e-01
     2355500000   -1.498636156e-01    6.197441220e-01
     2356250000   -2.148494869e-01    5.967550278e-01
     2357000000   -2.666539848e-01    5.726054907e-01
     2357750000   -3.172832131e-01    5.425707698e-01
     2358500000   -3.633754253e-01    5.067777038e-01
     2359250000   -4.073212743e-01    4.676174223e-01
     2360000000   -4.471395314e-01    4.251086116e-01
     2360750000   -4.823913872e-01    3.781144321e-01
     2361500000   -5.153142214e-01    3.267676532e-01
     2362250000   -5.373808742e-01    2.776484191e-01
     2363000000   -5.561075807e-01    2.255952954e-01
     2363750000   -5.718615055e-01    1.688560694e-01
     2364500000   -5.801233053e-01    1.137299240e-01
     2365250000   -5.845301151e-01    5.719174445e-02
     2366000000   -5.835531354e-01    1.643128577e-03
     2366750000   -5.762471557e-01   -5.349899083e-02
     2367500000   -5.638931394e-01   -1.090639234e-01
     2368250000   -5.465016961e-01   -1.605425030e-01
     2369000000   -5.248491764e-01   -2.115617543e-01
     2369750000   -4.985825717e-01   -2.568607330e-01
     2370500000   -4.668880999e-01   -3.012701869e-01
     2371250000   -4.322944880e-01   -3.426203728e-01
     2372000000   -3.923158646e-01   -3.811997771e-01
     2372750000   -3.529372811e-01   -4.093704820e-01
     2373500000   -3.080496788e-01   -4.393490255e-01
     2374250000   -2.642462254e-01   -4.610039294e-01
     2375000000   -2.135241628e-01   -4.808928072e-01
     2375750000   -1.618312448e-01   -4.958610535e-01
     2376500000   -1.144805029e-01   -5.023755431e-01
     2377250000   -6.085460261e-02   -5.072088242e-01
     2378000000   -1.381042413e-02   -5.047032833e-01
     2378750000    3.611574695e-02   -4.972658753e-01
     2379500000    8.553341031e-02   -4.876954257e-01
     2380250000    1.346440017e-01   -4.702655375e-01
     2381000000    1.769480258e-01   -4.501688480e-01
     2381750000    2.165651470e-01   -4.264187515e-01
     2382500000    2.561587989e-01   -3.976922333e-01
     2383250000    2.936303914e-01   -3.646843433e-01
     2384000000    3.286902010e-01   -3.267990649e-01
     2384750000    3.521995544e-01   -2.926548719e-01
     2385500000    3.783409297e-01   -2.487971783e-01
     2386250000    3.964747488e-01   -2.067960352e-01
     2387000000    4.136674106e-01   -1.596100777e-01
     2387750000    4.192200005e-01   -1.213696823e-01
     2388500000    4.257505536e-01   -7.185427099e-02
     2389250000    4.269029498e-01   -2.494466677e-02
     2390000000    4.227025509e-01    1.966680586e-02
     2390750000    4.131726027e-01    6.317610294e-02
     2391500000    3.989173472e-01    1.096014231e-01
     2392250000    3.808082342e-01    1.507990658e-01
     2393000000    3.589255810e-01    1.868980378e-01
     2393750000    3.319484293e-01    2.249443829e-01
     2394500000    3.017418683e-01    2.588622570e-01
     2395250000    2.693134248e-01    2.856307030e-01
     2396000000    2.319460958e-01    3.132558465e-01
     2396750000    1.934016198e-01    3.341727555e-01
     2397500000    1.509884149e-01    3.528727889e-01
     2398250000    1.098418012e-01    3.649084866e-01
     2399000000    6.409414858e-02    3.741630316e-01
     2399750000    2.059502341e-02    3.766549826e-01
     2400500000   -2.355019376e-02    3.757493198e-01
     2401250000   -6.849590689e-02    3.703404367e-01
     2402000000   -1.147659346e-01    3.581050932e-01
     2402750000   -1.547884792e-01    3.440541327e-01
     2403500000   -1.961555332e-01    3.237332702e-01
     2404250000   -2.333232015e-01    2.995981574e-01
     2405000000   -2.703186274e-01    2.702429891e-01
     2405750000   -3.033437133e-01    2.380836755e-01
     2406500000   -3.298393786e-01    2.038878202e-01
     2407250000   -3.568474054e-01    1.638695598e-01
     2408000000   -3.791945279e-01    1.212886646e-01
     2408750000   -3.936885297e-01    8.063072711e-02
     2409500000   -4.076717198e-01    3.122046031e-02
     2410250000   -4.134062827e-01   -1.351577044e-02
     2411000000   -4.164342284e-01   -6.408435851e-02
     2411750000   -4.140912890e-01   -1.127081439e-01
     2412500000   -4.059416950e-01   -1.612240970e-01
     2413250000   -3.933229446e-01   -2.089138925e-01
     2414000000   -3.747324049e-01   -2.557271421e-01
     2414750000   -3.519418836e-01   -3.020910621e-01
     2415500000   -3.251909018e-01   -3.442730308e-01
     2416250000   -2.913796902e-01   -3.871605098e-01
     2417000000   -2.552239299e-01   -4.232988060e-01
     2417750000   -2.150143087e-01   -4.578925073e-01
     2418500000   -1.691615433e-01   -4.887503684e-01
     2419250000   -1.224479973e-01   -5.137008429e-01
     2420000000   -7.155632228e-02   -5.348795056e-01
     2420750000   -2.245963179e-02   -5.501129031e-01
     2421500000    3.453685716e-02   -5.615049601e-01
     2422250000    9.070255607e-02   -5.667591691e-01
     2423000000    1.473737657e-01   -5.671195984e-01
     2423750000    2.055909485e-01   -5.608475208e-01
     2424500000    2.657213211e-01   -5.494091511e-01
     2425250000    3.170548081e-01   -5.338947177e-01
     2426000000    3.727584481e-01   -5.106652379e-01
     2426750000    4.288085401e-01   -4.806831479e-01
     2427500000    4.738149047e-01   -4.497444928e-01
     2428250000    5.260591507e-01   -4.088326991e-01
     2429000000    5.670627356e-01   -3.683747649e-01
     2429750000    6.109275818e-01   -3.169583678e-01
     2430500000    6.426085234e-01   -2.698401213e-01
     2431250000    6.760664582e-01   -2.087190598e-01
     2432000000    6.993068457e-01   -1.554967612e-01
     2432750000    7.235366702e-01   -8.539590985e-02
     2433500000    7.362604737e-01   -2.736127004e-02
     2434250000    7.446195483e-01    4.026649520e-02
     2435000000    7.480517030e-01    1.068273559e-01
     2435750000    7.451205254e-01    1.753671467e-01
     2436500000    7.321237326e-01    2.492330074e-01
     2437250000    7.179290056e-01    3.016830683e-01
     2438000000    6.950488091e-01    3.717693985e-01
     2438750000    6.635273695e-01    4.428930283e-01
     2439500000    6.305904984e-01    5.008975863e-01
     2440250000    5.894093513e-01    5.560639501e-01
     2441000000    5.456550717e-01    6.100928783e-01
     2441750000    4.963123500e-01    6.589792967e-01
     2442500000    4.308701754e-01    7.132253647e-01
     2443250000    3.713453710e-01    7.507656813e-01
     2444000000    3.063049018e-01    7.854892015e-01
     2444750000    2.422622740e-01    8.147655725e-01
     2445500000    1.701411009e-01    8.384315372e-01
     2446250000    9.364049137e-02    8.560016155e-01
     2447000000    1.939104311e-02    8.646989465e-01
     2447750000   -5.579150096e-02    8.682973385e-01
     2448500000   -1.325154901e-01    8.654814959e-01
     2449250000   -2.124712169e-01    8.551256061e-01
     2450000000   -2.847857475e-01    8.380693793e-01
     2450750000   -3.585572839e-01    8.126819730e-01
     2451500000   -4.279467762e-01    7.818773985e-01
     2452250000   -4.984566569e-01    7.454615235e-01
     2453000000   -5.625896454e-01    7.022694349e-01
     2453750000   -6.236565113e-01    6.533275843e-01
     2454500000   -6.837553978e-01    5.945415497e-01
     2455250000   -7.369260788e-01    5.327140689e-01
     2456000000   -7.819269300e-01    4.691407681e-01
     2456750000   -8.227223754e-01    4.007051289e-01
     2457500000   -8.585178852e-01    3.248091638e-01
     2458250000   -8.873032928e-01    2.483038753e-01
     2459000000   -9.067589641e-01    1.712624878e-01
     2459750000   -9.198074937e-01    9.183057398e-02
     2460500000   -9.277901053e-01    4.499577917e-03
     2461250000   -9.253867865e-01   -7.442171127e-02
     2462000000   -9.158765078e-01   -1.624487638e-01
     2462750000   -9.031769633e-01   -2.335200608e-01
     2463500000   -8.769251704e-01   -3.193337917e-01
     2464250000   -8.473166823e-01   -3.997992873e-01
     2465000000   -8.130371571e-01   -4.701526165e-01
     2465750000   -7.669664621e-01   -5.410441160e-01
     2466500000   -7.117490768e-01   -6.152336001e-01
     2467250000   -6.620374322e-01   -6.701059937e-01
     2468000000   -5.921941996e-01   -7.343210578e-01
     2468750000   -5.301335454e-01   -7.823983431e-01
     2469500000   -4.591681659e-01   -8.252951503e-01
     2470250000   -3.813033104e-01   -8.667442799e-01
     2471000000   -3.026075065e-01   -8.983730078e-01
     2471750000   -2.261701524e-01   -9.215836525e-01
     2472500000   -1.487185508e-01   -9.372134209e-01
     2473250000   -4.559987411e-02   -9.495697021e-01
     2474000000    3.746019304e-02   -9.502238631e-01
     2474750000    1.213371977e-01   -9.425069690e-01
     2475500000    2.046944946e-01   -9.274520278e-01
     2476250000    2.833002508e-01   -9.089409113e-01
     2477000000    3.710916936e-01   -8.786168694e-01
     2477750000    4.459500313e-01   -8.427879810e-01
     2478500000    5.187228918e-01   -8.018561602e-01
     2479250000    5.911470056e-01   -7.492366433e-01
     2480000000    6.569833159e-01   -6.931636930e-01
     2480750000    7.193249464e-01   -6.277716160e-01
     2481500000    7.732140422e-01   -5.595796704e-01
     2482250000    8.216709495e-01   -4.848766029e-01
     2483000000    8.607099652e-01   -4.140703380e-01
     2483750000    8.954791427e-01   -3.320200741e-01
     2484500000    9.221049547e-01   -2.525558770e-01
     2485250000    9.420163035e-01   -1.655713916e-01
     2486000000    9.529429078e-01   -7.958830148e-02
     2486750000    9.562333822e-01    4.169865046e-03
     2487500000    9.501513243e-01    9.254259616e-02
     2488250000    9.383314848e-01    1.812165231e-01
     2489000000    9.192127585e-01    2.642368078e-01
     2489750000    8.894221783e-01    3.475908935e-01
     2490500000    8.555362821e-01    4.311043024e-01
     2491250000    8.115298152e-01    5.044673681e-01
     2492000000    7.635911703e-01    5.759335160e-01
     2492750000    7.094116211e-01    6.434977055e-01
     2493500000    6.458732486e-01    7.051705718e-01
     2494250000    5.740491748e-01    7.631855011e-01
     2495000000    5.062974095e-01    8.096651435e-01
     2495750000    4.225531518e-01    8.564721942e-01
     2496500000    3.487832248e-01    8.853517771e-01
     2497250000    2.606931925e-01    9.193995595e-01
     2498000000    1.864016354e-01    9.368824363e-01
     2498750000    8.667737991e-02    9.507563710e-01
     2499500000    3.624782432e-03    9.561313987e-01
     2500250000   -7.627841085e-02    9.497047663e-01
     2501000000   -1.722872555e-01    9.395881295e-01
     2501750000   -2.571635842e-01    9.199407101e-01
     2502500000   -3.359213173e-01    8.892775178e-01
     2503250000   -4.221217036e-01    8.556188345e-01
     2504000000   -4.945282340e-01    8.155874610e-01
     2504750000   -5.710766912e-01    7.622797489e-01
     2505500000   -6.329703331e-01    7.117018104e-01
     2506250000   -7.002125978e-01    6.466879845e-01
     2507000000   -7.536761165e-01    5.805124640e-01
     2507750000   -8.032012582e-01    5.095269084e-01
     2508500000   -8.484266996e-01    4.316992760e-01
     2509250000   -8.841795325e-01    3.479293883e-01
     2510000000   -9.103319645e-01    2.739353478e-01
     2510750000   -9.321332574e-01    1.835260391e-01
     2511500000   -9.444254637e-01    9.206443280e-02
     2512250000   -9.500543475e-01    8.211044595e-03
     2513000000   -9.462526441e-01   -8.084493130e-02
     2513750000   -9.348974824e-01   -1.678796560e-01
     2514500000   -9.134976268e-01   -2.490853071e-01
     2515250000   -8.857998848e-01   -3.401380777e-01
     2516000000   -8.544437289e-01   -4.131075144e-01
     2516750000   -8.092676997e-01   -4.935718477e-01
     2517500000   -7.604119182e-01   -5.629444122e-01
     2518250000   -7.047843337e-01   -6.333203912e-01
     2519000000   -6.418521404e-01   -6.938338876e-01
     2519750000   -5.742050409e-01   -7.502568364e-01
     2520500000   -5.026849508e-01   -8.012616038e-01
     2521250000   -4.262164235e-01   -8.436233401e-01
     2522000000   -3.437178135e-01   -8.798558712e-01
     2522750000   -2.693344653e-01   -9.052408338e-01
     2523500000   -1.773470342e-01   -9.291436672e-01
     2524250000   -9.890486300e-02   -9.375118017e-01
     2525000000   -5.318008363e-03   -9.447064996e-01
     2525750000    8.146692812e-02   -9.391379356e-01
     2526500000    1.665396988e-01   -9.284160137e-01
     2527250000    2.558436096e-01   -9.065407515e-01
     2528000000    3.371824026e-01   -8.826776743e-01
     2528750000    4.173234105e-01   -8.435564041e-01
     2529500000    4.907971323e-01   -8.031033874e-01
     2530250000    5.642340183e-01   -7.527269125e-01
     2531000000    6.278526187e-01   -6.976742148e-01
     2531750000    6.937159300e-01   -6.328649521e-01
     2532500000    7.505124807e-01   -5.655164719e-01
     2533250000    7.976825833e-01   -4.932587445e-01
     2534000000    8.438352346e-01   -4.124599099e-01
     2534750000    8.747687936e-01   -3.382606804e-01
     2535500000    9.019934535e-01   -2.565491199e-01
     2536250000    9.201583266e-01   -1.707535088e-01
     2537000000    9.330887794e-01   -8.327931911e-02
     2537750000    9.359045029e-01    3.201057669e-03
     2538500000    9.314903021e-01    8.468815684e-02
     2539250000    9.192634225e-01    1.752468795e-01
     2540000000    8.955965042e-01    2.558124959e-01
     2540750000    8.688717484e-01    3.422364891e-01
     2541500000    8.347710967e-01    4.180025160e-01
     2542250000    7.884613276e-01    4.966560304e-01
     2543000000    7.419098020e-01    5.652850866e-01
     2543750000    6.826839447e-01    6.321899295e-01
     2544500000    6.222062707e-01    6.933249235e-01
     2545250000    5.544550419e-01    7.454670668e-01
     2546000000    4.844105840e-01    7.925990224e-01
     2546750000    4.066596031e-01    8.342656493e-01
     2547500000    3.305093348e-01    8.696127534e-01
     2548250000    2.409195304e-01    8.951406479e-01
     2549000000    1.614199579e-01    9.124251008e-01
     2549750000    6.896632165e-02    9.224177599e-01
     2550500000   -1.566122845e-02    9.278062582e-01
     2551250000   -9.851830453e-02    9.205223322e-01
     2552000000   -1.775163561e-01    9.058546424e-01
     2552750000   -2.756624520e-01    8.847825527e-01
     2553500000   -3.439708650e-01    8.586414456e-01
     2554250000   -4.309412539e-01    8.188176751e-01
     2555000000   -4.921774268e-01    7.783752680e-01
     2555750000   -5.705530047e-01    7.226504683e-01
     2556500000   -6.383494139e-01    6.675087214e-01
     2557250000   -6.885762215e-01    6.126050353e-01
     2558000000   -7.476788163e-01    5.370419621e-01
     2558750000   -7.932376862e-01    4.690631330e-01
     2559500000   -8.314588666e-01    3.939011693e-01
     2560250000   -8.668847084e-01    3.045130372e-01
     2561000000   -8.911791444e-01    2.277860940e-01
     2561750000   -9.058955908e-01    1.425328106e-01
     2562500000   -9.154258966e-01    5.507240072e-02
     2563250000   -9.165714383e-01   -1.621203497e-02
     2564000000   -9.110997319e-01   -1.137406677e-01
     2564750000   -8.974730372e-01   -1.924865395e-01
     2565500000   -8.728571534e-01   -2.805041671e-01
     2566250000   -8.452759981e-01   -3.567507267e-01
     2567000000   -8.021565080e-01   -4.364136755e-01
     2567750000   -7.658706307e-01   -5.010820627e-01
     2568500000   -7.090808749e-01   -5.759527683e-01
     2569250000   -6.520112157e-01   -6.385873556e-01
     2570000000   -5.907115936e-01   -6.978968978e-01
     2570750000   -5.241289735e-01   -7.466798425e-01
     2571500000   -4.504970610e-01   -7.933132052e-01
     2572250000   -3.761011958e-01   -8.317573071e-01
     2573000000   -2.942135334e-01   -8.600002527e-01
     2573750000   -2.130959928e-01   -8.846980929e-01
     2574500000   -1.299961507e-01   -8.995971680e-01
     2575250000   -4.367199168e-02   -9.083684087e-01
     2576000000    4.144925252e-02   -9.084817171e-01
     2576750000    1.221788228e-01   -8.993661404e-01
     2577500000    2.074261159e-01   -8.827982545e-01
     2578250000    2.866370082e-01   -8.598856926e-01
     2579000000    3.659966588e-01   -8.280159235e-01
     2579750000    4.429892302e-01   -7.901817560e-01
     2580500000    5.084732771e-01   -7.474395037e-01
     2581250000    5.818777680e-01   -6.900245547e-01
     2582000000    6.405136585e-01   -6.354441047e-01
     2582750000    6.985682845e-01   -5.718506575e-01
     2583500000    7.468106151e-01   -5.041629076e-01
     2584250000    7.897777557e-01   -4.317771494e-01
     2585000000    8.307526112e-01   -3.514908552e-01
     2585750000    8.552969098e-01   -2.767925858e-01
     2586500000    8.785933256e-01   -1.896011531e-01
     2587250000    8.912613392e-01   -1.131034419e-01
     2588000000    8.979083896e-01   -2.654259652e-02
     2588750000    8.960677385e-01    5.841172114e-02
     2589500000    8.863363266e-01    1.386719644e-01
     2590250000    8.675169349e-01    2.222111821e-01
     2591000000    8.432025909e-01    3.000143468e-01
     2591750000    8.120017648e-01    3.736216426e-01
     2592500000    7.698130608e-01    4.546546638e-01
     2593250000    7.284789085e-01    5.165597200e-01
     2594000000    6.712671518e-01    5.906981826e-01
     2594750000    6.164469719e-01    6.458215714e-01
     2595500000    5.575591326e-01    6.988894939e-01
     2596250000    4.767369926e-01    7.516369224e-01
     2597000000    4.111170173e-01    7.904955149e-01
     2597750000    3.424586952e-01    8.222979307e-01
     2598500000    2.568766177e-01    8.544462323e-01
     2599250000    1.697029322e-01    8.708623648e-01
     2600000000    9.631507099e-02    8.827058673e-01
