! NanoVNA-App
! Date: 2026-05-22 18:55:26
! Start: 4.8GHz Stop: 6GHz Points: 401
! S-Parameter data: F S11
# Hz S RI R 50
!     Frequency           S11_Real           S11_Imag
     4800000000    4.331112206e-01   -6.060011983e-01
     4803000000    6.262959242e-01   -4.043979645e-01
     4806000000    7.302937508e-01   -1.486056596e-01
     4809000000    7.356019020e-01    1.293792278e-01
     4812000000    6.349974275e-01    3.879058063e-01
     4815000000    4.506147206e-01    5.908021331e-01
     4818000000    2.041089088e-01    7.133530974e-01
     4821000000   -7.558187842e-02    7.396031618e-01
     4824000000   -3.361285031e-01    6.629441381e-01
     4827000000   -5.594211221e-01    4.891565740e-01
     4830000000   -6.990809441e-01    2.520095110e-01
     4833000000   -7.442922592e-01   -2.366197295e-02
     4836000000   -6.836349964e-01   -2.934045792e-01
     4839000000   -5.293730497e-01   -5.247182250e-01
     4842000000   -3.020820618e-01   -6.799724102e-01
     4845000000   -3.250219300e-02   -7.433424592e-01
     4848000000    2.479958683e-01   -7.040291429e-01
     4851000000    4.814161658e-01   -5.670828223e-01
     4854000000    6.583968997e-01   -3.487532437e-01
     4857000000    7.407410741e-01   -8.276664466e-02
     4860000000    7.205132246e-01    1.891801506e-01
     4863000000    5.974907279e-01    4.437446892e-01
     4866000000    3.957802355e-01    6.320270896e-01
     4869000000    1.378493458e-01    7.317886949e-01
     4872000000   -1.370812207e-01    7.329372168e-01
     4875000000   -3.950001597e-01    6.324219108e-01
     4878000000   -5.932880640e-01    4.450226128e-01
     4881000000   -7.223876715e-01    1.878533214e-01
     4884000000   -7.396875620e-01   -7.625298202e-02
     4887000000   -6.565482616e-01   -3.503748477e-01
     4890000000   -4.865693748e-01   -5.592803955e-01
     4893000000   -2.438884377e-01   -7.011094689e-01
     4896000000    2.897644788e-02   -7.402547598e-01
     4899000000    2.971599698e-01   -6.811244488e-01
     4902000000    5.268387198e-01   -5.232124329e-01
     4905000000    6.798850894e-01   -2.934647501e-01
     4908000000    7.408960462e-01   -2.331331745e-02
     4911000000    6.987277865e-01    2.518652081e-01
     4914000000    5.598968863e-01    4.823648334e-01
     4917000000    3.446279466e-01    6.554070115e-01
     4920000000    8.039123565e-02    7.310153842e-01
     4923000000   -1.970992982e-01    7.116824389e-01
     4926000000   -4.407062232e-01    5.892482996e-01
     4929000000   -6.250284314e-01    3.864894509e-01
     4932000000   -7.250225544e-01    1.312476546e-01
     4935000000   -7.241011858e-01   -1.474749148e-01
     4938000000   -6.189073324e-01   -3.946742713e-01
     4941000000   -4.324388206e-01   -5.940601230e-01
     4944000000   -1.787048429e-01   -7.128964067e-01
     4947000000    9.458595514e-02   -7.342258692e-01
     4950000000    3.467423320e-01   -6.430140138e-01
     4953000000    5.625684857e-01   -4.713560045e-01
     4956000000    7.001792192e-01   -2.342041582e-01
     4959000000    7.333161235e-01    3.573886305e-02
     4962000000    6.703738570e-01    3.045302033e-01
     4965000000    5.132794976e-01    5.272622108e-01
     4968000000    2.839178443e-01    6.781433225e-01
     4971000000    1.922346465e-02    7.340119481e-01
     4974000000   -2.573136389e-01    6.899141669e-01
     4977000000   -4.863833487e-01    5.475462079e-01
     4980000000   -6.531349421e-01    3.332758248e-01
     4983000000   -7.315542698e-01    6.783811748e-02
     4986000000   -7.035080194e-01   -1.993045360e-01
     4989000000   -5.795088410e-01   -4.486220777e-01
     4992000000   -3.833026290e-01   -6.181482673e-01
     4995000000   -1.204896644e-01   -7.258055806e-01
     4998000000    1.505959928e-01   -7.202253938e-01
     5001000000    3.989134729e-01   -6.100921631e-01
     5004000000    5.939976573e-01   -4.218892455e-01
     5007000000    7.111640573e-01   -1.794155389e-01
     5010000000    7.284996510e-01    9.798430651e-02
     5013000000    6.402662992e-01    3.521242142e-01
     5016000000    4.675828815e-01    5.640861392e-01
     5019000000    2.225566804e-01    7.025997639e-01
     5022000000   -3.683796898e-02    7.332533598e-01
     5025000000   -3.006476462e-01    6.691968441e-01
     5028000000   -5.292778015e-01    5.115860701e-01
     5031000000   -6.810550690e-01    2.806970179e-01
     5034000000   -7.321554422e-01    2.420447953e-02
     5037000000   -6.898362637e-01   -2.515466809e-01
     5040000000   -5.497679114e-01   -4.881701767e-01
     5043000000   -3.351836205e-01   -6.560341716e-01
     5046000000   -7.526072860e-02   -7.295772433e-01
     5049000000    1.991842687e-01   -7.068954110e-01
     5052000000    4.414286613e-01   -5.845943689e-01
     5055000000    6.212466359e-01   -3.826976418e-01
     5058000000    7.192143798e-01   -1.304622591e-01
     5061000000    7.197999358e-01    1.448199302e-01
     5064000000    6.167958975e-01    3.937781155e-01
     5067000000    4.351217151e-01    5.820100904e-01
     5070000000    1.839739680e-01    7.092320919e-01
     5073000000   -8.342388272e-02    7.251980305e-01
     5076000000   -3.421571255e-01    6.431398392e-01
     5079000000   -5.562086701e-01    4.730543792e-01
     5082000000   -6.917675734e-01    2.368627489e-01
     5085000000   -7.290147543e-01   -3.123804927e-02
     5088000000   -6.656549573e-01   -2.877643108e-01
     5091000000   -5.172051787e-01   -5.151771307e-01
     5094000000   -2.915936708e-01   -6.641142368e-01
     5097000000   -1.887657493e-02   -7.307583094e-01
     5100000000    2.377018183e-01   -6.890587807e-01
     5103000000    4.845158756e-01   -5.471894145e-01
     5106000000    6.435970068e-01   -3.481993675e-01
     5109000000    7.306451797e-01   -7.239516079e-02
     5112000000    7.021812201e-01    1.779193580e-01
     5115000000    5.866153240e-01    4.404432774e-01
     5118000000    3.891611397e-01    6.164441109e-01
     5121000000    1.387095153e-01    7.174787521e-01
     5124000000   -1.212921664e-01    7.149902582e-01
     5127000000   -3.956952393e-01    6.204506159e-01
     5130000000   -5.793941021e-01    4.410083890e-01
     5133000000   -7.096635103e-01    1.935887337e-01
     5136000000   -7.298549414e-01   -7.644850016e-02
     5139000000   -6.509169340e-01   -3.341435790e-01
     5142000000   -4.861422479e-01   -5.482528210e-01
     5145000000   -2.502326071e-01   -6.892076731e-01
     5148000000    1.131967083e-02   -7.311435342e-01
     5151000000    2.812751830e-01   -6.790508628e-01
     5154000000    5.032862425e-01   -5.283975601e-01
     5157000000    6.643081903e-01   -3.067921698e-01
     5160000000    7.313647866e-01   -4.554443806e-02
     5163000000    6.967897415e-01    2.152513415e-01
     5166000000    5.684070587e-01    4.642788768e-01
     5169000000    3.668242097e-01    6.422141790e-01
     5172000000    9.936486930e-02    7.294980288e-01
     5175000000   -1.590131968e-01    7.117345929e-01
     5178000000   -4.012853205e-01    6.084094644e-01
     5181000000   -6.144974828e-01    4.068680704e-01
     5184000000   -7.114031911e-01    1.748034507e-01
     5187000000   -7.274626493e-01   -1.206095442e-01
     5190000000   -6.382893920e-01   -3.434527814e-01
     5193000000   -4.632492661e-01   -5.707353354e-01
     5196000000   -2.234523594e-01   -7.004907727e-01
     5199000000    3.727285564e-02   -7.293997407e-01
     5202000000    3.071093559e-01   -6.658300757e-01
     5205000000    5.292172432e-01   -5.078803301e-01
     5208000000    6.741820574e-01   -2.831683457e-01
     5211000000    7.339217067e-01   -1.124776062e-02
     5214000000    6.904197931e-01    2.494799048e-01
     5217000000    5.492573977e-01    4.879600406e-01
     5220000000    3.390454054e-01    6.535375714e-01
     5223000000    7.407808304e-02    7.306812406e-01
     5226000000   -1.933474094e-01    7.083641887e-01
     5229000000   -4.359396994e-01    5.889149308e-01
     5232000000   -6.206238270e-01    3.908725679e-01
     5235000000   -7.196043134e-01    1.414097548e-01
     5238000000   -7.232264280e-01   -1.454374492e-01
     5241000000   -6.235120893e-01   -3.841124475e-01
     5244000000   -4.396687448e-01   -5.875820518e-01
     5247000000   -2.031165510e-01   -6.981990933e-01
     5250000000    6.867123395e-02   -7.280164957e-01
     5253000000    3.156194687e-01   -6.543631554e-01
     5256000000    5.417551994e-01   -4.942536950e-01
     5259000000    6.833158135e-01   -2.566689849e-01
     5262000000    7.260097861e-01    5.895710085e-03
     5265000000    6.707492471e-01    2.809673548e-01
     5268000000    5.319399238e-01    4.924362898e-01
     5271000000    2.973298728e-01    6.684650183e-01
     5274000000    5.261873081e-02    7.211888433e-01
     5277000000   -1.934763491e-01    6.954978108e-01
     5280000000   -4.718840718e-01    5.583382249e-01
     5283000000   -6.222933531e-01    3.667312860e-01
     5286000000   -7.171232104e-01    1.069907323e-01
     5289000000   -7.095553279e-01   -1.579640061e-01
     5292000000   -6.041964293e-01   -3.993095458e-01
     5295000000   -4.122362137e-01   -5.915741324e-01
     5298000000   -1.723088771e-01   -7.026475668e-01
     5301000000    9.542557597e-02   -7.176055312e-01
     5304000000    3.501254022e-01   -6.318981647e-01
     5307000000    5.589607358e-01   -4.580461681e-01
     5310000000    6.821578741e-01   -2.272050977e-01
     5313000000    7.229779363e-01    4.335239530e-02
     5316000000    6.563718319e-01    2.916573584e-01
     5319000000    5.042552948e-01    5.082095265e-01
     5322000000    2.801244557e-01    6.620989442e-01
     5325000000    2.211454138e-02    7.156966329e-01
     5328000000   -2.440889180e-01    6.736820340e-01
     5331000000   -4.556502998e-01    5.438390970e-01
     5334000000   -6.311293840e-01    3.346589208e-01
     5337000000   -7.088110447e-01    7.636065781e-02
     5340000000   -6.917941570e-01   -1.908359677e-01
     5343000000   -5.693039894e-01   -4.337112606e-01
     5346000000   -3.830060959e-01   -6.009950638e-01
     5349000000   -1.354176253e-01   -6.976434588e-01
     5352000000    1.436523497e-01   -6.978996396e-01
     5355000000    3.577668667e-01   -6.122493148e-01
     5358000000    5.702931881e-01   -4.264446497e-01
     5361000000    6.907129884e-01   -1.827589869e-01
     5364000000    7.039617300e-01    6.959798932e-02
     5367000000    6.242352128e-01    3.423635960e-01
     5370000000    4.645113349e-01    5.444956422e-01
     5373000000    2.592265606e-01    6.612994671e-01
     5376000000   -1.001319103e-02    7.070033550e-01
     5379000000   -2.822786868e-01    6.498154998e-01
     5382000000   -5.116535425e-01    4.957747161e-01
     5385000000   -6.476798654e-01    2.903309762e-01
     5388000000   -7.048059106e-01    5.934575945e-02
     5391000000   -6.727666259e-01   -2.241237015e-01
     5394000000   -5.472617149e-01   -4.482158124e-01
     5397000000   -3.502682447e-01   -6.079394221e-01
     5400000000   -1.061550751e-01   -6.945213675e-01
     5403000000    1.737383455e-01   -6.842771769e-01
     5406000000    3.979591429e-01   -5.785490870e-01
     5409000000    5.784333348e-01   -3.949525952e-01
     5412000000    6.839504242e-01   -1.453514993e-01
     5415000000    6.906702518e-01    9.734789282e-02
     5418000000    5.938134193e-01    3.613808155e-01
     5421000000    4.275645316e-01    5.463461876e-01
     5424000000    1.971317083e-01    6.698018909e-01
     5427000000   -4.749600589e-02    6.872591972e-01
     5430000000   -3.003826737e-01    6.244634390e-01
     5433000000   -5.052924156e-01    4.690164030e-01
     5436000000   -6.446781158e-01    2.440456003e-01
     5439000000   -6.856304407e-01    1.946357894e-03
     5442000000   -6.414504051e-01   -2.495522797e-01
     5445000000   -4.974708855e-01   -4.788043499e-01
     5448000000   -2.981717885e-01   -6.190614700e-01
     5451000000   -8.314311504e-02   -6.821801066e-01
     5454000000    2.090110183e-01   -6.505028009e-01
     5457000000    4.311043918e-01   -5.267286301e-01
     5460000000    5.899680853e-01   -3.415302932e-01
     5463000000    6.726612449e-01   -1.368946582e-01
     5466000000    6.621391773e-01    1.542759240e-01
     5469000000    5.721986890e-01    3.734733760e-01
     5472000000    3.932828307e-01    5.552996397e-01
     5475000000    1.607301086e-01    6.595020294e-01
     5478000000   -9.731108695e-02    6.705584526e-01
     5481000000   -3.333674371e-01    5.881146193e-01
     5484000000   -5.102314949e-01    4.486181140e-01
     5487000000   -6.413232684e-01    1.963512897e-01
     5490000000   -6.701278687e-01   -4.101034999e-02
     5493000000   -6.110600829e-01   -2.770757377e-01
     5496000000   -4.628263712e-01   -4.821336865e-01
     5499000000   -2.420790195e-01   -6.176270843e-01
     5502000000   -9.931521490e-03   -6.686915755e-01
     5505000000    2.292969972e-01   -6.302236319e-01
     5508000000    4.448058307e-01   -4.977806509e-01
     5511000000    5.951697230e-01   -3.025409579e-01
     5514000000    6.599425673e-01   -6.575015932e-02
     5517000000    6.365360618e-01    1.895069182e-01
     5520000000    5.405893922e-01    3.862757385e-01
     5523000000    3.446630836e-01    5.642208457e-01
     5526000000    1.222172678e-01    6.493079066e-01
     5529000000   -1.424207091e-01    6.391521096e-01
     5532000000   -3.627537191e-01    5.489355922e-01
     5535000000   -5.258035064e-01    4.005608559e-01
     5538000000   -6.378394365e-01    1.537490636e-01
     5541000000   -6.519674063e-01   -8.499433100e-02
     5544000000   -5.877106786e-01   -3.000792563e-01
     5547000000   -4.269891977e-01   -4.967485368e-01
     5550000000   -2.147262990e-01   -6.195824146e-01
     5553000000    3.864630684e-02   -6.483048201e-01
     5556000000    2.672901154e-01   -5.931563377e-01
     5559000000    4.632391334e-01   -4.494630098e-01
     5562000000    5.955068469e-01   -2.640520036e-01
     5565000000    6.485081911e-01   -2.309557050e-02
     5568000000    5.987633467e-01    2.279540151e-01
     5571000000    4.867988527e-01    4.219068587e-01
     5574000000    3.095839322e-01    5.702047944e-01
     5577000000    4.940222576e-02    6.378553510e-01
     5580000000   -1.775427908e-01    6.148598790e-01
     5583000000   -3.811907470e-01    5.183787942e-01
     5586000000   -5.423654318e-01    3.407104313e-01
     5589000000   -6.328145862e-01    1.286312789e-01
     5592000000   -6.244605780e-01   -1.290575415e-01
     5595000000   -5.488690138e-01   -3.366703689e-01
     5598000000   -3.816701174e-01   -5.166826248e-01
     5601000000   -1.736167818e-01   -6.185978651e-01
     5604000000    8.092303574e-02   -6.333323121e-01
     5607000000    2.939074039e-01   -5.688461661e-01
     5610000000    4.851906300e-01   -4.134467840e-01
     5613000000    6.030681133e-01   -2.179589123e-01
     5616000000    6.291438341e-01    3.079202212e-02
     5619000000    5.913058519e-01    2.442561239e-01
     5622000000    4.497931302e-01    4.463970959e-01
     5625000000    2.475646734e-01    5.779475570e-01
     5628000000    3.473321348e-02    6.393653154e-01
     5631000000   -2.137323320e-01    5.900565386e-01
     5634000000   -4.082984626e-01    4.855214357e-01
     5637000000   -5.580719113e-01    2.964918613e-01
     5640000000   -6.313746572e-01    7.893641293e-02
     5643000000   -6.116392612e-01   -1.578461677e-01
     5646000000   -5.050851703e-01   -3.738627434e-01
     5649000000   -3.413332701e-01   -5.283930302e-01
     5652000000   -1.489024609e-01   -6.245626211e-01
     5655000000    1.017845646e-01   -6.254450083e-01
     5658000000    3.268468082e-01   -5.326794386e-01
     5661000000    4.976183176e-01   -3.810878098e-01
     5664000000    6.008659005e-01   -1.668395847e-01
     5667000000    6.297516227e-01    4.842019454e-02
     5670000000    5.553136468e-01    2.822394371e-01
     5673000000    4.298980236e-01    4.638512433e-01
     5676000000    2.172129154e-01    5.847232938e-01
     5679000000    6.894871476e-04    6.300058961e-01
     5682000000   -2.332355827e-01    5.794169307e-01
     5685000000   -4.236792624e-01    4.621953964e-01
     5688000000   -5.617550611e-01    2.773526907e-01
     5691000000   -6.187283993e-01    4.174198210e-02
     5694000000   -5.990294814e-01   -1.818136871e-01
     5697000000   -4.786755145e-01   -3.890056610e-01
     5700000000   -3.169853687e-01   -5.387780070e-01
     5703000000   -9.726883471e-02   -6.179384589e-01
     5706000000    1.398768276e-01   -6.047211885e-01
     5709000000    3.465962112e-01   -5.182887316e-01
     5712000000    5.091134310e-01   -3.455876410e-01
     5715000000    6.054758430e-01   -1.506897807e-01
     5718000000    6.155665517e-01    8.468216658e-02
     5721000000    5.419111252e-01    2.996200919e-01
     5724000000    3.891521990e-01    4.785376787e-01
     5727000000    1.968060881e-01    5.883991718e-01
     5730000000   -3.491981700e-02    6.188872457e-01
     5733000000   -2.584830225e-01    5.594624281e-01
     5736000000   -4.440086186e-01    4.338785708e-01
     5739000000   -5.673079491e-01    2.386056632e-01
     5742000000   -6.173071861e-01    1.942842267e-02
     5745000000   -5.797437429e-01   -2.077829987e-01
     5748000000   -4.567330182e-01   -3.999139667e-01
     5751000000   -2.926222980e-01   -5.460789204e-01
     5754000000   -6.551434845e-02   -6.014137268e-01
     5757000000    1.551101506e-01   -5.954003930e-01
     5760000000    3.634365201e-01   -4.897167981e-01
     5763000000    5.130624771e-01   -3.252086043e-01
     5766000000    5.926883221e-01   -1.097894460e-01
     5769000000    6.051519513e-01    1.067855284e-01
     5772000000    5.199463367e-01    3.205021322e-01
     5775000000    3.625735939e-01    4.866586030e-01
     5778000000    1.649278104e-01    5.831634402e-01
     5781000000   -5.635292828e-02    6.045259237e-01
     5784000000   -2.743758559e-01    5.475800037e-01
     5787000000   -4.517002702e-01    4.051320255e-01
     5790000000   -5.702025890e-01    2.131041884e-01
     5793000000   -6.070891023e-01   -6.330409553e-03
     5796000000   -5.621852279e-01   -2.283060402e-01
     5799000000   -4.366972148e-01   -4.158568680e-01
     5802000000   -2.581090927e-01   -5.461736321e-01
     5805000000   -4.349521920e-02   -6.052187085e-01
     5808000000    1.791431308e-01   -5.755799413e-01
     5811000000    3.746267855e-01   -4.727168679e-01
     5814000000    5.194189548e-01   -3.044403195e-01
     5817000000    5.926452279e-01   -9.236484021e-02
     5820000000    5.843721032e-01    1.298179775e-01
     5823000000    4.956609309e-01    3.329732120e-01
     5826000000    3.401283324e-01    4.902476370e-01
     5829000000    1.401003152e-01    5.792583227e-01
     5832000000   -8.206093311e-02    5.916128755e-01
     5835000000   -2.907842100e-01    5.170999765e-01
     5838000000   -4.608533084e-01    3.817673028e-01
     5841000000   -5.623444319e-01    1.833950877e-01
     5844000000   -5.964536667e-01   -3.217680380e-02
     5847000000   -5.405306816e-01   -2.457728982e-01
     5850000000   -4.162544608e-01   -4.262218773e-01
     5853000000   -2.294387668e-01   -5.468313098e-01
     5856000000   -1.781615987e-02   -5.916437507e-01
     5859000000    1.987615526e-01   -5.633264184e-01
     5862000000    3.875535131e-01   -4.494386017e-01
     5865000000    5.222996473e-01   -2.773979902e-01
     5868000000    5.895258784e-01   -6.789874285e-02
     5871000000    5.685729980e-01    1.493304819e-01
     5874000000    4.805147052e-01    3.464403749e-01
     5877000000    3.163063526e-01    4.956281185e-01
     5880000000    1.178506166e-01    5.772846937e-01
     5883000000   -9.857679158e-02    5.792269111e-01
     5886000000   -3.032452762e-01    4.988579154e-01
     5889000000   -4.647874236e-01    3.568198979e-01
     5892000000   -5.602840781e-01    1.614149660e-01
     5895000000   -5.856858492e-01   -5.024868995e-02
     5898000000   -5.169261694e-01   -2.555470467e-01
     5901000000   -3.920769393e-01   -4.298858643e-01
     5904000000   -2.054575533e-01   -5.452967286e-01
     5907000000    6.382132880e-03   -5.781280398e-01
     5910000000    2.156937420e-01   -5.426563621e-01
     5913000000    3.967421353e-01   -4.217348099e-01
     5916000000    5.245503187e-01   -2.560110390e-01
     5919000000    5.774667859e-01   -4.317014664e-02
     5922000000    5.562068820e-01    1.695370823e-01
     5925000000    4.572866261e-01    3.573542535e-01
     5928000000    2.986446321e-01    4.983544350e-01
     5931000000    9.722741693e-02    5.717953444e-01
     5934000000   -1.203037649e-01    5.658019185e-01
     5937000000   -3.154206872e-01    4.828575253e-01
     5940000000   -4.677310288e-01    3.366835713e-01
     5943000000   -5.576123595e-01    1.388481855e-01
     5946000000   -5.718356967e-01   -6.766231358e-02
     5949000000   -5.052506924e-01   -2.715948224e-01
     5952000000   -3.725231588e-01   -4.364618063e-01
     5955000000   -1.936659068e-01   -5.409130454e-01
     5958000000    2.042806894e-02   -5.720641017e-01
     5961000000    2.274872959e-01   -5.244750381e-01
     5964000000    4.007627070e-01   -4.100783169e-01
     5967000000    5.213301182e-01   -2.341495752e-01
     5970000000    5.702350140e-01   -3.361224011e-02
     5973000000    5.440968275e-01    1.755437255e-01
     5976000000    4.379383624e-01    3.618044257e-01
     5979000000    2.757938504e-01    4.945074618e-01
     5982000000    8.065778762e-02    5.622361302e-01
     5985000000   -1.295143813e-01    5.519355536e-01
     5988000000   -3.192355931e-01    4.686302543e-01
     5991000000   -4.647259712e-01    3.191810846e-01
     5994000000   -5.481029153e-01    1.301000416e-01
     5997000000   -5.577687025e-01   -7.732817531e-02
     6000000000   -4.936672151e-01   -2.712335587e-01
