! NanoVNA-App
! Date: 2026-05-22 18:58:33
! Start: 4.8GHz Stop: 6GHz Points: 401
! S-Parameter data: F S11
# Hz S RI R 50
!     Frequency           S11_Real           S11_Imag
     4800000000   -4.867245555e-01    4.774171710e-01
     4803000000   -6.286486983e-01    2.677645981e-01
     4806000000   -6.818873286e-01    1.621310599e-02
     4809000000   -6.404210925e-01   -2.304731905e-01
     4812000000   -5.129836202e-01   -4.520710111e-01
     4815000000   -3.100811541e-01   -6.102596521e-01
     4818000000   -6.910037994e-02   -6.797712445e-01
     4821000000    1.882336885e-01   -6.551620364e-01
     4824000000    4.150390327e-01   -5.404915810e-01
     4827000000    5.864688158e-01   -3.486726582e-01
     4830000000    6.705436707e-01   -1.144409254e-01
     4833000000    6.660208702e-01    1.407412142e-01
     4836000000    5.671361685e-01    3.777839839e-01
     4839000000    3.906733990e-01    5.583146811e-01
     4842000000    1.574526429e-01    6.643671989e-01
     4845000000   -9.088629484e-02    6.777301431e-01
     4848000000   -3.344657719e-01    5.955345035e-01
     4851000000   -5.293623209e-01    4.287597835e-01
     4854000000   -6.486076713e-01    2.090014070e-01
     4857000000   -6.810520291e-01   -4.454113543e-02
     4860000000   -6.145901084e-01   -2.937835157e-01
     4863000000   -4.630696476e-01   -5.004352927e-01
     4866000000   -2.573728561e-01   -6.298329234e-01
     4869000000    7.739468012e-03   -6.836266518e-01
     4872000000    2.330198437e-01   -6.405475140e-01
     4875000000    4.654144645e-01   -4.971524477e-01
     4878000000    6.124618649e-01   -3.089797795e-01
     4881000000    6.796193719e-01   -4.089178517e-02
     4884000000    6.542274356e-01    1.867146641e-01
     4887000000    5.291132927e-01    4.281650782e-01
     4890000000    3.427584767e-01    5.893707275e-01
     4893000000    1.010782942e-01    6.730822325e-01
     4896000000   -1.538259685e-01    6.616725922e-01
     4899000000   -3.832643628e-01    5.592584014e-01
     4902000000   -5.622665286e-01    3.808914125e-01
     4905000000   -6.631415486e-01    1.503621191e-01
     4908000000   -6.716781855e-01   -1.071918458e-01
     4911000000   -5.857051015e-01   -3.448188007e-01
     4914000000   -4.174072146e-01   -5.382763147e-01
     4917000000   -1.896303743e-01   -6.511334181e-01
     4920000000    6.463516504e-02   -6.763294935e-01
     4923000000    2.927168906e-01   -6.136908531e-01
     4926000000    5.071305037e-01   -4.523174167e-01
     4929000000    6.367076039e-01   -2.345815599e-01
     4932000000    6.796958447e-01   -6.387662143e-03
     4935000000    6.246975660e-01    2.610244751e-01
     4938000000    4.900536537e-01    4.694197178e-01
     4941000000    2.799162567e-01    6.168686152e-01
     4944000000    4.643386602e-02    6.790953279e-01
     4947000000   -1.944069266e-01    6.488026381e-01
     4950000000   -4.439544976e-01    5.137112141e-01
     4953000000   -5.924648643e-01    3.326708674e-01
     4956000000   -6.689398885e-01    9.564068168e-02
     4959000000   -6.575184464e-01   -1.604572386e-01
     4962000000   -5.482754707e-01   -3.914438784e-01
     4965000000   -3.687745035e-01   -5.630367398e-01
     4968000000   -1.387101561e-01   -6.595920920e-01
     4971000000    1.154544801e-01   -6.641219258e-01
     4974000000    3.507841229e-01   -5.732372999e-01
     4977000000    5.379068851e-01   -4.079414606e-01
     4980000000    6.491416097e-01   -1.805666834e-01
     4983000000    6.710372567e-01    7.037323713e-02
     4986000000    5.945765972e-01    3.153375983e-01
     4989000000    4.404504299e-01    5.100538731e-01
     4992000000    2.336297333e-01    6.339770555e-01
     4995000000   -1.967142522e-02    6.708391309e-01
     4998000000   -2.653428018e-01    6.158173680e-01
     5001000000   -4.815796614e-01    4.679180980e-01
     5004000000   -6.160612106e-01    2.744168341e-01
     5007000000   -6.702939272e-01    3.782065958e-02
     5010000000   -6.312932968e-01   -2.202912867e-01
     5013000000   -5.013198853e-01   -4.448613226e-01
     5016000000   -3.054129481e-01   -5.954256058e-01
     5019000000   -7.966724783e-02   -6.697411537e-01
     5022000000    1.783320904e-01   -6.448106170e-01
     5025000000    4.023512602e-01   -5.367031097e-01
     5028000000    5.689288974e-01   -3.557628989e-01
     5031000000    6.564984322e-01   -1.215649545e-01
     5034000000    6.563857198e-01    1.321492791e-01
     5037000000    5.636114478e-01    3.608176708e-01
     5040000000    3.918637633e-01    5.419944525e-01
     5043000000    1.716777235e-01    6.471182108e-01
     5046000000   -8.687426895e-02    6.618896723e-01
     5049000000   -3.144084513e-01    5.911405087e-01
     5052000000   -5.160562992e-01    4.211486578e-01
     5055000000   -6.349682212e-01    2.111739516e-01
     5058000000   -6.711035967e-01   -3.677467257e-02
     5061000000   -6.051020622e-01   -2.820620537e-01
     5064000000   -4.623752832e-01   -4.825305045e-01
     5067000000   -2.556583285e-01   -6.176040769e-01
     5070000000   -1.012829971e-02   -6.691524982e-01
     5073000000    2.337449342e-01   -6.247940660e-01
     5076000000    4.479171634e-01   -4.965257049e-01
     5079000000    5.985968709e-01   -3.049044311e-01
     5082000000    6.641727090e-01   -5.750770494e-02
     5085000000    6.416184902e-01    1.877794415e-01
     5088000000    5.300702453e-01    4.079329371e-01
     5091000000    3.408518136e-01    5.740377903e-01
     5094000000    1.098074242e-01    6.594049335e-01
     5097000000   -1.433344483e-01    6.534069180e-01
     5100000000   -3.652473390e-01    5.644134283e-01
     5103000000   -5.477164984e-01    3.810797334e-01
     5106000000   -6.462156773e-01    1.554406136e-01
     5109000000   -6.649819613e-01   -8.587417006e-02
     5112000000   -5.889530182e-01   -3.189663887e-01
     5115000000   -4.213867188e-01   -5.132365823e-01
     5118000000   -2.001032531e-01   -6.300389767e-01
     5121000000    3.782952949e-02   -6.633918881e-01
     5124000000    2.767757773e-01   -6.064938903e-01
     5127000000    4.825504720e-01   -4.574323893e-01
     5130000000    6.140092015e-01   -2.503651977e-01
     5133000000    6.604858637e-01   -4.961307161e-03
     5136000000    6.283667684e-01    2.254125029e-01
     5139000000    4.938421249e-01    4.453548789e-01
     5142000000    2.926669717e-01    5.905989408e-01
     5145000000    5.851803720e-02    6.597186327e-01
     5148000000   -1.863595545e-01    6.351981759e-01
     5151000000   -4.019553363e-01    5.227396488e-01
     5154000000   -5.636309385e-01    3.372829854e-01
     5157000000   -6.487735510e-01    1.078589931e-01
     5160000000   -6.403486133e-01   -1.374733746e-01
     5163000000   -5.477977395e-01   -3.595323861e-01
     5166000000   -3.772808611e-01   -5.364293456e-01
     5169000000   -1.631722301e-01   -6.376361251e-01
     5172000000    9.195915610e-02   -6.471289992e-01
     5175000000    3.236427903e-01   -5.677317381e-01
     5178000000    5.080885887e-01   -4.147866070e-01
     5181000000    6.207600236e-01   -2.003721446e-01
     5184000000    6.536722779e-01    3.340418264e-02
     5187000000    5.841677189e-01    2.784432769e-01
     5190000000    4.487323165e-01    4.747856557e-01
     5193000000    2.422157228e-01    5.987586975e-01
     5196000000    1.114925835e-02    6.483786702e-01
     5199000000   -2.328404933e-01    6.081264615e-01
     5202000000   -4.351529181e-01    4.758193791e-01
     5205000000   -5.814988613e-01    2.883614004e-01
     5208000000   -6.463021040e-01    5.571303144e-02
     5211000000   -6.226457357e-01   -1.842188686e-01
     5214000000   -5.140157938e-01   -3.986157775e-01
     5217000000   -3.320716023e-01   -5.577374101e-01
     5220000000   -1.039073169e-01   -6.383374929e-01
     5223000000    1.358029246e-01   -6.325001717e-01
     5226000000    3.561769724e-01   -5.423573852e-01
     5229000000    5.289179087e-01   -3.713566363e-01
     5232000000    6.277713180e-01   -1.543463618e-01
     5235000000    6.392411590e-01    8.526689559e-02
     5238000000    5.614309311e-01    3.153880537e-01
     5241000000    4.092551172e-01    4.959115982e-01
     5244000000    1.962312013e-01    6.120339632e-01
     5247000000   -3.327930719e-02    6.481187344e-01
     5250000000   -2.709896564e-01    5.822430849e-01
     5253000000   -4.642284811e-01    4.453496933e-01
     5256000000   -5.940480828e-01    2.526736557e-01
     5259000000   -6.435536742e-01    1.798572764e-02
     5262000000   -5.992780328e-01   -2.230360359e-01
     5265000000   -4.814531207e-01   -4.246433079e-01
     5268000000   -2.944237888e-01   -5.646270514e-01
     5271000000   -6.581649184e-02   -6.371497512e-01
     5274000000    1.728141755e-01   -6.148281693e-01
     5277000000    3.814540505e-01   -5.065566301e-01
     5280000000    5.410270691e-01   -3.339082003e-01
     5283000000    6.282709241e-01   -1.139187217e-01
     5286000000    6.219689250e-01    1.253730208e-01
     5289000000    5.327375531e-01    3.408272862e-01
     5292000000    3.733029366e-01    5.123145580e-01
     5295000000    1.597986072e-01    6.131808162e-01
     5298000000   -7.429336011e-02    6.280293465e-01
     5301000000   -2.975912094e-01    5.551550388e-01
     5304000000   -4.801055491e-01    4.093247354e-01
     5307000000   -5.949680209e-01    2.030294240e-01
     5310000000   -6.274827719e-01   -2.795627154e-02
     5313000000   -5.745488405e-01   -2.551670671e-01
     5316000000   -4.409630001e-01   -4.487528503e-01
     5319000000   -2.452832311e-01   -5.777494907e-01
     5322000000   -2.020109072e-02   -6.274609566e-01
     5325000000    2.097705305e-01   -5.904411674e-01
     5328000000    4.118011594e-01   -4.723184705e-01
     5331000000    5.558601618e-01   -2.873932421e-01
     5334000000    6.228181124e-01   -6.688328832e-02
     5337000000    6.039109230e-01    1.640534550e-01
     5340000000    5.009004474e-01    3.724697232e-01
     5343000000    3.319091499e-01    5.302343965e-01
     5346000000    1.140556633e-01    6.135810018e-01
     5349000000   -1.165264696e-01    6.110721231e-01
     5352000000   -3.317401111e-01    5.226085782e-01
     5355000000   -5.005316138e-01    3.709201217e-01
     5358000000   -5.995190740e-01    1.563614458e-01
     5361000000   -6.200225353e-01   -7.458493859e-02
     5364000000   -5.482887030e-01   -2.919474840e-01
     5367000000   -4.043884277e-01   -4.705782533e-01
     5370000000   -2.066934407e-01   -5.867395997e-01
     5373000000    2.132126875e-02   -6.225445867e-01
     5376000000    2.433561534e-01   -5.727450848e-01
     5379000000    4.409913123e-01   -4.398737848e-01
     5382000000    5.675954223e-01   -2.517112792e-01
     5385000000    6.132282019e-01   -3.132307529e-02
     5388000000    5.863504410e-01    1.961664110e-01
     5391000000    4.723955095e-01    3.966924548e-01
     5394000000    2.964662611e-01    5.387224555e-01
     5397000000    7.948224247e-02    6.099547148e-01
     5400000000   -1.490045488e-01    5.937540531e-01
     5403000000   -3.497886956e-01    5.010067225e-01
     5406000000   -5.130470395e-01    3.372834325e-01
     5409000000   -6.006945372e-01    1.256372780e-01
     5412000000   -6.041098833e-01   -1.019164398e-01
     5415000000   -5.250591636e-01   -3.138224185e-01
     5418000000   -3.743195534e-01   -4.817989171e-01
     5421000000   -1.715352982e-01   -5.838581324e-01
     5424000000    5.001192912e-02   -6.035895348e-01
     5427000000    2.672834396e-01   -5.430669188e-01
     5430000000    4.485370219e-01   -4.059933126e-01
     5433000000    5.657406449e-01   -2.118504643e-01
     5436000000    6.041876078e-01    8.498948067e-03
     5439000000    5.576050878e-01    2.306210846e-01
     5442000000    4.375160933e-01    4.156889319e-01
     5445000000    2.546797097e-01    5.459949374e-01
     5448000000    4.215233400e-02    5.996858478e-01
     5451000000   -1.773141176e-01    5.737521052e-01
     5454000000   -3.732872307e-01    4.669421613e-01
     5457000000   -5.179438591e-01    2.978342772e-01
     5460000000   -5.886024833e-01    8.832465112e-02
     5463000000   -5.784339309e-01   -1.317365170e-01
     5466000000   -4.892176688e-01   -3.354620934e-01
     5469000000   -3.309710324e-01   -4.893763363e-01
     5472000000   -1.283121407e-01   -5.782791376e-01
     5475000000    8.971822262e-02   -5.831285715e-01
     5478000000    2.968228757e-01   -5.116563439e-01
     5481000000    4.622428119e-01   -3.684948385e-01
     5484000000    5.652516484e-01   -1.715659946e-01
     5487000000    5.895606279e-01    4.229658842e-02
     5490000000    5.303469300e-01    2.557485104e-01
     5493000000    4.023195505e-01    4.323160350e-01
     5496000000    2.215640992e-01    5.467841029e-01
     5499000000    4.555656109e-03    5.864685178e-01
     5502000000   -2.095922679e-01    5.484491587e-01
     5505000000   -3.941812217e-01    4.336797297e-01
     5508000000   -5.265386105e-01    2.588769197e-01
     5511000000   -5.851386786e-01    4.916206747e-02
     5514000000   -5.612730384e-01   -1.641194820e-01
     5517000000   -4.602783620e-01   -3.624351621e-01
     5520000000   -2.965024412e-01   -5.065116286e-01
     5523000000   -9.404731542e-02   -5.768044591e-01
     5526000000    1.209525317e-01   -5.707243681e-01
     5529000000    3.217356801e-01   -4.869779646e-01
     5532000000    4.791511297e-01   -3.343604207e-01
     5535000000    5.619764328e-01   -1.420501769e-01
     5538000000    5.789821744e-01    7.193268836e-02
     5541000000    5.114600062e-01    2.789640725e-01
     5544000000    3.767751753e-01    4.466179311e-01
     5547000000    1.879174560e-01    5.528512597e-01
     5550000000   -2.242414281e-02    5.713868141e-01
     5553000000   -2.358788997e-01    5.338616967e-01
     5556000000   -4.132576287e-01    4.086275101e-01
     5559000000   -5.258042216e-01    2.319215238e-01
     5562000000   -5.776026845e-01    2.241442353e-02
     5565000000   -5.453620553e-01   -1.893501580e-01
     5568000000   -4.366600215e-01   -3.696508408e-01
     5571000000   -2.701054811e-01   -5.052595139e-01
     5574000000   -7.029575855e-02   -5.659027100e-01
     5577000000    1.478656530e-01   -5.554229021e-01
     5580000000    3.317742348e-01   -4.604434073e-01
     5583000000    4.831415415e-01   -3.076018989e-01
     5586000000    5.565951467e-01   -1.136507019e-01
     5589000000    5.640196204e-01    1.018975526e-01
     5592000000    4.857886136e-01    2.973485589e-01
     5595000000    3.469760120e-01    4.534637332e-01
     5598000000    1.569042355e-01    5.510363579e-01
     5601000000   -5.296194181e-02    5.625380278e-01
     5604000000   -2.542193234e-01    5.069757104e-01
     5607000000   -4.215798378e-01    3.824657500e-01
     5610000000   -5.302538872e-01    2.026072592e-01
     5613000000   -5.676882267e-01   -8.508116007e-03
     5616000000   -5.238710046e-01   -2.081620991e-01
     5619000000   -4.129449129e-01   -3.921146989e-01
     5622000000   -2.450911403e-01   -5.064310431e-01
     5625000000   -4.314198717e-02   -5.639974475e-01
     5628000000    1.663221568e-01   -5.371851325e-01
     5631000000    3.476258814e-01   -4.435510337e-01
     5634000000    4.851939678e-01   -2.844808698e-01
     5637000000    5.521507859e-01   -8.437364548e-02
     5640000000    5.533182621e-01    1.280582398e-01
     5643000000    4.627837539e-01    2.987995446e-01
     5646000000    3.196903169e-01    4.703986943e-01
     5649000000    1.356212795e-01    5.389083028e-01
     5652000000   -7.674817741e-02    5.629813075e-01
     5655000000   -2.683513761e-01    4.888848364e-01
     5658000000   -4.246574342e-01    3.567594886e-01
     5661000000   -5.271184444e-01    1.815650016e-01
     5664000000   -5.564872026e-01   -2.416457608e-02
     5667000000   -5.136380792e-01   -2.278045416e-01
     5670000000   -3.922539949e-01   -3.905811608e-01
     5673000000   -2.225923836e-01   -5.052350760e-01
     5676000000   -2.182084695e-02   -5.535296798e-01
     5679000000    1.832347959e-01   -5.237075090e-01
     5682000000    3.560861945e-01   -4.179117382e-01
     5685000000    4.883444011e-01   -2.601517439e-01
     5688000000    5.442315340e-01   -7.148153335e-02
     5691000000    5.361818075e-01    1.415876299e-01
     5694000000    4.474020600e-01    3.262847960e-01
     5697000000    3.017400801e-01    4.549451172e-01
     5700000000    1.088498607e-01    5.451069474e-01
     5703000000   -8.878331631e-02    5.405023098e-01
     5706000000   -2.705105841e-01    4.686625600e-01
     5709000000   -4.341869056e-01    3.380536437e-01
     5712000000   -5.213665366e-01    1.591300517e-01
     5715000000   -5.508110523e-01   -4.909191281e-02
     5718000000   -4.861318171e-01   -2.367317379e-01
     5721000000   -3.669065833e-01   -4.009672403e-01
     5724000000   -1.937612593e-01   -5.135537982e-01
     5727000000   -3.332568798e-03   -5.394359231e-01
     5730000000    1.977982074e-01   -5.064076781e-01
     5733000000    3.674523830e-01   -3.988964260e-01
     5736000000    4.847784638e-01   -2.380811870e-01
     5739000000    5.417047143e-01   -4.619849101e-02
     5742000000    5.193091631e-01    1.546753943e-01
     5745000000    4.269682169e-01    3.323456943e-01
     5748000000    2.782984078e-01    4.682290256e-01
     5751000000    9.634955227e-02    5.247579813e-01
     5754000000   -1.208315790e-01    5.339672565e-01
     5757000000   -2.838445902e-01    4.501381516e-01
     5760000000   -4.447726607e-01    3.082767427e-01
     5763000000   -5.273286104e-01    1.288147420e-01
     5766000000   -5.352199674e-01   -6.690555811e-02
     5769000000   -4.694519937e-01   -2.491094172e-01
     5772000000   -3.451814651e-01   -4.087556601e-01
     5775000000   -1.755915433e-01   -5.020840764e-01
     5778000000    1.420474797e-02   -5.307793021e-01
     5781000000    2.225150764e-01   -4.928033054e-01
     5784000000    3.660955131e-01   -3.804809749e-01
     5787000000    4.956960678e-01   -2.108765393e-01
     5790000000    5.262718797e-01   -2.970731817e-02
     5793000000    5.044919252e-01    1.809310466e-01
     5796000000    4.086545706e-01    3.285601139e-01
     5799000000    2.525136471e-01    4.643543065e-01
     5802000000    6.935562938e-02    5.195413232e-01
     5805000000   -1.205945089e-01    5.082699656e-01
     5808000000   -3.137149811e-01    4.292229116e-01
     5811000000   -4.337543249e-01    2.923684716e-01
     5814000000   -5.205010772e-01    1.056257933e-01
     5817000000   -5.180329084e-01   -8.419644833e-02
     5820000000   -4.521025419e-01   -2.594871819e-01
     5823000000   -3.288591802e-01   -3.966797590e-01
     5826000000   -1.497988701e-01   -5.000952482e-01
     5829000000    4.116899893e-02   -5.190501213e-01
     5832000000    2.143168598e-01   -4.673061073e-01
     5835000000    3.663884997e-01   -3.546546400e-01
     5838000000    4.803115129e-01   -1.893154085e-01
     5841000000    5.158361793e-01   -4.282138616e-05
     5844000000    4.807482362e-01    1.826941371e-01
     5847000000    3.771662116e-01    3.517000675e-01
     5850000000    2.246903777e-01    4.620749056e-01
     5853000000    4.623665661e-02    5.097935796e-01
     5856000000   -1.426553130e-01    4.909554720e-01
     5859000000   -3.129587471e-01    4.028503597e-01
     5862000000   -4.321605861e-01    2.684274912e-01
     5865000000   -4.949678779e-01    9.526401013e-02
     5868000000   -4.954051673e-01   -1.001852304e-01
     5871000000   -4.283359647e-01   -2.665923536e-01
     5874000000   -2.963050008e-01   -4.069841206e-01
     5877000000   -1.298006177e-01   -4.817703664e-01
     5880000000    6.373689324e-02   -4.969625473e-01
     5883000000    2.370060533e-01   -4.380357563e-01
     5886000000    3.721434772e-01   -3.253372908e-01
     5889000000    4.774957299e-01   -1.475134939e-01
     5892000000    4.948152304e-01    2.361663245e-02
     5895000000    4.535665214e-01    1.991016865e-01
     5898000000    3.435530663e-01    3.580241799e-01
     5901000000    1.983701587e-01    4.529765546e-01
     5904000000    1.588344015e-02    4.918723404e-01
     5907000000   -1.564292163e-01    4.625925124e-01
     5910000000   -3.143451214e-01    3.766396046e-01
     5913000000   -4.304661751e-01    2.309397459e-01
     5916000000   -4.906630814e-01    4.965185001e-02
     5919000000   -4.753057957e-01   -9.743417054e-02
     5922000000   -3.918002248e-01   -2.960385382e-01
     5925000000   -2.626655698e-01   -4.112641215e-01
     5928000000   -9.251048416e-02   -4.786538482e-01
     5931000000    7.688356936e-02   -4.777041674e-01
     5934000000    2.488135397e-01   -4.164369702e-01
     5937000000    3.909028172e-01   -2.853527367e-01
     5940000000    4.571400881e-01   -1.472132206e-01
     5943000000    4.795839489e-01    5.509962887e-02
     5946000000    4.266413152e-01    2.226026654e-01
     5949000000    3.131622970e-01    3.673348129e-01
     5952000000    1.763150096e-01    4.445088208e-01
     5955000000   -1.336427964e-02    4.784428179e-01
     5958000000   -1.657208651e-01    4.456103146e-01
     5961000000   -3.125097454e-01    3.553201258e-01
     5964000000   -4.247880578e-01    2.029408514e-01
     5967000000   -4.692221880e-01    4.133370146e-02
     5970000000   -4.479123652e-01   -1.388439983e-01
     5973000000   -3.682528436e-01   -2.835325003e-01
     5976000000   -2.462250739e-01   -3.933390379e-01
     5979000000   -5.703227222e-02   -4.587937593e-01
     5982000000    8.358189464e-02   -4.514667690e-01
     5985000000    2.508741319e-01   -3.865299821e-01
     5988000000    3.645708263e-01   -2.778821588e-01
     5991000000    4.425958693e-01   -1.141836047e-01
     5994000000    4.494882822e-01    5.766247958e-02
     5997000000    3.990605175e-01    2.128175497e-01
     6000000000    2.852005959e-01    3.464669585e-01
