! NanoVNA-App
! Date: 2026-05-22 18:57:39
! Start: 2.3GHz Stop: 2.6GHz Points: 401
! S-Parameter data: F S11
# Hz S RI R 50
!     Frequency           S11_Real           S11_Imag
     2300000000    4.694306478e-02    4.387397170e-01
     2300750000    5.203580484e-03    4.410612881e-01
     2301500000   -3.393046930e-02    4.382322431e-01
     2302250000   -7.789482176e-02    4.346097112e-01
     2303000000   -1.183557510e-01    4.254511595e-01
     2303750000   -1.591829211e-01    4.122323394e-01
     2304500000   -1.953140199e-01    3.960475326e-01
     2305250000   -2.342340648e-01    3.760598004e-01
     2306000000   -2.681131363e-01    3.532629907e-01
     2306750000   -3.021696210e-01    3.252921104e-01
     2307500000   -3.291558623e-01    2.989701033e-01
     2308250000   -3.590804636e-01    2.646829486e-01
     2309000000   -3.802197278e-01    2.315870672e-01
     2309750000   -4.001668692e-01    1.952719688e-01
     2310500000   -4.186055362e-01    1.556686610e-01
     2311250000   -4.317997098e-01    1.159199998e-01
     2312000000   -4.410423636e-01    7.531242818e-02
     2312750000   -4.457840025e-01    3.629819676e-02
     2313500000   -4.472091794e-01   -6.478148047e-03
     2314250000   -4.455422163e-01   -4.679949209e-02
     2315000000   -4.389390349e-01   -8.793713897e-02
     2315750000   -4.276828468e-01   -1.300687194e-01
     2316500000   -4.123385251e-01   -1.715271622e-01
     2317250000   -3.943729699e-01   -2.060862482e-01
     2318000000   -3.732291758e-01   -2.407725602e-01
     2318750000   -3.478505313e-01   -2.759638131e-01
     2319500000   -3.188291788e-01   -3.089285791e-01
     2320250000   -2.917137444e-01   -3.323449790e-01
     2321000000   -2.572744191e-01   -3.578995466e-01
     2321750000   -2.203554213e-01   -3.834287524e-01
     2322500000   -1.849464923e-01   -3.996416032e-01
     2323250000   -1.475659758e-01   -4.131103754e-01
     2324000000   -1.066672355e-01   -4.238397479e-01
     2324750000   -6.518051028e-02   -4.320359230e-01
     2325500000   -2.625614405e-02   -4.336467087e-01
     2326250000    1.790815219e-02   -4.335400164e-01
     2327000000    6.034395099e-02   -4.296143949e-01
     2327750000    1.007325426e-01   -4.217272699e-01
     2328500000    1.418596804e-01   -4.097976387e-01
     2329250000    1.762836426e-01   -3.934020400e-01
     2330000000    2.152472287e-01   -3.739645779e-01
     2330750000    2.471535504e-01   -3.513456285e-01
     2331500000    2.799716890e-01   -3.257257938e-01
     2332250000    3.123212457e-01   -2.942806482e-01
     2333000000    3.380105793e-01   -2.643049359e-01
     2333750000    3.611403704e-01   -2.299583405e-01
     2334500000    3.800139725e-01   -1.951366961e-01
     2335250000    3.999141455e-01   -1.542973220e-01
     2336000000    4.121989608e-01   -1.149419844e-01
     2336750000    4.203539491e-01   -7.727712393e-02
     2337500000    4.262941480e-01   -3.505143523e-02
     2338250000    4.277603030e-01    5.160871428e-03
     2339000000    4.254464507e-01    4.701854661e-02
     2339750000    4.195519388e-01    8.834069967e-02
     2340500000    4.099562764e-01    1.288012415e-01
     2341250000    3.964712024e-01    1.642704606e-01
     2342000000    3.791233003e-01    2.033171356e-01
     2342750000    3.589357734e-01    2.380377501e-01
     2343500000    3.352166116e-01    2.709703445e-01
     2344250000    3.079934716e-01    3.024845421e-01
     2345000000    2.792807221e-01    3.302588165e-01
     2345750000    2.462081909e-01    3.548392355e-01
     2346500000    2.093689293e-01    3.794558048e-01
     2347250000    1.756340265e-01    3.954415619e-01
     2348000000    1.368926018e-01    4.104272723e-01
     2348750000    9.849265963e-02    4.207526445e-01
     2349500000    5.950601026e-02    4.272382855e-01
     2350250000    1.841137744e-02    4.298960268e-01
     2351000000   -2.411291562e-02    4.310903847e-01
     2351750000   -6.241461635e-02    4.267674387e-01
     2352500000   -1.049091071e-01    4.185982943e-01
     2353250000   -1.427096128e-01    4.060142934e-01
     2354000000   -1.833484024e-01    3.906848431e-01
     2354750000   -2.175201774e-01    3.709718883e-01
     2355500000   -2.487597167e-01    3.493382037e-01
     2356250000   -2.831625938e-01    3.227578104e-01
     2357000000   -3.090303242e-01    2.951931953e-01
     2357750000   -3.392736912e-01    2.619432509e-01
     2358500000   -3.591534495e-01    2.299415916e-01
     2359250000   -3.792074621e-01    1.940200329e-01
     2360000000   -3.946779370e-01    1.577576548e-01
     2360750000   -4.101084471e-01    1.164414063e-01
     2361500000   -4.194642305e-01    7.654400170e-02
     2362250000   -4.236712158e-01    3.825798258e-02
     2363000000   -4.249805808e-01   -3.461977467e-03
     2363750000   -4.218386710e-01   -4.225389287e-02
     2364500000   -4.165583551e-01   -8.698674291e-02
     2365250000   -4.062461257e-01   -1.231629625e-01
     2366000000   -3.924077153e-01   -1.619550884e-01
     2366750000   -3.749321103e-01   -1.996087879e-01
     2367500000   -3.544897139e-01   -2.337631136e-01
     2368250000   -3.307386935e-01   -2.676217854e-01
     2369000000   -3.036578298e-01   -2.983480394e-01
     2369750000   -2.746204734e-01   -3.251885474e-01
     2370500000   -2.417160124e-01   -3.495953381e-01
     2371250000   -2.073601782e-01   -3.712615967e-01
     2372000000   -1.717851311e-01   -3.891640007e-01
     2372750000   -1.340174675e-01   -4.026749134e-01
     2373500000   -9.555388242e-02   -4.136341214e-01
     2374250000   -5.435785279e-02   -4.206951261e-01
     2375000000   -1.416446175e-02   -4.232632518e-01
     2375750000    2.714958042e-02   -4.234632254e-01
     2376500000    6.537892669e-02   -4.180376232e-01
     2377250000    1.078963727e-01   -4.096815288e-01
     2378000000    1.423339993e-01   -3.986685872e-01
     2378750000    1.838185936e-01   -3.812124133e-01
     2379500000    2.199503034e-01   -3.613678217e-01
     2380250000    2.512442470e-01   -3.406356573e-01
     2381000000    2.827554047e-01   -3.147955239e-01
     2381750000    3.119069338e-01   -2.859847546e-01
     2382500000    3.378119767e-01   -2.546688020e-01
     2383250000    3.631109595e-01   -2.194321156e-01
     2384000000    3.793742955e-01   -1.869577318e-01
     2384750000    3.968730867e-01   -1.488777101e-01
     2385500000    4.104427993e-01   -1.088670716e-01
     2386250000    4.168993533e-01   -7.468415797e-02
     2387000000    4.250751734e-01   -2.592220716e-02
     2387750000    4.258181751e-01    1.406092383e-02
     2388500000    4.221591949e-01    4.980259761e-02
     2389250000    4.159585536e-01    8.749233186e-02
     2390000000    4.052405357e-01    1.280907393e-01
     2390750000    3.912590146e-01    1.693267375e-01
     2391500000    3.719062507e-01    2.061461955e-01
     2392250000    3.528091311e-01    2.400491089e-01
     2393000000    3.277408183e-01    2.719703317e-01
     2393750000    2.992199063e-01    3.030463457e-01
     2394500000    2.704606950e-01    3.301801085e-01
     2395250000    2.381730080e-01    3.544207513e-01
     2396000000    2.051446885e-01    3.734546900e-01
     2396750000    1.685961634e-01    3.923060894e-01
     2397500000    1.293140352e-01    4.081828594e-01
     2398250000    8.886076510e-02    4.195786715e-01
     2399000000    4.958669469e-02    4.265970886e-01
     2399750000    1.054536458e-02    4.289327860e-01
     2400500000   -3.146635741e-02    4.278841913e-01
     2401250000   -7.121215016e-02    4.238729775e-01
     2402000000   -1.141741276e-01    4.170079529e-01
     2402750000   -1.491479576e-01    4.037806690e-01
     2403500000   -1.888284832e-01    3.879748881e-01
     2404250000   -2.249694169e-01    3.687443733e-01
     2405000000   -2.555453777e-01    3.475081325e-01
     2405750000   -2.919131815e-01    3.195980191e-01
     2406500000   -3.199995756e-01    2.914327383e-01
     2407250000   -3.443315923e-01    2.606715858e-01
     2408000000   -3.677054942e-01    2.271455824e-01
     2408750000   -3.864387572e-01    1.931756288e-01
     2409500000   -4.052864313e-01    1.520158648e-01
     2410250000   -4.155033529e-01    1.168412939e-01
     2411000000   -4.240832925e-01    7.853227854e-02
     2411750000   -4.297164083e-01    3.609390184e-02
     2412500000   -4.305385351e-01   -7.231243886e-03
     2413250000   -4.290552139e-01   -4.386842996e-02
     2414000000   -4.223651886e-01   -8.713311702e-02
     2414750000   -4.120470583e-01   -1.256581694e-01
     2415500000   -3.980350494e-01   -1.614347547e-01
     2416250000   -3.807848394e-01   -1.997519135e-01
     2417000000   -3.600537777e-01   -2.351658195e-01
     2417750000   -3.363165557e-01   -2.682019174e-01
     2418500000   -3.083663881e-01   -2.989616096e-01
     2419250000   -2.801215649e-01   -3.269409239e-01
     2420000000   -2.472883016e-01   -3.520534635e-01
     2420750000   -2.130261809e-01   -3.734077811e-01
     2421500000   -1.781661361e-01   -3.912681639e-01
     2422250000   -1.398833692e-01   -4.060814381e-01
     2423000000   -1.019339338e-01   -4.160970151e-01
     2423750000   -6.132236868e-02   -4.239584506e-01
     2424500000   -2.099802904e-02   -4.281712770e-01
     2425250000    2.167568728e-02   -4.289844036e-01
     2426000000    5.911978334e-02   -4.245031476e-01
     2426750000    1.011759862e-01   -4.162388444e-01
     2427500000    1.421203315e-01   -4.036746919e-01
     2428250000    1.771944314e-01   -3.893162012e-01
     2429000000    2.106599212e-01   -3.709706366e-01
     2429750000    2.465523928e-01   -3.486909568e-01
     2430500000    2.797001004e-01   -3.230014443e-01
     2431250000    3.054150343e-01   -2.972835600e-01
     2432000000    3.331701159e-01   -2.657240629e-01
     2432750000    3.587722480e-01   -2.312486321e-01
     2433500000    3.772149980e-01   -1.968315393e-01
     2434250000    3.911701143e-01   -1.642012894e-01
     2435000000    4.077484906e-01   -1.216525286e-01
     2435750000    4.169465601e-01   -8.236324042e-02
     2436500000    4.226939082e-01   -4.158769920e-02
     2437250000    4.237485230e-01   -6.166430656e-03
     2438000000    4.222863615e-01    3.567910939e-02
     2438750000    4.166966975e-01    7.519668341e-02
     2439500000    4.067486525e-01    1.142502427e-01
     2440250000    3.926605284e-01    1.541476846e-01
     2441000000    3.777975738e-01    1.862784922e-01
     2441750000    3.566238880e-01    2.243667841e-01
     2442500000    3.345060647e-01    2.545967996e-01
     2443250000    3.069833517e-01    2.875809371e-01
     2444000000    2.787893713e-01    3.125572801e-01
     2444750000    2.486319691e-01    3.358853757e-01
     2445500000    2.115469724e-01    3.606548011e-01
     2446250000    1.795224249e-01    3.769649267e-01
     2447000000    1.412504464e-01    3.926352859e-01
     2447750000    1.025830656e-01    4.040113389e-01
     2448500000    6.438509375e-02    4.125638902e-01
     2449250000    2.597739175e-02    4.158644676e-01
     2450000000   -1.528899465e-02    4.168212414e-01
     2450750000   -5.394668505e-02    4.132330418e-01
     2451500000   -9.289164841e-02    4.048933089e-01
     2452250000   -1.317100227e-01    3.951995671e-01
     2453000000   -1.678963155e-01    3.800368905e-01
     2453750000   -2.036520690e-01    3.622649014e-01
     2454500000   -2.360946387e-01    3.411938250e-01
     2455250000   -2.661470175e-01    3.177232444e-01
     2456000000   -2.962157130e-01    2.895664275e-01
     2456750000   -3.224854171e-01    2.598029077e-01
     2457500000   -3.454096913e-01    2.284419537e-01
     2458250000   -3.661941588e-01    1.944529861e-01
     2459000000   -3.813806474e-01    1.612509936e-01
     2459750000   -3.958459496e-01    1.204721555e-01
     2460500000   -4.041715860e-01    8.582242578e-02
     2461250000   -4.113727510e-01    4.463581368e-02
     2462000000   -4.118804932e-01    7.623841986e-03
     2462750000   -4.118129611e-01   -3.085220978e-02
     2463500000   -4.065562189e-01   -7.401186973e-02
     2464250000   -3.970621228e-01   -1.068213508e-01
     2465000000   -3.845978379e-01   -1.481833458e-01
     2465750000   -3.691774011e-01   -1.796863526e-01
     2466500000   -3.484044969e-01   -2.172377110e-01
     2467250000   -3.291489184e-01   -2.441104054e-01
     2468000000   -3.008409142e-01   -2.780957222e-01
     2468750000   -2.731193006e-01   -3.045839667e-01
     2469500000   -2.464977354e-01   -3.248704374e-01
     2470250000   -2.092492729e-01   -3.499756753e-01
     2471000000   -1.740825623e-01   -3.676634729e-01
     2471750000   -1.412450522e-01   -3.800532520e-01
     2472500000   -9.995885193e-02   -3.934958279e-01
     2473250000   -6.467738748e-02   -3.994240165e-01
     2474000000   -2.451858483e-02   -4.041188657e-01
     2474750000    1.316075120e-02   -4.033675194e-01
     2475500000    5.028254539e-02   -4.014153481e-01
     2476250000    8.872746676e-02   -3.925913572e-01
     2477000000    1.232513264e-01   -3.828523755e-01
     2477750000    1.618422568e-01   -3.674198389e-01
     2478500000    1.948924363e-01   -3.511832654e-01
     2479250000    2.288388759e-01   -3.287627399e-01
     2480000000    2.584027946e-01   -3.052714765e-01
     2480750000    2.874473035e-01   -2.781485319e-01
     2481500000    3.109916747e-01   -2.500208318e-01
     2482250000    3.345901370e-01   -2.173734158e-01
     2483000000    3.532314301e-01   -1.850531250e-01
     2483750000    3.675885797e-01   -1.502206624e-01
     2484500000    3.806322217e-01   -1.132375672e-01
     2485250000    3.897451460e-01   -7.552155852e-02
     2486000000    3.944275081e-01   -3.955630586e-02
     2486750000    3.961997628e-01   -1.562158141e-04
     2487500000    3.940008879e-01    3.875645623e-02
     2488250000    3.885071576e-01    7.638101280e-02
     2489000000    3.790927827e-01    1.107650250e-01
     2489750000    3.663493395e-01    1.476857513e-01
     2490500000    3.516006470e-01    1.821678281e-01
     2491250000    3.309282959e-01    2.156997174e-01
     2492000000    3.102377951e-01    2.447025180e-01
     2492750000    2.836608887e-01    2.749544978e-01
     2493500000    2.565477788e-01    2.993203700e-01
     2494250000    2.248597741e-01    3.246859014e-01
     2495000000    1.944571286e-01    3.426479697e-01
     2495750000    1.627901793e-01    3.575927615e-01
     2496500000    1.238177419e-01    3.735662997e-01
     2497250000    9.040192515e-02    3.826451004e-01
     2498000000    4.975307360e-02    3.899172544e-01
     2498750000    1.269269455e-02    3.923021257e-01
     2499500000   -2.322545834e-02    3.921672404e-01
     2500250000   -5.922528729e-02    3.870989978e-01
     2501000000   -1.002647281e-01    3.794445693e-01
     2501750000   -1.356543601e-01    3.684474230e-01
     2502500000   -1.638896763e-01    3.549093008e-01
     2503250000   -2.011492699e-01    3.359910548e-01
     2504000000   -2.322717160e-01    3.146647215e-01
     2504750000   -2.630470097e-01    2.888141870e-01
     2505500000   -2.880302072e-01    2.626635134e-01
     2506250000   -3.120388389e-01    2.332042605e-01
     2507000000   -3.312210739e-01    2.037689686e-01
     2507750000   -3.479692638e-01    1.727804542e-01
     2508500000   -3.623920679e-01    1.371126026e-01
     2509250000   -3.756360412e-01    9.675798565e-02
     2510000000   -3.818177581e-01    6.385634840e-02
     2510750000   -3.845393360e-01    2.768957801e-02
     2511500000   -3.869018257e-01   -1.560787112e-02
     2512250000   -3.835906386e-01   -4.745365307e-02
     2513000000   -3.767585754e-01   -8.904025704e-02
     2513750000   -3.669839501e-01   -1.237517148e-01
     2514500000   -3.527660072e-01   -1.577301919e-01
     2515250000   -3.344608545e-01   -1.945885867e-01
     2516000000   -3.160032928e-01   -2.259622067e-01
     2516750000   -2.934018672e-01   -2.537855506e-01
     2517500000   -2.676008940e-01   -2.792683542e-01
     2518250000   -2.387240231e-01   -3.063106239e-01
     2519000000   -2.090614438e-01   -3.265242875e-01
     2519750000   -1.772241741e-01   -3.460178077e-01
     2520500000   -1.425382495e-01   -3.627423048e-01
     2521250000   -1.095946133e-01   -3.730441928e-01
     2522000000   -7.054668665e-02   -3.829471171e-01
     2522750000   -3.326134756e-02   -3.887415230e-01
     2523500000    3.697199747e-03   -3.889348507e-01
     2524250000    4.161877930e-02   -3.876187503e-01
     2525000000    7.793579251e-02   -3.818821907e-01
     2525750000    1.141199842e-01   -3.731582463e-01
     2526500000    1.471803486e-01   -3.613154590e-01
     2527250000    1.843180209e-01   -3.444692492e-01
     2528000000    2.170275152e-01   -3.252086937e-01
     2528750000    2.441258729e-01   -3.052785397e-01
     2529500000    2.747278214e-01   -2.785785794e-01
     2530250000    2.996961176e-01   -2.519072592e-01
     2531000000    3.215659261e-01   -2.222315967e-01
     2531750000    3.414815366e-01   -1.903033257e-01
     2532500000    3.577882648e-01   -1.557834595e-01
     2533250000    3.711891472e-01   -1.206951588e-01
     2534000000    3.807011545e-01   -8.578070253e-02
     2534750000    3.873032331e-01   -4.736363515e-02
     2535500000    3.897401989e-01   -1.134787686e-02
     2536250000    3.893031478e-01    2.727165632e-02
     2537000000    3.845061064e-01    6.456667930e-02
     2537750000    3.767429888e-01    1.004294828e-01
     2538500000    3.648801446e-01    1.387640983e-01
     2539250000    3.500797451e-01    1.726158857e-01
     2540000000    3.332150578e-01    2.041367441e-01
     2540750000    3.115172386e-01    2.356704921e-01
     2541500000    2.867769599e-01    2.639827430e-01
     2542250000    2.598475218e-01    2.916110158e-01
     2543000000    2.316849530e-01    3.140109181e-01
     2543750000    1.997097433e-01    3.361148238e-01
     2544500000    1.652727425e-01    3.541887403e-01
     2545250000    1.322199553e-01    3.689036369e-01
     2546000000    9.562780708e-02    3.805492222e-01
     2546750000    5.843249336e-02    3.878680766e-01
     2547500000    2.084276639e-02    3.945737183e-01
     2548250000   -1.628180966e-02    3.934008777e-01
     2549000000   -5.319466814e-02    3.902162313e-01
     2549750000   -9.196498245e-02    3.833608329e-01
     2550500000   -1.267820895e-01    3.743946552e-01
     2551250000   -1.633182913e-01    3.603968620e-01
     2552000000   -1.937969923e-01    3.439375460e-01
     2552750000   -2.300369292e-01    3.216794431e-01
     2553500000   -2.585168183e-01    2.994540334e-01
     2554250000   -2.829196751e-01    2.747021914e-01
     2555000000   -3.125283420e-01    2.437443584e-01
     2555750000   -3.328126371e-01    2.126030177e-01
     2556500000   -3.504337966e-01    1.821162403e-01
     2557250000   -3.679987490e-01    1.456500441e-01
     2558000000   -3.781294525e-01    1.144615635e-01
     2558750000   -3.884871900e-01    7.389304042e-02
     2559500000   -3.935711086e-01    3.633388504e-02
     2560250000   -3.945619762e-01    1.214371732e-04
     2561000000   -3.934794068e-01   -4.032502323e-02
     2561750000   -3.875656724e-01   -7.921686023e-02
     2562500000   -3.790319860e-01   -1.148498356e-01
     2563250000   -3.675554693e-01   -1.476362348e-01
     2564000000   -3.501679599e-01   -1.880064458e-01
     2564750000   -3.312221467e-01   -2.208004296e-01
     2565500000   -3.091415167e-01   -2.516624033e-01
     2566250000   -2.856607139e-01   -2.763811350e-01
     2567000000   -2.537166178e-01   -3.073697388e-01
     2567750000   -2.274052054e-01   -3.268585205e-01
     2568500000   -1.929205805e-01   -3.492938578e-01
     2569250000   -1.591386050e-01   -3.674862981e-01
     2570000000   -1.232570708e-01   -3.814559877e-01
     2570750000   -8.739188313e-02   -3.922326267e-01
     2571500000   -4.740134627e-02   -4.004965723e-01
     2572250000   -1.136990916e-02   -4.026382864e-01
     2573000000    2.619628236e-02   -4.012548625e-01
     2573750000    6.598924100e-02   -3.973471224e-01
     2574500000    1.027256697e-01   -3.898857534e-01
     2575250000    1.402724087e-01   -3.788785636e-01
     2576000000    1.720322967e-01   -3.649350107e-01
     2576750000    2.085683942e-01   -3.469093740e-01
     2577500000    2.387110144e-01   -3.258030713e-01
     2578250000    2.703196704e-01   -3.015614450e-01
     2579000000    2.988471985e-01   -2.741799355e-01
     2579750000    3.231044114e-01   -2.450518608e-01
     2580500000    3.434498310e-01   -2.138155699e-01
     2581250000    3.643165231e-01   -1.777282655e-01
     2582000000    3.803402483e-01   -1.420420408e-01
     2582750000    3.924674690e-01   -1.034686118e-01
     2583500000    3.987418413e-01   -6.894851476e-02
     2584250000    4.031355977e-01   -3.019681573e-02
     2585000000    4.054330885e-01    1.010328531e-02
     2585750000    4.027955830e-01    4.794459790e-02
     2586500000    3.957120478e-01    8.370029926e-02
     2587250000    3.863254488e-01    1.260578334e-01
     2588000000    3.720468879e-01    1.600092053e-01
     2588750000    3.553433120e-01    1.951428205e-01
     2589500000    3.361454010e-01    2.281711251e-01
     2590250000    3.111180365e-01    2.613756061e-01
     2591000000    2.874916792e-01    2.876223922e-01
     2591750000    2.563768923e-01    3.149159551e-01
     2592500000    2.256433517e-01    3.370481730e-01
     2593250000    1.926966906e-01    3.589418232e-01
     2594000000    1.562853456e-01    3.758082986e-01
     2594750000    1.213497370e-01    3.893244863e-01
     2595500000    8.029667288e-02    3.984908462e-01
     2596250000    4.435069859e-02    4.047325253e-01
     2597000000    5.849473644e-03    4.082980752e-01
     2597750000   -3.305538371e-02    4.065788388e-01
     2598500000   -7.242915034e-02    4.036422074e-01
     2599250000   -1.131835356e-01    3.942334652e-01
     2600000000   -1.490722150e-01    3.810520172e-01
