! NanoVNA-App
! Date: 2026-05-22 18:57:51
! Start: 4.8GHz Stop: 6GHz Points: 401
! S-Parameter data: F S11
# Hz S RI R 50
!     Frequency           S11_Real           S11_Imag
     4800000000   -4.306531847e-01    4.864748716e-01
     4803000000   -5.828217268e-01    2.917610407e-01
     4806000000   -6.470624208e-01    6.690478325e-02
     4809000000   -6.222544312e-01   -1.745228022e-01
     4812000000   -5.206343532e-01   -3.881749809e-01
     4815000000   -3.408001959e-01   -5.539377332e-01
     4818000000   -1.077722460e-01   -6.405541301e-01
     4821000000    1.351152956e-01   -6.357456446e-01
     4824000000    3.516259491e-01   -5.431783795e-01
     4827000000    5.310325623e-01   -3.745734990e-01
     4830000000    6.295317411e-01   -1.558267027e-01
     4833000000    6.437851191e-01    8.270455152e-02
     4836000000    5.681145787e-01    3.142263889e-01
     4839000000    4.164221585e-01    5.006681681e-01
     4842000000    2.024662346e-01    6.158645749e-01
     4845000000   -3.178917989e-02    6.492432952e-01
     4848000000   -2.720368803e-01    5.882741809e-01
     4851000000   -4.647594392e-01    4.502992034e-01
     4854000000   -5.977615118e-01    2.506748736e-01
     4857000000   -6.454623342e-01    5.953712389e-03
     4860000000   -6.070472002e-01   -2.237595171e-01
     4863000000   -4.913407564e-01   -4.219672084e-01
     4866000000   -2.835665345e-01   -5.796067715e-01
     4869000000   -5.606478080e-02   -6.455138922e-01
     4872000000    1.765185148e-01   -6.229265928e-01
     4875000000    3.909861147e-01   -5.166959763e-01
     4878000000    5.549991727e-01   -3.368617594e-01
     4881000000    6.363517046e-01   -1.126789153e-01
     4884000000    6.314268708e-01    1.311841309e-01
     4887000000    5.442818999e-01    3.469738066e-01
     4890000000    3.760866225e-01    5.242304206e-01
     4893000000    1.593996584e-01    6.235280633e-01
     4896000000   -7.703150809e-02    6.408382654e-01
     4899000000   -3.059764206e-01    5.642303228e-01
     4902000000   -4.924532175e-01    4.115864336e-01
     4905000000   -6.111964583e-01    2.047794908e-01
     4908000000   -6.419233084e-01   -3.351408243e-02
     4911000000   -5.854952931e-01   -2.647011876e-01
     4914000000   -4.497966766e-01   -4.598821998e-01
     4917000000   -2.451533824e-01   -5.908616185e-01
     4920000000   -2.057440951e-02   -6.433160305e-01
     4923000000    2.243248820e-01   -5.992225409e-01
     4926000000    4.206765890e-01   -4.871059656e-01
     4929000000    5.689319372e-01   -2.960279286e-01
     4932000000    6.347413063e-01   -5.702494457e-02
     4935000000    6.146984100e-01    1.691224724e-01
     4938000000    5.200350285e-01    3.757909238e-01
     4941000000    3.256029785e-01    5.487110615e-01
     4944000000    1.229847670e-01    6.305170059e-01
     4947000000   -1.219632030e-01    6.240619421e-01
     4950000000   -3.377816081e-01    5.499892235e-01
     4953000000   -5.212951303e-01    3.724738657e-01
     4956000000   -6.142985821e-01    1.703554690e-01
     4959000000   -6.334673762e-01   -7.211266458e-02
     4962000000   -5.606812835e-01   -2.966631055e-01
     4965000000   -4.152489901e-01   -4.808008671e-01
     4968000000   -2.115573287e-01   -5.988345146e-01
     4971000000    1.883407682e-02   -6.349800229e-01
     4974000000    2.532542050e-01   -5.776780248e-01
     4977000000    4.495066702e-01   -4.474415779e-01
     4980000000    5.791100860e-01   -2.556273341e-01
     4983000000    6.323361397e-01   -2.770566195e-02
     4986000000    5.971152186e-01    2.065259218e-01
     4989000000    4.830389619e-01    4.050112963e-01
     4992000000    2.996308506e-01    5.538638234e-01
     4995000000    7.802537084e-02    6.215623617e-01
     4998000000   -1.592554748e-01    6.039498448e-01
     5001000000   -3.693107367e-01    5.101816058e-01
     5004000000   -5.294616222e-01    3.339166939e-01
     5007000000   -6.096170545e-01    1.202143654e-01
     5010000000   -6.112928987e-01   -1.118724197e-01
     5013000000   -5.268938541e-01   -3.338623643e-01
     5016000000   -3.721647859e-01   -5.009452105e-01
     5019000000   -1.695604175e-01   -6.006511450e-01
     5022000000    6.537126750e-02   -6.192115545e-01
     5025000000    2.841323614e-01   -5.525757074e-01
     5028000000    4.657852948e-01   -4.118511677e-01
     5031000000    5.797927976e-01   -2.119604796e-01
     5034000000    6.193463802e-01    1.145192795e-02
     5037000000    5.680126548e-01    2.405937761e-01
     5040000000    4.372955859e-01    4.337901175e-01
     5043000000    2.528541684e-01    5.599464178e-01
     5046000000    2.694496885e-02    6.149500608e-01
     5049000000   -1.958860904e-01    5.848840475e-01
     5052000000   -3.999981582e-01    4.631119370e-01
     5055000000   -5.398968458e-01    2.947749794e-01
     5058000000   -6.111410260e-01    7.302673161e-02
     5061000000   -5.953388214e-01   -1.503959298e-01
     5064000000   -4.970000684e-01   -3.569008708e-01
     5067000000   -3.310825825e-01   -5.116068721e-01
     5070000000   -1.230126396e-01   -5.968594551e-01
     5073000000    1.047610119e-01   -5.986515880e-01
     5076000000    3.142175078e-01   -5.240752697e-01
     5079000000    4.854125381e-01   -3.685469925e-01
     5082000000    5.849485993e-01   -1.644199044e-01
     5085000000    6.052102447e-01    6.010833383e-02
     5088000000    5.448607206e-01    2.756721377e-01
     5091000000    4.033575952e-01    4.562422633e-01
     5094000000    2.105373740e-01    5.715883374e-01
     5097000000   -1.684498414e-02    6.085162163e-01
     5100000000   -2.285843492e-01    5.683838725e-01
     5103000000   -4.210167527e-01    4.387256205e-01
     5106000000   -5.470280051e-01    2.564306259e-01
     5109000000   -6.038423181e-01    3.486463800e-02
     5112000000   -5.793890357e-01   -1.821782142e-01
     5115000000   -4.636191726e-01   -3.829983771e-01
     5118000000   -3.004355431e-01   -5.252225399e-01
     5121000000   -7.650799304e-02   -5.944054723e-01
     5124000000    1.376468688e-01   -5.891811252e-01
     5127000000    3.482114375e-01   -4.896105230e-01
     5130000000    4.998863935e-01   -3.407251239e-01
     5133000000    5.830166340e-01   -1.215040609e-01
     5136000000    5.890449882e-01    9.446818382e-02
     5139000000    5.173841715e-01    3.033599257e-01
     5142000000    3.738481402e-01    4.689312279e-01
     5145000000    1.734732538e-01    5.728943944e-01
     5148000000   -4.509336129e-02    5.966911316e-01
     5151000000   -2.570198476e-01    5.418769717e-01
     5154000000   -4.359223843e-01    4.043443501e-01
     5157000000   -5.539665222e-01    2.157213241e-01
     5160000000   -5.939742923e-01    1.373350242e-04
     5163000000   -5.540546775e-01   -2.152318656e-01
     5166000000   -4.333297610e-01   -4.031020999e-01
     5169000000   -2.606258988e-01   -5.343678594e-01
     5172000000   -4.556531087e-02   -5.938854218e-01
     5175000000    1.747485995e-01   -5.692158341e-01
     5178000000    3.713561296e-01   -4.678284824e-01
     5181000000    5.149875879e-01   -3.037320673e-01
     5184000000    5.825242996e-01   -9.093886614e-02
     5187000000    5.799662471e-01    1.272273213e-01
     5190000000    4.962122142e-01    3.303441703e-01
     5193000000    3.371413648e-01    4.840879738e-01
     5196000000    1.398301423e-01    5.736084580e-01
     5199000000   -8.212589473e-02    5.882800817e-01
     5202000000   -2.879601717e-01    5.186814070e-01
     5205000000   -4.565048516e-01    3.788859546e-01
     5208000000   -5.637534857e-01    1.905367523e-01
     5211000000   -5.899881124e-01   -2.855682001e-02
     5214000000   -5.385822058e-01   -2.419788092e-01
     5217000000   -4.129189253e-01   -4.214056134e-01
     5220000000   -2.320258319e-01   -5.410640836e-01
     5223000000   -2.022496425e-02   -5.917103291e-01
     5226000000    1.970876753e-01   -5.545135736e-01
     5229000000    3.845165074e-01   -4.444532096e-01
     5232000000    5.207012296e-01   -2.757874727e-01
     5235000000    5.838806033e-01   -6.762619317e-02
     5238000000    5.662538409e-01    1.508706808e-01
     5241000000    4.752663970e-01    3.440375924e-01
     5244000000    3.165724874e-01    4.965263009e-01
     5247000000    1.134389639e-01    5.763996840e-01
     5250000000   -1.019919142e-01    5.806168318e-01
     5253000000   -3.052932918e-01    5.027968884e-01
     5256000000   -4.651225507e-01    3.588482440e-01
     5259000000   -5.612115860e-01    1.639680713e-01
     5262000000   -5.895391703e-01   -5.280639976e-02
     5265000000   -5.270805955e-01   -2.610628009e-01
     5268000000   -3.941185474e-01   -4.294066727e-01
     5271000000   -2.090339661e-01   -5.455612540e-01
     5274000000    3.129752818e-03   -5.844522715e-01
     5277000000    2.128842473e-01   -5.426037908e-01
     5280000000    3.947861493e-01   -4.292732179e-01
     5283000000    5.255506039e-01   -2.569663227e-01
     5286000000    5.794445276e-01   -4.629293829e-02
     5289000000    5.573487878e-01    1.642466486e-01
     5292000000    4.590266943e-01    3.548531532e-01
     5295000000    2.977840304e-01    4.975391328e-01
     5298000000    9.664710611e-02    5.702210665e-01
     5301000000   -1.151958331e-01    5.649064183e-01
     5304000000   -3.124466240e-01    4.835201502e-01
     5307000000   -4.665962458e-01    3.335908353e-01
     5310000000   -5.557602644e-01    1.415465921e-01
     5313000000   -5.694406033e-01   -7.138026506e-02
     5316000000   -5.049211383e-01   -2.747614980e-01
     5319000000   -3.705593050e-01   -4.382504821e-01
     5322000000   -1.873549521e-01   -5.413029194e-01
     5325000000    2.188990638e-02   -5.708923936e-01
     5328000000    2.279845923e-01   -5.237035751e-01
     5331000000    4.028693140e-01   -4.044945240e-01
     5334000000    5.214007497e-01   -2.289604098e-01
     5337000000    5.670083761e-01   -2.551367693e-02
     5340000000    5.372800231e-01    1.842009276e-01
     5343000000    4.321933389e-01    3.676658571e-01
     5346000000    2.690678835e-01    4.995989799e-01
     5349000000    6.889840215e-02    5.632158518e-01
     5352000000   -1.410189867e-01    5.474838614e-01
     5355000000   -3.282835186e-01    4.616658688e-01
     5358000000   -4.753463566e-01    3.088689148e-01
     5361000000   -5.561626554e-01    1.117678210e-01
     5364000000   -5.613415837e-01   -9.735266119e-02
     5367000000   -4.868942797e-01   -2.888281941e-01
     5370000000   -3.471834362e-01   -4.502282143e-01
     5373000000   -1.627682000e-01   -5.415619612e-01
     5376000000    4.372165352e-02   -5.611453056e-01
     5379000000    2.518613636e-01   -5.063825250e-01
     5382000000    4.122202992e-01   -3.840369582e-01
     5385000000    5.223368406e-01   -2.090549916e-01
     5388000000    5.626604557e-01   -2.403935883e-03
     5391000000    5.263736844e-01    2.033997029e-01
     5394000000    4.175805449e-01    3.788752258e-01
     5397000000    2.489878982e-01    5.075156093e-01
     5400000000    4.783678800e-02    5.610951185e-01
     5403000000   -1.559657156e-01    5.408619642e-01
     5406000000   -3.411095142e-01    4.470805526e-01
     5409000000   -4.802177846e-01    2.913072109e-01
     5412000000   -5.549007058e-01    9.711122513e-02
     5415000000   -5.487663150e-01   -1.085063517e-01
     5418000000   -4.725449383e-01   -3.037105203e-01
     5421000000   -3.301603794e-01   -4.531104565e-01
     5424000000   -1.452077180e-01   -5.430100560e-01
     5427000000    6.024758890e-02   -5.587421060e-01
     5430000000    2.623665929e-01   -4.978726506e-01
     5433000000    4.228725135e-01   -3.680764735e-01
     5436000000    5.280914903e-01   -1.898538917e-01
     5439000000    5.626100302e-01    1.704555377e-02
     5442000000    5.151789784e-01    2.155716866e-01
     5445000000    4.046977460e-01    3.934497833e-01
     5448000000    2.375803143e-01    5.054008365e-01
     5451000000    3.868264705e-02    5.569261312e-01
     5454000000   -1.685127467e-01    5.345653296e-01
     5457000000   -3.533056974e-01    4.377334118e-01
     5460000000   -4.829814136e-01    2.798426747e-01
     5463000000   -5.507621765e-01    8.625504375e-02
     5466000000   -5.457640290e-01   -1.204702333e-01
     5469000000   -4.633167386e-01   -3.105698824e-01
     5472000000   -3.191227019e-01   -4.569381475e-01
     5475000000   -1.311786920e-01   -5.448306203e-01
     5478000000    7.188946009e-02   -5.530434251e-01
     5481000000    2.704076469e-01   -4.929900467e-01
     5484000000    4.274333417e-01   -3.580548763e-01
     5487000000    5.251889825e-01   -1.832774729e-01
     5490000000    5.633369088e-01    2.663253248e-02
     5493000000    5.141876936e-01    2.256261408e-01
     5496000000    3.998244107e-01    3.904512525e-01
     5499000000    2.276502401e-01    5.032467842e-01
     5502000000    2.926807292e-02    5.543349385e-01
     5505000000   -1.718672067e-01    5.259830952e-01
     5508000000   -3.511225879e-01    4.271412790e-01
     5511000000   -4.876672029e-01    2.715261579e-01
     5514000000   -5.491740704e-01    8.000267297e-02
     5517000000   -5.372810960e-01   -1.257778704e-01
     5520000000   -4.544945955e-01   -3.122571409e-01
     5523000000   -3.120501041e-01   -4.548096061e-01
     5526000000   -1.246115267e-01   -5.393848419e-01
     5529000000    7.781514525e-02   -5.451506972e-01
     5532000000    2.678558528e-01   -4.761584699e-01
     5535000000    4.281999171e-01   -3.504371345e-01
     5538000000    5.272408724e-01   -1.724762768e-01
     5541000000    5.506220460e-01    2.985700220e-02
     5544000000    5.025624037e-01    2.237019837e-01
     5547000000    3.844523132e-01    3.867138028e-01
     5550000000    2.154542357e-01    5.082468390e-01
     5553000000    1.613710821e-02    5.548017621e-01
     5556000000   -1.804995686e-01    5.186192393e-01
     5559000000   -3.539288938e-01    4.202319086e-01
     5562000000   -4.821614027e-01    2.618527114e-01
     5565000000   -5.500112176e-01    6.720005721e-02
     5568000000   -5.357332230e-01   -1.327610463e-01
     5571000000   -4.473429024e-01   -3.140119612e-01
     5574000000   -3.048779964e-01   -4.637969136e-01
     5577000000   -1.140029579e-01   -5.398272872e-01
     5580000000    8.532208204e-02   -5.430681705e-01
     5583000000    2.679637074e-01   -4.706737697e-01
     5586000000    4.294311702e-01   -3.430124521e-01
     5589000000    5.269610286e-01   -1.612768769e-01
     5592000000    5.514183044e-01    3.984352946e-02
     5595000000    5.000463724e-01    2.339398563e-01
     5598000000    3.821967542e-01    3.959819973e-01
     5601000000    2.164104730e-01    4.955079257e-01
     5604000000    7.894208655e-03    5.575386882e-01
     5607000000   -1.892597824e-01    5.217205882e-01
     5610000000   -3.525734246e-01    4.183196425e-01
     5613000000   -4.870077372e-01    2.571741045e-01
     5616000000   -5.467005372e-01    6.369531155e-02
     5619000000   -5.297914147e-01   -1.337748021e-01
     5622000000   -4.467634857e-01   -3.235512376e-01
     5625000000   -3.016148210e-01   -4.531065524e-01
     5628000000   -1.100669280e-01   -5.400710702e-01
     5631000000    9.294707328e-02   -5.473091006e-01
     5634000000    2.693039179e-01   -4.707171619e-01
     5637000000    4.253012240e-01   -3.374982774e-01
     5640000000    5.243336558e-01   -1.587792039e-01
     5643000000    5.484699011e-01    4.491277784e-02
     5646000000    4.946577251e-01    2.366705984e-01
     5649000000    3.774971068e-01    3.944898248e-01
     5652000000    2.092001736e-01    5.060324073e-01
     5655000000    1.456768811e-02    5.410593748e-01
     5658000000   -1.907750070e-01    5.127831101e-01
     5661000000   -3.480959237e-01    4.104764163e-01
     5664000000   -4.847846329e-01    2.498099953e-01
     5667000000   -5.322892666e-01    7.011432201e-02
     5670000000   -5.286169052e-01   -1.494010687e-01
     5673000000   -4.379950762e-01   -3.199870884e-01
     5676000000   -2.941507101e-01   -4.520548880e-01
     5679000000   -1.038481668e-01   -5.348315239e-01
     5682000000    8.956687152e-02   -5.326040983e-01
     5685000000    2.788573503e-01   -4.632575214e-01
     5688000000    4.403209686e-01   -3.263933957e-01
     5691000000    5.141366720e-01   -1.554971337e-01
     5694000000    5.344632864e-01    3.932405636e-02
     5697000000    4.878270328e-01    2.573462129e-01
     5700000000    3.670747578e-01    3.970316648e-01
     5703000000    1.959880292e-01    5.039275885e-01
     5706000000   -1.064997073e-02    5.469654202e-01
     5709000000   -1.945419014e-01    5.051029921e-01
     5712000000   -3.577708900e-01    4.023490250e-01
     5715000000   -4.843485057e-01    2.378487289e-01
     5718000000   -5.306949615e-01    5.819905922e-02
     5721000000   -5.187065005e-01   -1.520851851e-01
     5724000000   -4.293281734e-01   -3.226947188e-01
     5727000000   -2.760856152e-01   -4.676774740e-01
     5730000000   -1.062698215e-01   -5.246453881e-01
     5733000000    9.687960893e-02   -5.280159712e-01
     5736000000    2.809475958e-01   -4.566199481e-01
     5739000000    4.308093786e-01   -3.228630126e-01
     5742000000    5.158502460e-01   -1.479094774e-01
     5745000000    5.315764546e-01    4.695709795e-02
     5748000000    4.779123664e-01    2.472481877e-01
     5751000000    3.615592420e-01    3.844955266e-01
     5754000000    1.709294617e-01    5.160400867e-01
     5757000000    1.449833624e-02    5.250652432e-01
     5760000000   -2.199804932e-01    4.931184053e-01
     5763000000   -3.523238003e-01    3.936929107e-01
     5766000000   -4.834938049e-01    2.271258533e-01
     5769000000   -5.284451842e-01    4.108562693e-02
     5772000000   -5.079130530e-01   -1.369507909e-01
     5775000000   -4.172513485e-01   -3.256707191e-01
     5778000000   -2.602733374e-01   -4.667713940e-01
     5781000000   -8.465375751e-02   -5.237625837e-01
     5784000000    8.286727965e-02   -5.131048560e-01
     5787000000    2.993538380e-01   -4.370304048e-01
     5790000000    4.263332188e-01   -3.087501824e-01
     5793000000    5.104681253e-01   -1.241411641e-01
     5796000000    5.182717443e-01    5.635924265e-02
     5799000000    4.585056305e-01    2.541310489e-01
     5802000000    3.333865106e-01    4.030006826e-01
     5805000000    1.734234840e-01    4.889757633e-01
     5808000000   -2.642382868e-02    5.204700232e-01
     5811000000   -1.933729947e-01    4.771278501e-01
     5814000000   -3.639312387e-01    3.674032688e-01
     5817000000   -4.751694500e-01    2.038318217e-01
     5820000000   -5.128883719e-01    3.049018607e-02
     5823000000   -4.864439964e-01   -1.632104963e-01
     5826000000   -3.942719698e-01   -3.226722181e-01
     5829000000   -2.340505123e-01   -4.562738240e-01
     5832000000   -6.822799891e-02   -5.022780895e-01
     5835000000    1.261105537e-01   -4.955202937e-01
     5838000000    2.881444097e-01   -4.225178361e-01
     5841000000    4.266992807e-01   -2.760579288e-01
     5844000000    4.950293303e-01   -1.142999306e-01
     5847000000    5.023645759e-01    7.668632269e-02
     5850000000    4.371816814e-01    2.568278611e-01
     5853000000    3.163441420e-01    3.938719332e-01
     5856000000    1.525897682e-01    4.815559685e-01
     5859000000   -3.500800580e-02    5.030621290e-01
     5862000000   -2.171605825e-01    4.530671537e-01
     5865000000   -3.635481298e-01    3.399045765e-01
     5868000000   -4.606599212e-01    1.908641160e-01
     5871000000   -4.975505173e-01   -1.010693051e-02
     5874000000   -4.673110545e-01   -1.638690531e-01
     5877000000   -3.716820180e-01   -3.276592791e-01
     5880000000   -2.046343237e-01   -4.500808120e-01
     5883000000   -3.497257084e-02   -4.904070199e-01
     5886000000    1.327136606e-01   -4.735342860e-01
     5889000000    3.009589911e-01   -3.848164976e-01
     5892000000    4.115321636e-01   -2.592632174e-01
     5895000000    4.808824360e-01   -7.453105599e-02
     5898000000    4.791552126e-01    9.387710690e-02
     5901000000    4.041748047e-01    2.712873518e-01
     5904000000    2.949430645e-01    3.850835264e-01
     5907000000    1.109308004e-01    4.721678495e-01
     5910000000   -4.435044155e-02    4.816938639e-01
     5913000000   -2.332652211e-01    4.209589660e-01
     5916000000   -3.506120443e-01    3.332302570e-01
     5919000000   -4.630861878e-01    1.313960105e-01
     5922000000   -4.804666340e-01   -8.638143539e-03
     5925000000   -4.380766749e-01   -1.911224276e-01
     5928000000   -3.310694695e-01   -3.423987925e-01
     5931000000   -1.942912638e-01   -4.325246811e-01
     5934000000   -2.328454889e-02   -4.748230278e-01
     5937000000    1.572361141e-01   -4.463536739e-01
     5940000000    3.068654835e-01   -3.563731015e-01
     5943000000    4.158519506e-01   -2.236423790e-01
     5946000000    4.652206898e-01   -6.280694902e-02
     5949000000    4.479576051e-01    1.262178570e-01
     5952000000    3.724639118e-01    2.775418460e-01
     5955000000    2.466725260e-01    3.910316527e-01
     5958000000    1.097774133e-01    4.553847909e-01
     5961000000   -1.037738845e-01    4.505675733e-01
     5964000000   -2.379945666e-01    3.972225189e-01
     5967000000   -3.719315827e-01    2.677444816e-01
     5970000000   -4.457573891e-01    1.157415807e-01
     5973000000   -4.531325400e-01   -5.061742663e-02
     5976000000   -4.107749760e-01   -2.061214000e-01
     5979000000   -3.040819764e-01   -3.407849669e-01
     5982000000   -1.641489863e-01   -4.250681698e-01
     5985000000    9.405040182e-03   -4.526715577e-01
     5988000000    1.846723557e-01   -4.088558555e-01
     5991000000    3.099771142e-01   -3.301595151e-01
     5994000000    4.070217609e-01   -1.884492785e-01
     5997000000    4.485056400e-01   -2.768287249e-02
     6000000000    4.191077948e-01    1.436008215e-01
