! NanoVNA-App
! Date: 2026-05-22 15:32:46
! Start: 0Hz Stop: 2.6GHz Points: 401
! S-Parameter data: F S11
# Hz S RI R 50
!     Frequency           S11_Real           S11_Imag
              0    1.598653793e-01    9.835430235e-02
              0    1.597463638e-01    9.868852794e-02
              0    1.594008505e-01    9.915095568e-02
              0    1.593572944e-01    9.931288660e-02
              0    1.588409692e-01    1.001950055e-01
              0    1.590759307e-01    1.001316532e-01
              0    1.588679850e-01    1.004807130e-01
              0    1.588030905e-01    1.007617861e-01
              0    1.584005356e-01    1.012803540e-01
              0    1.584189385e-01    1.014015228e-01
              0    1.581119597e-01    1.020239890e-01
              0    1.582258940e-01    1.019759178e-01
              0    1.578276157e-01    1.026565656e-01
              0    1.577159017e-01    1.030668616e-01
              0    1.578017920e-01    1.031709611e-01
              0    1.573183537e-01    1.039381847e-01
              0    1.573352218e-01    1.038934290e-01
              0    1.571030319e-01    1.042367071e-01
              0    1.567575186e-01    1.048144847e-01
              0    1.569326520e-01    1.046505719e-01
              0    1.565526426e-01    1.053079516e-01
              0    1.563949734e-01    1.056913361e-01
              0    1.562573463e-01    1.059951931e-01
              0    1.562817991e-01    1.062033325e-01
              0    1.559145302e-01    1.067815349e-01
              0    1.555360854e-01    1.071761996e-01
              0    1.556802541e-01    1.071463451e-01
              0    1.552999169e-01    1.077612862e-01
              0    1.550750583e-01    1.083064228e-01
              0    1.547909379e-01    1.085930988e-01
              0    1.547119170e-01    1.088556275e-01
              0    1.548776776e-01    1.088112667e-01
              0    1.544539183e-01    1.096691117e-01
              0    1.545407176e-01    1.093804315e-01
              0    1.540138423e-01    1.100266501e-01
              0    1.538451016e-01    1.106930599e-01
              0    1.536362022e-01    1.108948365e-01
              0    1.535214335e-01    1.112005860e-01
              0    1.538020968e-01    1.109319627e-01
              0    1.528306603e-01    1.121373475e-01
              0    1.530496627e-01    1.120959222e-01
              0    1.527567059e-01    1.123697087e-01
              0    1.525163502e-01    1.128093675e-01
              0    1.524649411e-01    1.132110432e-01
              0    1.522436142e-01    1.135744229e-01
              0    1.521149129e-01    1.136527136e-01
              0    1.519579887e-01    1.141043305e-01
              0    1.516167819e-01    1.145686284e-01
              0    1.514308155e-01    1.146909669e-01
              0    1.514239609e-01    1.149893999e-01
              0    1.511803865e-01    1.154304370e-01
              0    1.508947313e-01    1.159495264e-01
              0    1.506761611e-01    1.161924005e-01
              0    1.506803930e-01    1.164222136e-01
              0    1.501293629e-01    1.170162112e-01
              0    1.500394940e-01    1.171696186e-01
              0    1.500133276e-01    1.173886508e-01
              0    1.497679502e-01    1.178273037e-01
              0    1.494283080e-01    1.181820258e-01
              0    1.491952240e-01    1.185115352e-01
              0    1.492390782e-01    1.186137944e-01
              0    1.490544677e-01    1.189669967e-01
              0    1.488360465e-01    1.193412766e-01
              0    1.484878808e-01    1.197537035e-01
              0    1.483967751e-01    1.199834496e-01
              0    1.479399204e-01    1.206566989e-01
              0    1.476685554e-01    1.208480299e-01
              0    1.475369781e-01    1.213171631e-01
              0    1.474584937e-01    1.212569326e-01
              0    1.472492665e-01    1.216618642e-01
              0    1.475311667e-01    1.215449274e-01
              0    1.468241811e-01    1.222655401e-01
              0    1.466118246e-01    1.226326600e-01
              0    1.465729028e-01    1.227682233e-01
              0    1.458344758e-01    1.233927980e-01
              0    1.460442096e-01    1.237830743e-01
              0    1.460301280e-01    1.235262677e-01
              0    1.454179138e-01    1.243345439e-01
              0    1.452251226e-01    1.247829944e-01
              0    1.452164352e-01    1.249098852e-01
              0    1.450425386e-01    1.250838041e-01
              0    1.445647180e-01    1.255699098e-01
              0    1.446146071e-01    1.255444288e-01
              0    1.444071084e-01    1.260636449e-01
              0    1.439528167e-01    1.265364140e-01
              0    1.437852979e-01    1.267262697e-01
              0    1.436355114e-01    1.269479245e-01
              0    1.433139145e-01    1.273880452e-01
              0    1.431796104e-01    1.275057346e-01
              0    1.429436654e-01    1.279571205e-01
              0    1.425880641e-01    1.282565743e-01
              0    1.425957829e-01    1.284509450e-01
              0    1.423362494e-01    1.287513375e-01
              0    1.419613659e-01    1.292763650e-01
              0    1.418130398e-01    1.296057701e-01
              0    1.415139735e-01    1.300224513e-01
              0    1.414905936e-01    1.299411356e-01
              0    1.408619285e-01    1.308493167e-01
              0    1.406433433e-01    1.309207231e-01
              0    1.406377703e-01    1.310746670e-01
              0    1.402164251e-01    1.315119714e-01
              0    1.402795464e-01    1.316285729e-01
              0    1.401052773e-01    1.318156570e-01
              0    1.394977868e-01    1.324909925e-01
              0    1.393590271e-01    1.326267719e-01
              0    1.391897053e-01    1.330156028e-01
              0    1.389371455e-01    1.332896203e-01
              0    1.388303638e-01    1.333136410e-01
              0    1.383464485e-01    1.339298636e-01
              0    1.381937563e-01    1.342002600e-01
              0    1.382331550e-01    1.340996474e-01
              0    1.374435276e-01    1.350094825e-01
              0    1.374554187e-01    1.351643056e-01
              0    1.373720169e-01    1.350273490e-01
              0    1.368967593e-01    1.356854141e-01
              0    1.368552595e-01    1.358388066e-01
              0    1.364658177e-01    1.363767534e-01
              0    1.363828480e-01    1.364313513e-01
              0    1.358076185e-01    1.369269937e-01
              0    1.358439326e-01    1.369632035e-01
              0    1.356744170e-01    1.372432858e-01
              0    1.350451708e-01    1.379645467e-01
              0    1.349482387e-01    1.381365210e-01
              0    1.351062208e-01    1.380289495e-01
              0    1.345850825e-01    1.385682076e-01
              0    1.342389882e-01    1.389913708e-01
              0    1.342743486e-01    1.389724910e-01
              0    1.338482648e-01    1.394354701e-01
              0    1.336148083e-01    1.397210360e-01
              0    1.331940740e-01    1.400410235e-01
              0    1.331002265e-01    1.401864588e-01
              0    1.329026967e-01    1.405139267e-01
              0    1.325776577e-01    1.408333033e-01
              0    1.320983022e-01    1.413482875e-01
              0    1.316854358e-01    1.416717619e-01
              0    1.313962042e-01    1.419245005e-01
              0    1.312733293e-01    1.420385242e-01
              0    1.312569976e-01    1.424080133e-01
              0    1.310663521e-01    1.425927579e-01
              0    1.307602972e-01    1.427926719e-01
              0    1.304101646e-01    1.432010531e-01
              0    1.301022768e-01    1.435350180e-01
              0    1.297872812e-01    1.439158320e-01
              0    1.297852546e-01    1.439803392e-01
              0    1.294509172e-01    1.443029493e-01
              0    1.289299279e-01    1.446475685e-01
              0    1.288986206e-01    1.447716504e-01
              0    1.285221726e-01    1.452182680e-01
              0    1.283789873e-01    1.453934908e-01
              0    1.281107068e-01    1.457615048e-01
              0    1.277357936e-01    1.460513324e-01
              0    1.276113987e-01    1.461434662e-01
              0    1.273415834e-01    1.464905590e-01
              0    1.268607378e-01    1.468816996e-01
              0    1.265933812e-01    1.469964683e-01
              0    1.265426129e-01    1.471852213e-01
              0    1.260989755e-01    1.476317346e-01
              0    1.258193552e-01    1.478727162e-01
              0    1.255357563e-01    1.481908560e-01
              0    1.252873987e-01    1.484941244e-01
              0    1.249805242e-01    1.487373263e-01
              0    1.247524768e-01    1.489521265e-01
              0    1.244605407e-01    1.490804106e-01
              0    1.241837516e-01    1.494388729e-01
              0    1.237915829e-01    1.498204023e-01
              0    1.235635430e-01    1.500294209e-01
              0    1.233540326e-01    1.502109468e-01
              0    1.230897605e-01    1.503609270e-01
              0    1.227749363e-01    1.507713944e-01
              0    1.224857867e-01    1.510862112e-01
              0    1.223097667e-01    1.513307989e-01
              0    1.220964789e-01    1.516012698e-01
              0    1.216781735e-01    1.518232226e-01
              0    1.213170290e-01    1.522180587e-01
              0    1.213439256e-01    1.522144675e-01
              0    1.211157069e-01    1.524249464e-01
              0    1.206740886e-01    1.528118700e-01
              0    1.201934367e-01    1.532290429e-01
              0    1.198237464e-01    1.535400599e-01
              0    1.198160276e-01    1.534173340e-01
              0    1.195056140e-01    1.537388861e-01
              0    1.191032156e-01    1.542515457e-01
              0    1.187688559e-01    1.545452923e-01
              0    1.184887737e-01    1.548158377e-01
              0    1.183513030e-01    1.548644602e-01
              0    1.180212423e-01    1.550658047e-01
              0    1.175113991e-01    1.555311233e-01
              0    1.173347756e-01    1.557714194e-01
              0    1.171711460e-01    1.558831334e-01
              0    1.169202775e-01    1.560682654e-01
              0    1.165322289e-01    1.564373374e-01
              0    1.162406206e-01    1.566518992e-01
              0    1.161294878e-01    1.568099856e-01
              0    1.155180708e-01    1.573498249e-01
              0    1.151793078e-01    1.574943066e-01
              0    1.151572540e-01    1.575473696e-01
              0    1.149074659e-01    1.577798724e-01
              0    1.144410744e-01    1.580424607e-01
              0    1.141496077e-01    1.583534777e-01
              0    1.139261350e-01    1.586927474e-01
              0    1.135027483e-01    1.590189487e-01
              0    1.133981198e-01    1.590608209e-01
              0    1.130352765e-01    1.592898369e-01
              0    1.126529947e-01    1.596348882e-01
              0    1.122920215e-01    1.598616689e-01
              0    1.120674834e-01    1.600787938e-01
              0    1.118665338e-01    1.603100002e-01
              0    1.115813404e-01    1.605332941e-01
              0    1.111543551e-01    1.608958095e-01
              0    1.106988713e-01    1.612169296e-01
              0    1.107375994e-01    1.612516046e-01
              0    1.103357971e-01    1.614276320e-01
              0    1.097948775e-01    1.618002355e-01
              0    1.097300053e-01    1.619556397e-01
              0    1.094528660e-01    1.622108221e-01
              0    1.091411933e-01    1.624254733e-01
              0    1.085144728e-01    1.628680825e-01
              0    1.083285213e-01    1.628573090e-01
              0    1.081968397e-01    1.630924791e-01
              0    1.079054475e-01    1.633829176e-01
              0    1.075145006e-01    1.635565907e-01
              0    1.069785506e-01    1.640458852e-01
              0    1.068032756e-01    1.641530395e-01
              0    1.062996089e-01    1.643277407e-01
              0    1.063077822e-01    1.643960774e-01
              0    1.060666889e-01    1.646111459e-01
              0    1.055580750e-01    1.649055481e-01
              0    1.051505506e-01    1.652153283e-01
              0    1.049119458e-01    1.654625833e-01
              0    1.047059298e-01    1.655908376e-01
              0    1.045785397e-01    1.657516956e-01
              0    1.038996428e-01    1.661695093e-01
              0    1.036229134e-01    1.663588434e-01
              0    1.030764654e-01    1.667465121e-01
              0    1.029111892e-01    1.669280827e-01
              0    1.027450338e-01    1.670329720e-01
              0    1.024415120e-01    1.671572626e-01
              0    1.020116210e-01    1.674238443e-01
              0    1.017402187e-01    1.677016020e-01
              0    1.017005295e-01    1.677566618e-01
              0    1.013079658e-01    1.680014431e-01
              0    1.008574143e-01    1.683603227e-01
              0    1.006157622e-01    1.684809625e-01
              0    1.001588404e-01    1.687582284e-01
              0    9.990894794e-02    1.690154523e-01
              0    9.964773059e-02    1.691330671e-01
              0    9.911180288e-02    1.693927944e-01
              0    9.887846559e-02    1.696388721e-01
              0    9.845070541e-02    1.698243320e-01
              0    9.811951220e-02    1.701296568e-01
              0    9.789971262e-02    1.702276915e-01
              0    9.757577628e-02    1.703033894e-01
              0    9.722249955e-02    1.705729365e-01
              0    9.663442522e-02    1.710621417e-01
              0    9.645139426e-02    1.711082309e-01
              0    9.643116593e-02    1.711841971e-01
              0    9.587225318e-02    1.715470701e-01
              0    9.549536556e-02    1.716032773e-01
              0    9.515982866e-02    1.718239188e-01
              0    9.502881020e-02    1.719807982e-01
              0    9.429939091e-02    1.723163873e-01
              0    9.414891899e-02    1.724578589e-01
              0    9.377799928e-02    1.728333235e-01
              0    9.347697347e-02    1.729726940e-01
              0    9.360892326e-02    1.727343947e-01
              0    9.249492735e-02    1.735122204e-01
              0    9.251878411e-02    1.734201908e-01
              0    9.226825833e-02    1.735935956e-01
              0    9.189043939e-02    1.739052087e-01
              0    9.165015817e-02    1.739335209e-01
              0    9.131167829e-02    1.741283983e-01
              0    9.081114084e-02    1.745528728e-01
              0    9.056814760e-02    1.745738536e-01
              0    9.013747424e-02    1.748923063e-01
              0    9.000879526e-02    1.750869304e-01
              0    9.017498791e-02    1.749208570e-01
              0    8.882024139e-02    1.756142229e-01
              0    8.876375854e-02    1.755856425e-01
              0    8.875755221e-02    1.756045967e-01
              0    8.801695704e-02    1.760267466e-01
              0    8.818450570e-02    1.758646518e-01
              0    8.713270724e-02    1.763665676e-01
              0    8.726990223e-02    1.765178591e-01
              0    8.687660098e-02    1.767591983e-01
              0    8.653177321e-02    1.768524200e-01
              0    8.629085124e-02    1.768899262e-01
              0    8.598093688e-02    1.771162003e-01
              0    8.544117957e-02    1.775232106e-01
              0    8.504765481e-02    1.776787937e-01
              0    8.495308459e-02    1.775555611e-01
              0    8.422724158e-02    1.779630780e-01
              0    8.398620039e-02    1.781124622e-01
              0    8.361148089e-02    1.782683879e-01
              0    8.317598701e-02    1.785941124e-01
              0    8.304958791e-02    1.786567569e-01
              0    8.266927302e-02    1.788039804e-01
              0    8.210273832e-02    1.790711135e-01
              0    8.210429549e-02    1.790659428e-01
              0    8.160371333e-02    1.793342978e-01
              0    8.130325377e-02    1.793645173e-01
              0    8.090544492e-02    1.795980781e-01
     2525750000   -4.000613987e-01    4.480833411e-01
     2526500000   -4.402664900e-01    4.092653394e-01
     2527250000   -4.765267968e-01    3.660323024e-01
     2528000000   -5.088928342e-01    3.193509579e-01
     2528750000   -5.365192890e-01    2.693755031e-01
     2529500000   -5.601271391e-01    2.188420296e-01
     2530250000   -5.771328807e-01    1.661896855e-01
     2531000000   -5.911063552e-01    1.096292585e-01
     2531750000   -5.982657671e-01    5.574228615e-02
     2532500000   -6.004127860e-01   -2.012038567e-05
     2533250000   -5.982083082e-01   -5.593418330e-02
     2534000000   -5.895083547e-01   -1.138788089e-01
     2534750000   -5.768257380e-01   -1.670696437e-01
     2535500000   -5.569811463e-01   -2.218853384e-01
     2536250000   -5.346522927e-01   -2.720052302e-01
     2537000000   -5.060750842e-01   -3.210243285e-01
     2537750000   -4.738146067e-01   -3.666911125e-01
     2538500000   -4.380874336e-01   -4.093919098e-01
     2539250000   -3.972578049e-01   -4.473308623e-01
     2540000000   -3.533589244e-01   -4.836407304e-01
     2540750000   -3.070456088e-01   -5.136404634e-01
     2541500000   -2.566868365e-01   -5.400745273e-01
     2542250000   -2.046066076e-01   -5.618489981e-01
     2543000000   -1.503375322e-01   -5.781258345e-01
     2543750000   -9.624397010e-02   -5.895002484e-01
     2544500000   -3.984219581e-02   -5.955021381e-01
     2545250000    1.616652124e-02   -5.963577628e-01
     2546000000    7.186087966e-02   -5.920130610e-01
     2546750000    1.268057376e-01   -5.829063654e-01
     2547500000    1.818937063e-01   -5.683254600e-01
     2548250000    2.341799736e-01   -5.483535528e-01
     2549000000    2.850805521e-01   -5.230362415e-01
     2549750000    3.331274092e-01   -4.944354594e-01
     2550500000    3.771741390e-01   -4.609485865e-01
     2551250000    4.195996821e-01   -4.219888747e-01
     2552000000    4.567368329e-01   -3.803275526e-01
     2552750000    4.891540706e-01   -3.399299085e-01
     2553500000    5.188062787e-01   -2.892255187e-01
     2554250000    5.439765453e-01   -2.397623509e-01
     2555000000    5.640447140e-01   -1.860390306e-01
     2555750000    5.788232684e-01   -1.327696890e-01
     2556500000    5.883991122e-01   -7.804405689e-02
     2557250000    5.928247571e-01   -2.619348280e-02
     2558000000    5.923635364e-01    3.103990108e-02
     2558750000    5.856487155e-01    8.698823303e-02
     2559500000    5.733080506e-01    1.450897157e-01
     2560250000    5.584906340e-01    1.962058842e-01
     2561000000    5.384730697e-01    2.456065565e-01
     2561750000    5.084223151e-01    3.005168140e-01
     2562500000    4.816946387e-01    3.430525661e-01
     2563250000    4.478288591e-01    3.852258325e-01
     2564000000    4.070942104e-01    4.272644222e-01
     2564750000    3.646878600e-01    4.629700482e-01
     2565500000    3.200806975e-01    4.954757988e-01
     2566250000    2.732863426e-01    5.229961276e-01
     2567000000    2.197606266e-01    5.472857952e-01
     2567750000    1.685838848e-01    5.646675229e-01
     2568500000    1.164062247e-01    5.778358579e-01
     2569250000    5.980066955e-02    5.862661600e-01
     2570000000    3.412344260e-03    5.887473822e-01
     2570750000   -5.084633455e-02    5.866730213e-01
     2571500000   -1.056475788e-01    5.784603953e-01
     2572250000   -1.591264904e-01    5.660074949e-01
     2573000000   -2.119527608e-01    5.482457280e-01
     2573750000   -2.639327049e-01    5.250079632e-01
     2574500000   -3.125815094e-01    4.977776110e-01
     2575250000   -3.573010564e-01    4.664266109e-01
     2576000000   -4.014738798e-01    4.285880327e-01
     2576750000   -4.395299852e-01    3.909598887e-01
     2577500000   -4.728932977e-01    3.474133611e-01
     2578250000   -5.038057566e-01    3.021982610e-01
     2579000000   -5.301007032e-01    2.519383729e-01
     2579750000   -5.516264439e-01    2.016978264e-01
     2580500000   -5.681735873e-01    1.506032646e-01
     2581250000   -5.799023509e-01    9.446968138e-02
     2582000000   -5.858277678e-01    3.954011202e-02
     2582750000   -5.872820020e-01   -1.776286028e-02
     2583500000   -5.836474299e-01   -7.037886232e-02
     2584250000   -5.741102695e-01   -1.246287152e-01
     2585000000   -5.597429872e-01   -1.784144491e-01
     2585750000   -5.385849476e-01   -2.337399125e-01
     2586500000   -5.165629387e-01   -2.803061008e-01
     2587250000   -4.870579243e-01   -3.279649913e-01
     2588000000   -4.554142058e-01   -3.719868064e-01
     2588750000   -4.166684449e-01   -4.131383598e-01
     2589500000   -3.756345809e-01   -4.504093230e-01
     2590250000   -3.333704174e-01   -4.837526679e-01
     2591000000   -2.860160470e-01   -5.129651427e-01
     2591750000   -2.363595963e-01   -5.371509790e-01
     2592500000   -1.863908172e-01   -5.568885207e-01
     2593250000   -1.314316988e-01   -5.719757676e-01
     2594000000   -7.436943054e-02   -5.819434524e-01
     2594750000   -2.084275149e-02   -5.865677595e-01
     2595500000    3.516981751e-02   -5.860763788e-01
     2596250000    8.979068696e-02   -5.801466703e-01
     2597000000    1.401236653e-01   -5.695767403e-01
     2597750000    1.984570175e-01   -5.517986417e-01
     2598500000    2.469239831e-01   -5.322232246e-01
     2599250000    2.949294448e-01   -5.080828071e-01
     2600000000    3.418506682e-01   -4.781524539e-01
