! NanoVNA-App
! Date: 2026-05-22 15:29:23
! Start: 2.3GHz Stop: 2.6GHz Points: 401
! S-Parameter data: F S11
# Hz S RI R 50
!     Frequency           S11_Real           S11_Imag
     2300000000    4.609565437e-01   -4.553303421e-01
     2300750000    5.027918816e-01   -4.072341621e-01
     2301500000    5.366751552e-01   -3.636749685e-01
     2302250000    5.683021545e-01   -3.091908991e-01
     2303000000    5.955320597e-01   -2.515104711e-01
     2303750000    6.152689457e-01   -1.987785548e-01
     2304500000    6.308933496e-01   -1.366701275e-01
     2305250000    6.405344605e-01   -8.090215921e-02
     2306000000    6.447874308e-01   -1.402092818e-02
     2306750000    6.431444287e-01    4.315005988e-02
     2307500000    6.372523308e-01    1.012620255e-01
     2308250000    6.233724356e-01    1.641749889e-01
     2309000000    6.050135493e-01    2.230449617e-01
     2309750000    5.820072889e-01    2.777132690e-01
     2310500000    5.524334908e-01    3.320968747e-01
              0    1.573183537e-01    1.039381847e-01
     2312000000    4.795819819e-01    4.306626320e-01
     2312750000    4.389776587e-01    4.716630876e-01
     2313500000    3.913673460e-01    5.119733810e-01
     2314250000    3.417769074e-01    5.454528332e-01
     2315000000    2.889600694e-01    5.760085583e-01
     2315750000    2.339409739e-01    6.005869508e-01
     2316500000    1.753233075e-01    6.198643446e-01
     2317250000    1.153955758e-01    6.337748170e-01
     2318000000    5.772865564e-02    6.424729824e-01
     2318750000   -4.075371660e-03    6.446278095e-01
     2319500000   -6.240290031e-02    6.415214539e-01
     2320250000   -1.213988289e-01    6.331177950e-01
     2321000000   -1.842079610e-01    6.181408167e-01
     2321750000   -2.385904342e-01    5.996768475e-01
     2322500000   -2.912665606e-01    5.763185620e-01
     2323250000   -3.448627293e-01    5.446102619e-01
     2324000000   -3.942065239e-01    5.108051896e-01
     2324750000   -4.387275577e-01    4.720442593e-01
     2325500000   -4.816446900e-01    4.274648428e-01
     2326250000   -5.219084024e-01    3.774343133e-01
     2327000000   -5.527840853e-01    3.295083344e-01
     2327750000   -5.795713067e-01    2.783120275e-01
     2328500000   -6.019067168e-01    2.237560898e-01
     2329250000   -6.203985810e-01    1.646198928e-01
     2330000000   -6.324667335e-01    1.024424434e-01
     2330750000   -6.386911273e-01    4.498079792e-02
     2331500000   -6.395115256e-01   -1.431428548e-02
     2332250000   -6.338429451e-01   -7.692507654e-02
     2333000000   -6.247016191e-01   -1.314598769e-01
     2333750000   -6.076709628e-01   -1.917519420e-01
     2334500000   -5.867949128e-01   -2.466144264e-01
     2335250000   -5.595517755e-01   -3.023543358e-01
     2336000000   -5.271977782e-01   -3.547949195e-01
     2336750000   -4.935271144e-01   -3.994177282e-01
     2337500000   -4.528428912e-01   -4.442822933e-01
     2338250000   -4.079855680e-01   -4.848016500e-01
     2339000000   -3.601234853e-01   -5.206170678e-01
     2339750000   -3.099866807e-01   -5.514770150e-01
     2340500000   -2.565464079e-01   -5.783053637e-01
     2341250000   -1.998310685e-01   -5.992633700e-01
     2342000000   -1.428975910e-01   -6.152425408e-01
     2342750000   -8.417372406e-02   -6.254191399e-01
     2343500000   -2.455155365e-02   -6.300339699e-01
     2344250000    3.481051326e-02   -6.294855475e-01
     2345000000    9.561844915e-02   -6.219862700e-01
     2345750000    1.514436007e-01   -6.109412909e-01
     2346500000    2.101452947e-01   -5.935361385e-01
     2347250000    2.641740143e-01   -5.703356266e-01
     2348000000    3.154899478e-01   -5.438240170e-01
     2348750000    3.673218191e-01   -5.101016164e-01
     2349500000    4.120248258e-01   -4.746294022e-01
     2350250000    4.559577703e-01   -4.321901202e-01
     2351000000    4.946783483e-01   -3.856790066e-01
     2351750000    5.278375745e-01   -3.370206058e-01
     2352500000    5.568465590e-01   -2.872489095e-01
     2353250000    5.812094808e-01   -2.371186167e-01
     2354000000    6.010315418e-01   -1.728545725e-01
     2354750000    6.149612069e-01   -1.185576469e-01
     2355500000    6.240018606e-01   -6.363210827e-02
     2356250000    6.262689233e-01   -1.270477893e-03
     2357000000    6.227023005e-01    5.857709795e-02
     2357750000    6.146559119e-01    1.163706258e-01
     2358500000    6.015029550e-01    1.742794812e-01
     2359250000    5.844529867e-01    2.252642810e-01
     2360000000    5.585639477e-01    2.819860876e-01
     2360750000    5.278142095e-01    3.353823125e-01
     2361500000    4.955705106e-01    3.811083138e-01
     2362250000    4.562786222e-01    4.270692468e-01
     2363000000    4.157703519e-01    4.675027132e-01
     2363750000    3.678641915e-01    5.052410960e-01
     2364500000    3.201553226e-01    5.368869305e-01
     2365250000    2.662272155e-01    5.644869208e-01
     2366000000    2.107830793e-01    5.871396065e-01
     2366750000    1.555621773e-01    6.041149497e-01
     2367500000    9.731876105e-02    6.156518459e-01
     2368250000    3.982621431e-02    6.216013432e-01
     2369000000   -1.865298301e-02    6.228007674e-01
     2369750000   -7.789808512e-02    6.181821823e-01
     2370500000   -1.362012476e-01    6.075552106e-01
     2371250000   -1.947621554e-01    5.910933018e-01
     2372000000   -2.458649874e-01    5.720079541e-01
     2372750000   -2.990093529e-01    5.464902520e-01
     2373500000   -3.504449427e-01    5.140874386e-01
     2374250000   -3.968995214e-01    4.785985649e-01
     2375000000   -4.405653179e-01    4.384613931e-01
     2375750000   -4.799197316e-01    3.938091993e-01
     2376500000   -5.138511658e-01    3.497534096e-01
     2377250000   -5.460856557e-01    2.954602838e-01
     2378000000   -5.710887909e-01    2.431915700e-01
     2378750000   -5.916028619e-01    1.900156140e-01
     2379500000   -6.074026227e-01    1.297442466e-01
     2380250000   -6.166539192e-01    7.290689647e-02
     2381000000   -6.214852333e-01    2.010176703e-02
     2381750000   -6.195592284e-01   -4.393724725e-02
     2382500000   -6.116219759e-01   -1.033614352e-01
     2383250000   -6.006144285e-01   -1.607190073e-01
     2384000000   -5.837835073e-01   -2.143610120e-01
     2384750000   -5.618301630e-01   -2.670141160e-01
     2385500000   -5.318706036e-01   -3.227681518e-01
     2386250000   -5.014982820e-01   -3.694484234e-01
     2387000000   -4.609114230e-01   -4.171849489e-01
     2387750000   -4.223062098e-01   -4.573667049e-01
     2388500000   -3.801322877e-01   -4.944947064e-01
     2389250000   -3.278362155e-01   -5.291687846e-01
     2390000000   -2.791362405e-01   -5.566660762e-01
     2390750000   -2.239605188e-01   -5.813642740e-01
     2391500000   -1.666252017e-01   -5.998802185e-01
     2392250000   -1.152528152e-01   -6.121493578e-01
     2393000000   -5.000424013e-02   -6.201114058e-01
     2393750000    3.876248142e-03   -6.235078573e-01
     2394500000    6.460111588e-02   -6.187819242e-01
     2395250000    1.232500672e-01   -6.104253531e-01
     2396000000    1.802963763e-01   -5.955678821e-01
     2396750000    2.349921763e-01   -5.768721104e-01
     2397500000    2.882029712e-01   -5.519617796e-01
     2398250000    3.392156363e-01   -5.225846171e-01
     2399000000    3.880545199e-01   -4.876115024e-01
     2399750000    4.327775836e-01   -4.487162828e-01
     2400500000    4.727989733e-01   -4.073825777e-01
     2401250000    5.107042193e-01   -3.587016463e-01
     2402000000    5.409846902e-01   -3.117486238e-01
     2402750000    5.682098866e-01   -2.604228258e-01
     2403500000    5.911616683e-01   -2.019180804e-01
     2404250000    6.074723601e-01   -1.464782059e-01
     2405000000    6.192826629e-01   -9.024060518e-02
     2405750000    6.252384186e-01   -3.146799654e-02
     2406500000    6.256773472e-01    2.558895200e-02
     2407250000    6.200771332e-01    8.638240397e-02
     2408000000    6.085215211e-01    1.463607550e-01
     2408750000    5.936532021e-01    2.010945231e-01
     2409500000    5.716131926e-01    2.571931779e-01
     2410250000    5.461620092e-01    3.088692129e-01
     2411000000    5.148600340e-01    3.587606549e-01
     2411750000    4.797239304e-01    4.053202271e-01
     2412500000    4.369274080e-01    4.506552517e-01
     2413250000    3.930211961e-01    4.892710149e-01
     2414000000    3.472034037e-01    5.240560770e-01
     2414750000    2.958493829e-01    5.548934340e-01
     2415500000    2.419222593e-01    5.803214908e-01
     2416250000    1.871474385e-01    6.003531814e-01
     2417000000    1.298334897e-01    6.156697273e-01
     2417750000    7.074351609e-02    6.248607635e-01
     2418500000    1.143912785e-02    6.292614937e-01
     2419250000   -4.835003614e-02    6.270867586e-01
     2420000000   -1.053861603e-01    6.210545897e-01
     2420750000   -1.656973064e-01    6.076334715e-01
     2421500000   -2.208951265e-01    5.900898576e-01
     2422250000   -2.760145068e-01    5.661518574e-01
     2423000000   -3.278218806e-01    5.389587283e-01
     2423750000   -3.761813641e-01    5.073263049e-01
     2424500000   -4.245103300e-01    4.673298895e-01
     2425250000   -4.651479125e-01    4.281641543e-01
     2426000000   -5.051140189e-01    3.799103796e-01
     2426750000   -5.388895869e-01    3.310050070e-01
     2427500000   -5.683616996e-01    2.782554626e-01
     2428250000   -5.914478302e-01    2.271625847e-01
     2429000000   -6.104850769e-01    1.720295548e-01
     2429750000   -6.243974566e-01    1.086249873e-01
     2430500000   -6.320587993e-01    5.589038506e-02
     2431250000   -6.351528168e-01   -4.697567318e-03
     2432000000   -6.320819855e-01   -6.500222534e-02
     2432750000   -6.223193407e-01   -1.265062988e-01
     2433500000   -6.080237031e-01   -1.831530780e-01
     2434250000   -5.920946598e-01   -2.343818992e-01
     2435000000   -5.629172921e-01   -2.950239778e-01
     2435750000   -5.357862115e-01   -3.441070616e-01
     2436500000   -5.004937649e-01   -3.937264979e-01
     2437250000   -4.642995298e-01   -4.375412166e-01
     2438000000   -4.202578664e-01   -4.795490801e-01
     2438750000   -3.741551042e-01   -5.165557861e-01
     2439500000   -3.230029047e-01   -5.503588319e-01
     2440250000   -2.697429657e-01   -5.787391663e-01
     2441000000   -2.139766663e-01   -6.010133624e-01
     2441750000   -1.573662758e-01   -6.181589961e-01
     2442500000   -1.011121348e-01   -6.304471493e-01
     2443250000   -3.821823001e-02   -6.371803284e-01
     2444000000    2.121128887e-02   -6.377230287e-01
     2444750000    7.967651635e-02   -6.338880658e-01
     2445500000    1.393222958e-01   -6.235120296e-01
     2446250000    1.965500861e-01   -6.072567701e-01
     2447000000    2.505740225e-01   -5.877678394e-01
     2447750000    3.046278059e-01   -5.615018606e-01
     2448500000    3.563231826e-01   -5.299336314e-01
     2449250000    4.050131738e-01   -4.940928519e-01
     2450000000    4.491547942e-01   -4.545818567e-01
     2450750000    4.896842837e-01   -4.089949727e-01
     2451500000    5.251955986e-01   -3.627844751e-01
     2452250000    5.574591160e-01   -3.104936182e-01
     2453000000    5.836542249e-01   -2.577074468e-01
     2453750000    6.054016352e-01   -2.004167438e-01
     2454500000    6.210018396e-01   -1.446537822e-01
     2455250000    6.320042014e-01   -8.481454104e-02
     2456000000    6.374089122e-01   -2.556898631e-02
     2456750000    6.373099685e-01    3.496719524e-02
     2457500000    6.312208176e-01    9.303002805e-02
     2458250000    6.201074719e-01    1.498967707e-01
     2459000000    6.021208763e-01    2.111041099e-01
     2459750000    5.810506344e-01    2.648308575e-01
     2460500000    5.524222851e-01    3.199566901e-01
     2461250000    5.217064619e-01    3.684548140e-01
     2462000000    4.834528565e-01    4.175568223e-01
     2462750000    4.399766028e-01    4.621786773e-01
     2463500000    3.991766572e-01    4.987717867e-01
     2464250000    3.481302857e-01    5.348791480e-01
     2465000000    2.979225516e-01    5.651770830e-01
     2465750000    2.439175695e-01    5.907875299e-01
     2466500000    1.888629049e-01    6.104683280e-01
     2467250000    1.299979240e-01    6.251999736e-01
     2468000000    6.791812181e-02    6.339467764e-01
     2468750000    1.421608683e-02    6.382864118e-01
     2469500000   -4.999814555e-02    6.358856559e-01
     2470250000   -1.082565859e-01    6.287422776e-01
     2471000000   -1.667806506e-01    6.156244874e-01
     2471750000   -2.196292281e-01    5.995112658e-01
     2472500000   -2.758091688e-01    5.754382610e-01
     2473250000   -3.301449716e-01    5.458774567e-01
     2474000000   -3.797924817e-01    5.118987560e-01
     2474750000   -4.272141457e-01    4.733597636e-01
     2475500000   -4.684563279e-01    4.326106608e-01
     2476250000   -5.073056221e-01    3.847026825e-01
     2477000000   -5.408889055e-01    3.360463977e-01
     2477750000   -5.693816543e-01    2.835991085e-01
     2478500000   -5.929737687e-01    2.312959731e-01
     2479250000   -6.115933657e-01    1.726585478e-01
     2480000000   -6.248418689e-01    1.115539223e-01
     2480750000   -6.330046654e-01    5.830818042e-02
     2481500000   -6.355078220e-01   -2.691622591e-03
     2482250000   -6.317554712e-01   -6.356248260e-02
     2483000000   -6.223375201e-01   -1.228656247e-01
     2483750000   -6.078082919e-01   -1.803537160e-01
     2484500000   -5.885018110e-01   -2.363700122e-01
     2485250000   -5.627295375e-01   -2.908844948e-01
     2486000000   -5.334209204e-01   -3.413007259e-01
     2486750000   -4.982211292e-01   -3.900724947e-01
     2487500000   -4.596331418e-01   -4.346604347e-01
     2488250000   -4.163240790e-01   -4.767079651e-01
     2489000000   -3.693234622e-01   -5.131109357e-01
     2489750000   -3.178083897e-01   -5.463434458e-01
     2490500000   -2.686814368e-01   -5.720185637e-01
     2491250000   -2.114013731e-01   -5.950933099e-01
     2492000000   -1.519148499e-01   -6.125962138e-01
     2492750000   -9.544663876e-02   -6.231039762e-01
     2493500000   -3.830280900e-02   -6.298071742e-01
     2494250000    2.465671673e-02   -6.300836205e-01
     2495000000    8.051306009e-02   -6.260856390e-01
     2495750000    1.398284137e-01   -6.154332161e-01
     2496500000    2.008318603e-01   -5.978603959e-01
     2497250000    2.545131147e-01   -5.769916773e-01
     2498000000    3.027332127e-01   -5.535957217e-01
     2498750000    3.588437736e-01   -5.183933377e-01
     2499500000    4.037289619e-01   -4.849687517e-01
     2500250000    4.477737248e-01   -4.445479810e-01
     2501000000    4.886945188e-01   -3.974071145e-01
     2501750000    5.237261057e-01   -3.502877951e-01
     2502500000    5.549077988e-01   -3.013505638e-01
     2503250000    5.800656676e-01   -2.511313260e-01
     2504000000    6.014444828e-01   -1.900465935e-01
     2504750000    6.167944670e-01   -1.348790079e-01
     2505500000    6.268497109e-01   -7.815784216e-02
     2506250000    6.304163933e-01   -1.908997819e-02
     2507000000    6.301149726e-01    4.322704300e-02
     2507750000    6.223554611e-01    1.019665822e-01
     2508500000    6.123045683e-01    1.560291499e-01
     2509250000    5.932615399e-01    2.157729566e-01
     2510000000    5.689273477e-01    2.698498070e-01
     2510750000    5.407496691e-01    3.233787417e-01
     2511500000    5.094348192e-01    3.708933294e-01
     2512250000    4.715245366e-01    4.170426428e-01
     2513000000    4.313905835e-01    4.589566290e-01
     2513750000    3.849098384e-01    4.968655407e-01
     2514500000    3.370746672e-01    5.309783220e-01
     2515250000    2.818752527e-01    5.618215203e-01
     2516000000    2.299845070e-01    5.852874517e-01
     2516750000    1.731257439e-01    6.037173271e-01
     2517500000    1.155509725e-01    6.178587079e-01
     2518250000    5.649135262e-02    6.254583001e-01
     2519000000   -8.359361673e-04    6.289849877e-01
     2519750000   -6.162825227e-02    6.258761287e-01
     2520500000   -1.216192916e-01    6.166905761e-01
     2521250000   -1.786570251e-01    6.030665040e-01
     2522000000   -2.363546938e-01    5.831208825e-01
     2522750000   -2.886084914e-01    5.592135191e-01
     2523500000   -3.415661454e-01    5.284547806e-01
     2524250000   -3.895490170e-01    4.943124354e-01
     2525000000   -4.331731200e-01    4.579911530e-01
     2525750000   -4.753077030e-01    4.140405059e-01
     2526500000   -5.124846101e-01    3.672685325e-01
     2527250000   -5.449889302e-01    3.164695799e-01
     2528000000   -5.724966526e-01    2.668106854e-01
     2528750000   -5.950218439e-01    2.115775347e-01
     2529500000   -6.129369736e-01    1.543918997e-01
     2530250000   -6.244696975e-01    9.443173558e-02
     2531000000   -6.315268278e-01    3.717984632e-02
     2531750000   -6.317966580e-01   -2.312334068e-02
     2532500000   -6.269097924e-01   -8.229348063e-02
     2533250000   -6.168678999e-01   -1.402643472e-01
     2534000000   -6.017592549e-01   -1.985391378e-01
     2534750000   -5.808084011e-01   -2.533580363e-01
     2535500000   -5.530498028e-01   -3.076478243e-01
     2536250000   -5.235532522e-01   -3.581395447e-01
     2537000000   -4.870733023e-01   -4.052275419e-01
     2537750000   -4.471205473e-01   -4.495089352e-01
     2538500000   -4.037326872e-01   -4.885966182e-01
     2539250000   -3.546082079e-01   -5.242263079e-01
     2540000000   -3.050596416e-01   -5.551970601e-01
     2540750000   -2.507326305e-01   -5.819271207e-01
     2541500000   -1.940219849e-01   -6.030957103e-01
     2542250000   -1.378365606e-01   -6.188823581e-01
     2543000000   -7.586408406e-02   -6.285800934e-01
     2543750000   -1.996673457e-02   -6.336791515e-01
     2544500000    4.112432897e-02   -6.318817735e-01
     2545250000    9.957769513e-02   -6.263420582e-01
     2546000000    1.586189270e-01   -6.140978932e-01
     2546750000    2.135463208e-01   -5.974038839e-01
     2547500000    2.696202099e-01   -5.744209886e-01
     2548250000    3.243555725e-01   -5.459895134e-01
     2549000000    3.732767701e-01   -5.133386850e-01
     2549750000    4.228802025e-01   -4.737315476e-01
     2550500000    4.628674388e-01   -4.350048304e-01
     2551250000    5.035623908e-01   -3.869601190e-01
     2552000000    5.357930064e-01   -3.436513245e-01
     2552750000    5.672400594e-01   -2.862361968e-01
     2553500000    5.910488367e-01   -2.354981154e-01
     2554250000    6.108614802e-01   -1.755002439e-01
     2555000000    6.240418553e-01   -1.240338311e-01
     2555750000    6.340086460e-01   -5.943442136e-02
     2556500000    6.361578107e-01   -7.882189238e-04
     2557250000    6.321442723e-01    6.086665764e-02
     2558000000    6.248435974e-01    1.186485440e-01
     2558750000    6.127146482e-01    1.734807342e-01
     2559500000    5.923047066e-01    2.324279249e-01
     2560250000    5.663939118e-01    2.901102304e-01
     2561000000    5.392791033e-01    3.387862444e-01
     2561750000    5.025737286e-01    3.912648857e-01
     2562500000    4.641675353e-01    4.357529581e-01
     2563250000    4.233495891e-01    4.762266278e-01
     2564000000    3.768599331e-01    5.149953961e-01
     2564750000    3.256149292e-01    5.480355024e-01
     2565500000    2.719049454e-01    5.758706331e-01
     2566250000    2.226925194e-01    5.995156169e-01
     2567000000    1.583822817e-01    6.183708310e-01
     2567750000    1.024838164e-01    6.310502291e-01
     2568500000    4.226477817e-02    6.383966208e-01
     2569250000   -1.935018227e-02    6.392416954e-01
     2570000000   -7.719858736e-02    6.354455352e-01
     2570750000   -1.367017180e-01    6.256584525e-01
     2571500000   -1.939208955e-01    6.094402075e-01
     2572250000   -2.507468164e-01    5.891658068e-01
     2573000000   -3.064467013e-01    5.629914403e-01
     2573750000   -3.570086360e-01    5.323028564e-01
     2574500000   -4.052598774e-01    4.955790341e-01
     2575250000   -4.513733387e-01    4.549745619e-01
     2576000000   -4.925495088e-01    4.095798135e-01
     2576750000   -5.287624598e-01    3.632502258e-01
     2577500000   -5.602364540e-01    3.129353821e-01
     2578250000   -5.874146819e-01    2.583012283e-01
     2579000000   -6.098998189e-01    2.024005651e-01
     2579750000   -6.257582307e-01    1.450023949e-01
     2580500000   -6.366800666e-01    8.631839603e-02
     2581250000   -6.423041821e-01    2.293021791e-02
     2582000000   -6.417403221e-01   -3.499256819e-02
     2582750000   -6.357095242e-01   -9.620290995e-02
     2583500000   -6.245169640e-01   -1.558723450e-01
     2584250000   -6.075931787e-01   -2.130427957e-01
     2585000000   -5.833176374e-01   -2.708816826e-01
     2585750000   -5.569179654e-01   -3.235657215e-01
     2586500000   -5.256002545e-01   -3.729777932e-01
     2587250000   -4.861611724e-01   -4.224630892e-01
     2588000000   -4.470196664e-01   -4.657300711e-01
     2588750000   -3.975787461e-01   -5.072762966e-01
     2589500000   -3.505233824e-01   -5.414364934e-01
     2590250000   -2.971129417e-01   -5.734480619e-01
     2591000000   -2.463984489e-01   -5.985876322e-01
     2591750000   -1.855300367e-01   -6.191182137e-01
     2592500000   -1.293285638e-01   -6.337366700e-01
     2593250000   -6.699541211e-02   -6.431624293e-01
     2594000000   -5.823652726e-03   -6.468369961e-01
     2594750000    5.229676515e-02   -6.449564099e-01
     2595500000    1.134965271e-01   -6.384174228e-01
     2596250000    1.740236282e-01   -6.245495677e-01
     2597000000    2.301549613e-01   -6.067022085e-01
     2597750000    2.846376896e-01   -5.836407542e-01
     2598500000    3.433814347e-01   -5.503537059e-01
     2599250000    3.898815811e-01   -5.204984546e-01
     2600000000    4.367785454e-01   -4.814481139e-01
