! NanoVNA-App
! Date: 2026-05-22 15:33:02
! Start: 4.8GHz Stop: 0Hz Points: 401
! S-Parameter data: F S11
# Hz S RI R 50
!     Frequency           S11_Real           S11_Imag
     4800000000    6.438974142e-01    8.305475861e-02
     4803000000    5.706463456e-01    3.130204678e-01
     4806000000    4.189655483e-01    5.006247759e-01
     4809000000    2.021168023e-01    6.191974282e-01
     4812000000   -3.462311625e-02    6.555005312e-01
     4815000000   -2.759418488e-01    5.963814259e-01
     4818000000   -4.770874083e-01    4.533948600e-01
     4821000000   -6.114811301e-01    2.473870665e-01
     4824000000   -6.608043909e-01    8.506024256e-03
     4827000000   -6.196109653e-01   -2.344608158e-01
     4830000000   -4.919179380e-01   -4.446873367e-01
     4833000000   -2.951211333e-01   -5.956304669e-01
     4836000000   -5.623134971e-02   -6.632416844e-01
     4839000000    1.891641617e-01   -6.396657228e-01
     4842000000    4.116096795e-01   -5.270995498e-01
     4845000000    5.780979395e-01   -3.374890983e-01
     4848000000    6.622914076e-01   -1.055341586e-01
     4851000000    6.558917761e-01    1.455208063e-01
     4854000000    5.558604002e-01    3.779025674e-01
     4857000000    3.840372860e-01    5.528449416e-01
     4860000000    1.528666466e-01    6.562083364e-01
     4863000000   -9.562984854e-02    6.700325608e-01
     4866000000   -3.350548148e-01    5.880139470e-01
     4869000000   -5.277375579e-01    4.286728203e-01
     4872000000   -6.488222480e-01    2.034835219e-01
     4875000000   -6.775690317e-01   -5.096346885e-02
     4878000000   -6.145235300e-01   -2.936150730e-01
     4881000000   -4.665899575e-01   -4.967404306e-01
     4884000000   -2.539739013e-01   -6.335662007e-01
     4887000000   -1.778263133e-03   -6.834556460e-01
     4890000000    2.469953746e-01   -6.376369596e-01
     4893000000    4.628984928e-01   -5.037719607e-01
     4896000000    6.160718799e-01   -2.997198105e-01
     4899000000    6.831261516e-01   -5.463165790e-02
     4902000000    6.556355953e-01    2.000063956e-01
     4905000000    5.384728312e-01    4.249031842e-01
     4908000000    3.467924297e-01    5.921001434e-01
     4911000000    1.052436084e-01    6.783187985e-01
     4914000000   -1.495332867e-01    6.697326899e-01
     4917000000   -3.836877048e-01    5.690706968e-01
     4920000000   -5.668572783e-01    3.869535029e-01
     4923000000   -6.685321331e-01    1.567867845e-01
     4926000000   -6.789551973e-01   -1.011210829e-01
     4929000000   -5.963187218e-01   -3.375754058e-01
     4932000000   -4.268642366e-01   -5.353336334e-01
     4935000000   -2.047807723e-01   -6.536839604e-01
     4938000000    4.288780689e-02   -6.837240458e-01
     4941000000    2.953907251e-01   -6.175177693e-01
     4944000000    5.012902617e-01   -4.655329585e-01
     4947000000    6.332467794e-01   -2.562043965e-01
     4950000000    6.834432483e-01   -4.163525999e-03
     4953000000    6.359788775e-01    2.483962774e-01
     4956000000    5.010421872e-01    4.613629580e-01
     4959000000    3.010196984e-01    6.097695827e-01
     4962000000    5.516529083e-02    6.774486899e-01
     4965000000   -1.964444667e-01    6.486268640e-01
     4968000000   -4.188179672e-01    5.316314697e-01
     4971000000   -5.824790597e-01    3.415226936e-01
     4974000000   -6.661006808e-01    1.033507511e-01
     4977000000   -6.564885378e-01   -1.528725475e-01
     4980000000   -5.558831692e-01   -3.744803071e-01
     4983000000   -3.776619732e-01   -5.524989367e-01
     4986000000   -1.496281326e-01   -6.509145498e-01
     4989000000    1.032483503e-01   -6.592776179e-01
     4992000000    3.320591152e-01   -5.757206678e-01
     4995000000    5.191856027e-01   -4.130479097e-01
     4998000000    6.345171928e-01   -1.916628778e-01
     5001000000    6.574364901e-01    5.159075558e-02
     5004000000    5.906623602e-01    2.906583846e-01
     5007000000    4.439235330e-01    4.832633734e-01
     5010000000    2.313830405e-01    6.133720279e-01
     5013000000   -1.059022546e-02    6.514734030e-01
     5016000000   -2.476038337e-01    6.030535102e-01
     5019000000   -4.519918561e-01    4.672066569e-01
     5022000000   -5.883813500e-01    2.688754797e-01
     5025000000   -6.463148594e-01    3.213509545e-02
     5028000000   -6.106008291e-01   -2.074380815e-01
     5031000000   -4.917238057e-01   -4.156037271e-01
     5034000000   -3.024324477e-01   -5.661610961e-01
     5037000000   -7.435957342e-02   -6.353277564e-01
     5040000000    1.672414392e-01   -6.173232198e-01
     5043000000    3.824161589e-01   -5.122691393e-01
     5046000000    5.392429829e-01   -3.355615437e-01
     5049000000    6.248987913e-01   -1.123344153e-01
     5052000000    6.215941906e-01    1.292944849e-01
     5055000000    5.294113159e-01    3.432732224e-01
     5058000000    3.642420471e-01    5.165420771e-01
     5061000000    1.490085721e-01    6.122514606e-01
     5064000000   -8.661089838e-02    6.223510504e-01
     5067000000   -3.094762862e-01    5.465165377e-01
     5070000000   -4.858338237e-01    3.935224414e-01
     5073000000   -5.990332365e-01    1.850269735e-01
     5076000000   -6.226170659e-01   -4.680672288e-02
     5079000000   -5.598374605e-01   -2.727212906e-01
     5082000000   -4.197314382e-01   -4.607500434e-01
     5085000000   -2.190410495e-01   -5.815269947e-01
     5088000000    9.393977001e-03   -6.196781397e-01
     5091000000    2.367566228e-01   -5.719078183e-01
     5094000000    4.332105815e-01   -4.434577525e-01
     5097000000    5.611459613e-01   -2.535494268e-01
     5100000000    6.165590882e-01   -2.593229152e-02
     5103000000    5.825462341e-01    2.040078789e-01
     5106000000    4.687409997e-01    4.010102749e-01
     5109000000    2.853110731e-01    5.455414057e-01
     5112000000    6.941120327e-02    6.081728935e-01
     5115000000   -1.623791009e-01    5.909297466e-01
     5118000000   -3.716600239e-01    4.908332825e-01
     5121000000   -5.208177567e-01    3.180109560e-01
     5124000000   -6.008550525e-01    1.037580371e-01
     5127000000   -5.906001329e-01   -1.222065091e-01
     5130000000   -5.050309300e-01   -3.344268501e-01
     5133000000   -3.450682163e-01   -4.955022037e-01
     5136000000   -1.392795742e-01   -5.860460997e-01
     5139000000    9.105696529e-02   -5.983266830e-01
     5142000000    3.034757078e-01   -5.221120119e-01
     5145000000    4.727342725e-01   -3.706325293e-01
     5148000000    5.731754899e-01   -1.726385802e-01
     5151000000    5.994505286e-01    5.427323282e-02
     5154000000    5.349654555e-01    2.688621879e-01
     5157000000    3.977325559e-01    4.446519017e-01
     5160000000    2.038288862e-01    5.596077442e-01
     5163000000   -1.687921397e-02    5.934450030e-01
     5166000000   -2.349103391e-01    5.439873338e-01
     5169000000   -4.175131023e-01    4.187952578e-01
     5172000000   -5.429790616e-01    2.322635502e-01
     5175000000   -5.906446576e-01    1.471999567e-02
     5178000000   -5.510484576e-01   -2.025437355e-01
     5181000000   -4.381389916e-01   -3.931565881e-01
     5184000000   -2.629370093e-01   -5.251751542e-01
     5187000000   -5.092690140e-02   -5.815834999e-01
     5190000000    1.681485623e-01   -5.563973784e-01
     5193000000    3.661029339e-01   -4.558665454e-01
     5196000000    5.134963989e-01   -2.890015543e-01
     5199000000    5.737648010e-01   -7.941800356e-02
     5202000000    5.628052950e-01    1.342627853e-01
     5205000000    4.745816588e-01    3.424691558e-01
     5208000000    3.135884404e-01    4.898129702e-01
     5211000000    1.083666682e-01    5.748981833e-01
     5214000000   -1.092937216e-01    5.730390549e-01
     5217000000   -3.142137825e-01    4.909372628e-01
     5220000000   -4.762773514e-01    3.399178684e-01
     5223000000   -5.643829703e-01    1.422121078e-01
     5226000000   -5.766726136e-01   -7.867702097e-02
     5229000000   -5.089952350e-01   -2.866457105e-01
     5232000000   -3.666242361e-01   -4.554508626e-01
     5235000000   -1.747367084e-01   -5.571764708e-01
     5238000000    4.480066523e-02   -5.847297311e-01
     5241000000    2.616668642e-01   -5.282500386e-01
     5244000000    4.341920316e-01   -3.945311010e-01
     5247000000    5.550157428e-01   -2.061322182e-01
     5250000000    5.866798162e-01    7.941594347e-03
     5253000000    5.462869406e-01    2.297099233e-01
     5256000000    4.238577485e-01    4.118260741e-01
     5259000000    2.454283834e-01    5.344451666e-01
     5262000000    2.833654918e-02    5.871146917e-01
     5265000000   -1.893002242e-01    5.576979518e-01
     5268000000   -3.870397508e-01    4.525816441e-01
     5271000000   -5.196435452e-01    2.777369916e-01
     5274000000   -5.915092230e-01    6.356175989e-02
     5277000000   -5.690618157e-01   -1.499864608e-01
     5280000000   -4.744055867e-01   -3.530091941e-01
     5283000000   -3.107121587e-01   -5.013212562e-01
     5286000000   -1.036762819e-01   -5.804981589e-01
     5289000000    1.184891388e-01   -5.800408125e-01
     5292000000    3.198577762e-01   -4.953494966e-01
     5295000000    4.800498486e-01   -3.415965736e-01
     5298000000    5.715596676e-01   -1.403898299e-01
     5301000000    5.842463374e-01    8.004120737e-02
     5304000000    5.124693513e-01    2.884004116e-01
     5307000000    3.698516488e-01    4.538480043e-01
     5310000000    1.755335033e-01    5.590174198e-01
     5313000000   -4.431260005e-02    5.834986567e-01
     5316000000   -2.579761147e-01    5.252587795e-01
     5319000000   -4.265644550e-01    3.932290971e-01
     5322000000   -5.452465415e-01    2.067293525e-01
     5325000000   -5.817816257e-01   -9.164649993e-03
     5328000000   -5.386586785e-01   -2.259454429e-01
     5331000000   -4.156627059e-01   -4.056201279e-01
     5334000000   -2.398362905e-01   -5.225807428e-01
     5337000000   -2.491784282e-02   -5.822035074e-01
     5340000000    1.923642308e-01   -5.526100397e-01
     5343000000    3.834534585e-01   -4.401072860e-01
     5346000000    5.205015540e-01   -2.672154307e-01
     5349000000    5.804319382e-01   -5.761112645e-02
     5352000000    5.643717051e-01    1.706601679e-01
     5355000000    4.609898925e-01    3.386623561e-01
     5358000000    2.981122434e-01    5.025229454e-01
     5361000000    8.986511827e-02    5.783545971e-01
     5364000000   -1.210736558e-01    5.613430142e-01
     5367000000   -3.272771835e-01    4.782098532e-01
     5370000000   -4.979721010e-01    3.266857266e-01
     5373000000   -5.641553998e-01    1.336399466e-01
     5376000000   -5.814675689e-01   -9.290356189e-02
     5379000000   -4.990253448e-01   -3.020921946e-01
     5382000000   -3.565776348e-01   -4.579917789e-01
     5385000000   -1.571052670e-01   -5.737778544e-01
     5388000000    6.063561514e-02   -5.869377851e-01
     5391000000    2.484188378e-01   -5.228951573e-01
     5394000000    4.427075684e-01   -3.868728876e-01
     5397000000    5.497501493e-01   -1.950984895e-01
     5400000000    5.796588063e-01    1.479793433e-02
     5403000000    5.372120142e-01    2.352852225e-01
     5406000000    4.118235111e-01    4.142070115e-01
     5409000000    2.337816507e-01    5.362771749e-01
     5412000000    1.578706317e-02    5.863281488e-01
     5415000000   -2.039056420e-01    5.546547174e-01
     5418000000   -3.916237652e-01    4.407223463e-01
     5421000000   -5.268986225e-01    2.661753595e-01
     5424000000   -5.833406448e-01    5.879716948e-02
     5427000000   -5.687485337e-01   -1.730913818e-01
     5430000000   -4.636608064e-01   -3.464176655e-01
     5433000000   -2.931002080e-01   -5.123832822e-01
     5436000000   -9.001512825e-02   -5.763944983e-01
     5439000000    1.388082057e-01   -5.739007592e-01
     5442000000    3.222484887e-01   -4.826263785e-01
     5445000000    5.044962168e-01   -3.221910298e-01
     5448000000    5.745589137e-01   -1.276506931e-01
     5451000000    5.882745385e-01    1.092511341e-01
     5454000000    5.055226088e-01    3.062229156e-01
     5457000000    3.592616320e-01    4.633264542e-01
     5460000000    1.636277884e-01    5.647642612e-01
     5463000000   -6.664554775e-02    5.904567242e-01
     5466000000   -2.520471215e-01    5.214978456e-01
     5469000000   -4.351457059e-01    3.892764449e-01
     5472000000   -5.685318708e-01    1.862144768e-01
     5475000000   -5.820783377e-01   -1.238132268e-02
     5478000000   -5.368170142e-01   -2.358769774e-01
     5481000000   -4.078285098e-01   -4.333715141e-01
     5484000000   -2.388821989e-01   -5.279606581e-01
     5487000000   -3.809884889e-03   -5.947946906e-01
     5490000000    2.109222263e-01   -5.514551997e-01
     5493000000    4.068456292e-01   -4.334862232e-01
     5496000000    5.290651321e-01   -2.597802281e-01
     5499000000    5.738290548e-01   -6.535752863e-02
     5502000000    5.669018030e-01    1.843004823e-01
     5505000000    4.597475231e-01    3.779127896e-01
     5508000000    2.908499837e-01    5.134619474e-01
     5511000000    8.507980406e-02    5.823049545e-01
     5514000000   -1.459110677e-01    5.757935643e-01
     5517000000   -3.314189315e-01    4.827970266e-01
     5520000000   -4.937163293e-01    3.220961988e-01
     5523000000   -5.655743480e-01    1.317632496e-01
     5526000000   -5.851969719e-01   -1.099843532e-01
     5529000000   -5.037866235e-01   -2.931349576e-01
     5532000000   -3.515253961e-01   -4.745951593e-01
     5535000000   -1.488282681e-01   -5.769388676e-01
     5538000000    6.264603138e-02   -5.860576630e-01
     5541000000    2.523559332e-01   -5.217888355e-01
     5544000000    4.650225341e-01   -3.750579059e-01
     5547000000    5.588074923e-01   -1.872879565e-01
     5550000000    5.865662098e-01    2.105909772e-02
     5553000000    5.344585180e-01    2.526409030e-01
     5556000000    4.117586613e-01    4.150419533e-01
     5559000000    2.243329138e-01    5.428824425e-01
     5562000000    3.730449127e-03    5.911893845e-01
     5565000000   -2.178612053e-01    5.513901711e-01
     5568000000   -3.999254704e-01    4.337593317e-01
     5571000000   -5.367258787e-01    2.518954873e-01
     5574000000   -5.841571689e-01    5.320037529e-02
     5577000000   -5.619193316e-01   -1.737767905e-01
     5580000000   -4.532833993e-01   -3.825460374e-01
     5583000000   -2.901813090e-01   -5.121724606e-01
     5586000000   -7.096658647e-02   -5.874504447e-01
     5589000000    1.573472768e-01   -5.768313408e-01
     5592000000    3.310067058e-01   -4.825060368e-01
     5595000000    5.033535957e-01   -3.161549270e-01
     5598000000    5.745807886e-01   -1.288779825e-01
     5601000000    5.854920745e-01    1.182619929e-01
     5604000000    5.063948631e-01    3.070583940e-01
     5607000000    3.492855728e-01    4.847886264e-01
     5610000000    1.476273984e-01    5.779749155e-01
     5613000000   -6.462381035e-02    5.891501904e-01
     5616000000   -2.854975760e-01    5.223267078e-01
     5619000000   -4.563697278e-01    3.800629079e-01
     5622000000   -5.642929077e-01    1.859574914e-01
     5625000000   -5.927568078e-01   -4.181925207e-02
     5628000000   -5.407302380e-01   -2.448352873e-01
     5631000000   -4.065329731e-01   -4.409560859e-01
     5634000000   -2.270653397e-01   -5.454372764e-01
     5637000000    7.547924295e-03   -5.980433226e-01
     5640000000    1.937223375e-01   -5.583072901e-01
     5643000000    4.080848992e-01   -4.363990426e-01
     5646000000    5.401417613e-01   -2.584244907e-01
     5649000000    5.961878300e-01   -3.102542087e-02
     5652000000    5.685544610e-01    1.941918135e-01
     5655000000    4.626358151e-01    3.776334822e-01
     5658000000    2.954461575e-01    5.165551901e-01
     5661000000    6.857807189e-02    5.970647931e-01
     5664000000   -1.500135660e-01    5.780151486e-01
     5667000000   -3.478453755e-01    4.848412573e-01
     5670000000   -5.088242292e-01    3.156519234e-01
     5673000000   -5.777492523e-01    1.293615401e-01
     5676000000   -5.861355662e-01   -1.080082655e-01
     5679000000   -5.058702826e-01   -3.099499345e-01
     5682000000   -3.409883976e-01   -4.888389409e-01
     5685000000   -1.545095742e-01   -5.720540881e-01
     5688000000    8.388451487e-02   -5.926729441e-01
     5691000000    2.789647281e-01   -5.233160853e-01
     5694000000    4.473551214e-01   -3.908296227e-01
     5697000000    5.745399594e-01   -1.709629446e-01
     5700000000    5.915397406e-01    1.699101739e-02
     5703000000    5.367406607e-01    2.532278895e-01
     5706000000    4.211355448e-01    4.114300907e-01
     5709000000    2.164531648e-01    5.509709120e-01
     5712000000   -1.000678632e-03    5.924698114e-01
     5715000000   -2.179962695e-01    5.491986275e-01
     5718000000   -3.999149203e-01    4.310514629e-01
     5721000000   -5.294293165e-01    2.511329651e-01
     5724000000   -5.863540769e-01    3.497772664e-02
     5727000000   -5.591124296e-01   -1.795456111e-01
     5730000000   -4.614739418e-01   -3.609023094e-01
     5733000000   -2.833558917e-01   -5.163591504e-01
     5736000000   -7.076519728e-02   -5.834867358e-01
     5739000000    1.421844363e-01   -5.713791251e-01
     5742000000    3.487850726e-01   -4.747538567e-01
     5745000000    5.002520680e-01   -3.117123246e-01
     5748000000    5.760073066e-01   -1.120801345e-01
     5751000000    5.787804127e-01    1.114710644e-01
     5754000000    4.905137122e-01    3.325383961e-01
     5757000000    3.507640660e-01    4.718509912e-01
     5760000000    1.387401521e-01    5.771977901e-01
     5763000000   -7.770006359e-02    5.886669755e-01
     5766000000   -2.928348482e-01    5.124340057e-01
     5769000000   -4.486557543e-01    3.805653751e-01
     5772000000   -5.672391057e-01    1.727063954e-01
     5775000000   -5.875533819e-01   -3.757963330e-02
     5778000000   -5.432716608e-01   -2.342707515e-01
     5781000000   -3.898000419e-01   -4.449454248e-01
     5784000000   -2.130495608e-01   -5.485414267e-01
     5787000000    1.647028513e-02   -5.890232325e-01
     5790000000    2.163990140e-01   -5.437200069e-01
     5793000000    4.061948359e-01   -4.293529093e-01
     5796000000    5.419937372e-01   -2.420064658e-01
     5799000000    5.883929729e-01   -3.057925776e-02
     5802000000    5.613063574e-01    1.809033751e-01
     5805000000    4.645724297e-01    3.675643206e-01
     5808000000    2.843035758e-01    5.176200867e-01
     5811000000    6.016968191e-02    5.899299383e-01
     5814000000   -1.270410120e-01    5.777072310e-01
     5817000000   -3.394861817e-01    4.790946841e-01
     5820000000   -4.960377514e-01    3.219129741e-01
     5823000000   -5.802283883e-01    1.117088944e-01
     5826000000   -5.813808441e-01   -1.050555855e-01
     5829000000   -4.959904552e-01   -3.165300786e-01
     5832000000   -3.539848328e-01   -4.670863450e-01
     5835000000   -1.502870768e-01   -5.719764233e-01
     5838000000    6.934026629e-02   -5.864277482e-01
     5841000000    2.762116194e-01   -5.207419395e-01
     5844000000    4.570388198e-01   -3.701993823e-01
     5847000000    5.586101413e-01   -1.876038015e-01
     5850000000    5.888260007e-01    3.083107620e-02
     5853000000    5.354607105e-01    2.372878045e-01
     5856000000    4.006571472e-01    4.230807126e-01
     5859000000    2.256226689e-01    5.380966067e-01
     5862000000    1.823138259e-02    5.833712816e-01
     5865000000   -1.970496774e-01    5.446587801e-01
     5868000000   -3.906014264e-01    4.295361936e-01
     5871000000   -5.206220746e-01    2.520563602e-01
     5874000000   -5.790555477e-01    4.249519855e-02
     5877000000   -5.585403442e-01   -1.649243981e-01
     5880000000   -4.592058361e-01   -3.614005744e-01
     5883000000   -2.788699269e-01   -5.045847893e-01
     5886000000   -5.688088760e-02   -5.728710890e-01
     5889000000    1.147988364e-01   -5.747086406e-01
     5892000000    3.437483311e-01   -4.595912993e-01
     5895000000    4.697550237e-01   -3.435520232e-01
     5898000000    5.664114356e-01   -9.004376084e-02
     5901000000    5.706671476e-01    8.880974352e-02
     5904000000    4.887870848e-01    3.042588234e-01
     5907000000    3.352577686e-01    4.649600685e-01
     5910000000    1.884172857e-01    5.513666272e-01
     5913000000   -6.427640468e-02    5.713839531e-01
     5916000000   -2.768857777e-01    4.954118729e-01
     5919000000   -4.493444264e-01    3.585107028e-01
     5922000000   -5.410647988e-01    2.054284066e-01
     5925000000   -5.769101381e-01   -1.963269711e-02
     5928000000   -5.226358771e-01   -2.365715206e-01
     5931000000   -4.099751413e-01   -4.004440904e-01
     5934000000   -2.218669951e-01   -5.301115513e-01
     5937000000   -2.796142921e-02   -5.768570304e-01
     5940000000    1.876394153e-01   -5.339633226e-01
     5943000000    3.754728734e-01   -4.324967265e-01
     5946000000    5.069245100e-01   -2.524113357e-01
     5949000000    5.645039678e-01   -5.126238242e-02
     5952000000    5.516328216e-01    1.434675455e-01
     5955000000    4.326902628e-01    3.535677791e-01
     5958000000    3.063783050e-01    4.812881649e-01
     5961000000    9.544544667e-02    5.588544607e-01
     5964000000   -1.275552511e-01    5.450072885e-01
     5967000000   -3.131187856e-01    4.665153325e-01
     5970000000   -4.624806643e-01    3.285759389e-01
     5973000000   -5.394604206e-01    1.068746597e-01
     5976000000   -5.537861586e-01   -8.540583402e-02
     5979000000   -4.674614370e-01   -2.960773408e-01
     5982000000   -3.484970033e-01   -4.365122616e-01
     5985000000   -1.512955278e-01   -5.319080949e-01
     5988000000    3.733348846e-02   -5.550661683e-01
     5991000000    2.437092364e-01   -4.960745871e-01
     5994000000    4.063365459e-01   -3.770484924e-01
              0   -5.427736044e-01    3.121856153e-01
              0   -5.427763462e-01    3.121806681e-01
