! NanoVNA-App
! Date: 2026-05-22 15:38:45
! Start: 4.8GHz Stop: 6GHz Points: 401
! S-Parameter data: F S11
# Hz S RI R 50
!     Frequency           S11_Real           S11_Imag
     4800000000    1.387733221e-01    1.959761083e-01
     4803000000    5.680498481e-02    2.276198566e-01
     4806000000   -2.800073102e-02    2.284234762e-01
     4809000000   -1.053739488e-01    1.994003356e-01
     4812000000   -1.685400009e-01    1.446846724e-01
     4815000000   -2.060890198e-01    7.247937471e-02
     4818000000   -2.114043981e-01   -7.660609670e-03
     4821000000   -1.898395568e-01   -8.089048415e-02
     4824000000   -1.419977546e-01   -1.410076171e-01
     4827000000   -7.892797887e-02   -1.806043535e-01
     4830000000   -6.308747921e-03   -1.918520033e-01
     4833000000    6.423316896e-02   -1.770541668e-01
     4836000000    1.225090697e-01   -1.353318095e-01
     4839000000    1.611584276e-01   -7.884120941e-02
     4842000000    1.749259084e-01   -1.269126311e-02
     4845000000    1.650165170e-01    5.363683030e-02
     4848000000    1.299257874e-01    1.078590006e-01
     4851000000    7.709771395e-02    1.427889019e-01
     4854000000    1.876060851e-02    1.643098444e-01
     4857000000   -4.263245314e-02    1.544657201e-01
     4860000000   -9.365066141e-02    1.204897836e-01
     4863000000   -1.337223053e-01    7.917344570e-02
     4866000000   -1.459020972e-01    2.374976315e-02
     4869000000   -1.419949085e-01   -3.416507319e-02
     4872000000   -1.155204847e-01   -8.284674585e-02
     4875000000   -7.210493088e-02   -1.167964935e-01
     4878000000   -1.967123710e-02   -1.357992440e-01
     4881000000    3.066690452e-02   -1.277338415e-01
     4884000000    7.765036821e-02   -1.066825986e-01
     4887000000    1.101980433e-01   -6.626857817e-02
     4890000000    1.258089244e-01   -1.957282238e-02
     4893000000    1.218545958e-01    2.813674323e-02
     4896000000    9.903953969e-02    7.231524587e-02
     4899000000    6.280055642e-02    1.009330004e-01
     4902000000    1.653795876e-02    1.139997467e-01
     4905000000   -3.004397638e-02    1.127783433e-01
     4908000000   -6.901269406e-02    8.889075369e-02
     4911000000   -9.762715548e-02    5.508523434e-02
     4914000000   -1.123996675e-01    1.229587570e-02
     4917000000   -1.035357416e-01   -3.101165965e-02
     4920000000   -8.338877559e-02   -7.046302408e-02
     4923000000   -4.564994946e-02   -9.502998739e-02
     4926000000   -4.967148881e-03   -1.060470864e-01
     4929000000    3.687545657e-02   -9.472310543e-02
     4932000000    7.523410767e-02   -7.774726301e-02
     4935000000    9.492393583e-02   -3.810333833e-02
     4938000000    1.069793850e-01    1.418523141e-03
     4941000000    9.251693636e-02    4.288876802e-02
     4944000000    7.133215666e-02    8.018235862e-02
     4947000000    3.308411315e-02    9.846255928e-02
     4950000000   -8.064248599e-03    1.113282591e-01
     4953000000   -5.077987909e-02    9.340468049e-02
     4956000000   -8.521521837e-02    6.948520988e-02
     4959000000   -1.080645695e-01    3.069951385e-02
     4962000000   -1.141070276e-01   -1.306338795e-02
     4965000000   -9.988030046e-02   -5.813702568e-02
     4968000000   -6.962939352e-02   -9.317213297e-02
     4971000000   -2.740864456e-02   -1.136710793e-01
     4974000000    2.050301619e-02   -1.160180420e-01
     4977000000    6.581629813e-02   -1.039030552e-01
     4980000000    1.021403000e-01   -6.969666481e-02
     4983000000    1.240276396e-01   -2.312012762e-02
     4986000000    1.290974915e-01    2.692721039e-02
     4989000000    1.128975675e-01    7.789207995e-02
     4992000000    7.276903093e-02    1.169971153e-01
     4995000000    2.478775941e-02    1.407437474e-01
     4998000000   -3.225658089e-02    1.462821960e-01
     5001000000   -8.771157265e-02    1.346826702e-01
     5004000000   -1.341868043e-01    8.840603381e-02
     5007000000   -1.589575857e-01    3.077783436e-02
     5010000000   -1.724657714e-01   -2.649609558e-02
     5013000000   -1.478544474e-01   -9.297456592e-02
     5016000000   -1.077277437e-01   -1.433117986e-01
     5019000000   -4.816028848e-02   -1.766746640e-01
     5022000000    1.777125522e-02   -1.904821843e-01
     5025000000    8.887392282e-02   -1.771054268e-01
     5028000000    1.497312635e-01   -1.333006620e-01
     5031000000    1.905810535e-01   -7.108109444e-02
     5034000000    2.072327733e-01    3.173876321e-03
     5037000000    1.975820363e-01    7.826577127e-02
     5040000000    1.619433612e-01    1.480979174e-01
     5043000000    9.689991176e-02    1.986095905e-01
     5046000000    1.884030923e-02    2.262869626e-01
     5049000000   -6.438251585e-02    2.167180181e-01
     5052000000   -1.414754391e-01    1.883325577e-01
     5055000000   -1.995763034e-01    1.250735670e-01
     5058000000   -2.380726188e-01    4.883521795e-02
     5061000000   -2.411016822e-01   -3.925391287e-02
     5064000000   -2.103868872e-01   -1.246127710e-01
     5067000000   -1.549215466e-01   -1.945298016e-01
     5070000000   -7.467634231e-02   -2.399447262e-01
     5073000000    1.783691905e-02   -2.535445690e-01
     5076000000    1.103300676e-01   -2.312053591e-01
     5079000000    1.896770000e-01   -1.805455536e-01
     5082000000    2.441925108e-01   -1.038441658e-01
     5085000000    2.693857849e-01   -8.903387003e-03
     5088000000    2.579274476e-01    8.841046691e-02
     5091000000    2.121346742e-01    1.760220081e-01
     5094000000    1.397021413e-01    2.453959733e-01
     5097000000    4.067310318e-02    2.786095142e-01
     5100000000   -6.093703210e-02    2.750679851e-01
     5103000000   -1.567545980e-01    2.407766581e-01
     5106000000   -2.308107913e-01    1.668964624e-01
     5109000000   -2.818394303e-01    7.557170838e-02
     5112000000   -2.893686593e-01   -2.938434668e-02
     5115000000   -2.578802407e-01   -1.322739571e-01
     5118000000   -1.971376389e-01   -2.180611193e-01
     5121000000   -1.038260907e-01   -2.757575512e-01
     5124000000    4.245077725e-04   -2.963145673e-01
     5127000000    1.111815646e-01   -2.801200151e-01
     5130000000    2.036844194e-01   -2.234225869e-01
     5133000000    2.707030177e-01   -1.360066235e-01
     5136000000    3.030839860e-01   -3.079606965e-02
     5139000000    2.998050749e-01    8.252099156e-02
     5142000000    2.483997941e-01    1.811883301e-01
     5145000000    1.690193862e-01    2.632156610e-01
     5148000000    6.452546269e-02    3.063255250e-01
     5151000000   -4.820221290e-02    3.070288301e-01
     5154000000   -1.579393446e-01    2.747973800e-01
     5157000000   -2.462010086e-01    1.984821707e-01
     5160000000   -3.040207326e-01    9.966965020e-02
     5163000000   -3.231698871e-01   -1.428359281e-02
     5166000000   -2.991432250e-01   -1.291790456e-01
     5169000000   -2.326022238e-01   -2.251760066e-01
     5172000000   -1.374359727e-01   -2.967512608e-01
     5175000000   -2.457753941e-02   -3.263588846e-01
     5178000000    9.519801289e-02   -3.152236044e-01
     5181000000    1.969914883e-01   -2.584619820e-01
     5184000000    2.768588066e-01   -1.730535179e-01
     5187000000    3.234357536e-01   -6.351003796e-02
     5190000000    3.245300055e-01    5.799278617e-02
     5193000000    2.851294279e-01    1.708280891e-01
     5196000000    2.051667273e-01    2.537427247e-01
     5199000000    9.753995389e-02    3.180365264e-01
     5202000000   -1.683240570e-02    3.269205987e-01
     5205000000   -1.337424666e-01    3.012166619e-01
     5208000000   -2.296920270e-01    2.328820378e-01
     5211000000   -3.003985882e-01    1.355052441e-01
     5214000000   -3.265694082e-01    1.945274882e-02
     5217000000   -3.112875223e-01   -9.786590189e-02
     5220000000   -2.564187348e-01   -2.032950372e-01
     5223000000   -1.662276834e-01   -2.809877694e-01
     5226000000   -5.411366373e-02   -3.220480978e-01
     5229000000    6.302326918e-02   -3.183345199e-01
     5232000000    1.729866117e-01   -2.739784122e-01
     5235000000    2.570766211e-01   -1.943568289e-01
     5238000000    3.097371459e-01   -8.751083910e-02
     5241000000    3.194934726e-01    2.687082998e-02
     5244000000    2.882190645e-01    1.399476826e-01
     5247000000    2.187659144e-01    2.343669385e-01
     5250000000    1.212498322e-01    2.943624854e-01
     5253000000    9.598721750e-03    3.159672022e-01
     5256000000   -1.040405482e-01    2.973334789e-01
     5259000000   -2.013294250e-01    2.391117215e-01
     5262000000   -2.768869102e-01    1.444689482e-01
     5265000000   -3.072070479e-01    3.962051496e-02
     5268000000   -3.003600836e-01   -7.194582373e-02
     5271000000   -2.534672618e-01   -1.760909110e-01
     5274000000   -1.698894352e-01   -2.543911934e-01
     5277000000   -7.158666104e-02   -2.965902984e-01
     5280000000    4.260771349e-02   -3.019943833e-01
     5283000000    1.444718093e-01   -2.670753598e-01
     5286000000    2.301673293e-01   -1.928972751e-01
     5289000000    2.836164832e-01   -9.968639165e-02
     5292000000    2.987506986e-01    9.442710318e-03
     5295000000    2.740968466e-01    1.174595430e-01
     5298000000    2.153040916e-01    2.069073021e-01
     5301000000    1.264727712e-01    2.677744031e-01
     5304000000    2.358047478e-02    2.953237295e-01
     5307000000   -8.281928301e-02    2.821980417e-01
     5310000000   -1.766523570e-01    2.325962037e-01
     5313000000   -2.464174926e-01    1.532285511e-01
     5316000000   -2.830961049e-01    5.385396257e-02
     5319000000   -2.816484869e-01   -4.893270507e-02
     5322000000   -2.447631955e-01   -1.456753761e-01
     5325000000   -1.740342826e-01   -2.213412672e-01
     5328000000   -8.226846904e-02   -2.669636607e-01
     5331000000    1.797184534e-02   -2.765192688e-01
     5334000000    1.157245710e-01   -2.520927191e-01
     5337000000    1.962560266e-01   -1.907269806e-01
     5340000000    2.492945492e-01   -1.097995937e-01
     5343000000    2.684816122e-01   -1.153438352e-02
     5346000000    2.519657612e-01    8.432314545e-02
     5349000000    2.045057416e-01    1.688841581e-01
     5352000000    1.288109720e-01    2.293432355e-01
     5355000000    4.252307117e-02    2.636538446e-01
     5358000000   -5.799432099e-02    2.453784943e-01
     5361000000   -1.440708488e-01    2.215456367e-01
     5364000000   -2.046377659e-01    1.474742740e-01
     5367000000   -2.390088290e-01    5.816206336e-02
     5370000000   -2.462824285e-01   -2.886718512e-02
     5373000000   -2.337869555e-01   -1.112720743e-01
     5376000000   -1.739998013e-01   -1.812719852e-01
     5379000000   -8.831738681e-02   -2.236071527e-01
     5382000000   -4.875079263e-03   -2.364549488e-01
     5385000000    7.822320610e-02   -2.226744443e-01
     5388000000    1.507824957e-01   -1.801725626e-01
     5391000000    1.933709830e-01   -1.104490831e-01
     5394000000    2.247673422e-01   -3.793667257e-02
     5397000000    2.187950015e-01    4.516581446e-02
     5400000000    1.833084077e-01    1.151562855e-01
     5403000000    1.321236342e-01    1.715395302e-01
     5406000000    5.845629796e-02    1.998402029e-01
     5409000000   -1.728513278e-02    2.052624971e-01
     5412000000   -8.614763618e-02    1.794381440e-01
     5415000000   -1.523579806e-01    1.415396482e-01
     5418000000   -1.777711958e-01    7.206844538e-02
     5421000000   -1.851315647e-01    3.396659857e-03
     5424000000   -1.770524830e-01   -6.531920284e-02
     5427000000   -1.480872482e-01   -1.300807893e-01
     5430000000   -8.238822222e-02   -1.547785997e-01
     5433000000   -2.054834180e-02   -1.753710657e-01
     5436000000    4.038964212e-02   -1.711930186e-01
     5439000000    9.955886006e-02   -1.460318714e-01
     5442000000    1.319515556e-01   -9.540065378e-02
     5445000000    1.683457792e-01   -4.347201064e-02
     5448000000    1.477290541e-01    1.076812763e-02
     5451000000    1.425491124e-01    7.269181311e-02
     5454000000    1.002462357e-01    1.085152701e-01
     5457000000    5.141522363e-02    1.367454976e-01
     5460000000    8.581188740e-05    1.390715986e-01
     5463000000   -4.934313521e-02    1.264002025e-01
     5466000000   -9.285071492e-02    9.728551656e-02
     5469000000   -1.131639928e-01    5.544633791e-02
     5472000000   -1.305941343e-01    1.004826929e-02
     5475000000   -1.175643951e-01   -3.369951248e-02
     5478000000   -9.945932776e-02   -7.224792242e-02
     5481000000   -6.324938685e-02   -1.006760523e-01
     5484000000   -2.375110053e-02   -1.044886932e-01
     5487000000    1.511111204e-02   -1.024835035e-01
     5490000000    5.049819499e-02   -8.799810708e-02
     5493000000    7.963157445e-02   -6.221866235e-02
     5496000000    9.389038384e-02   -2.974217571e-02
     5499000000    8.393431455e-02    4.933869932e-03
     5502000000    7.721600682e-02    3.689058125e-02
     5505000000    5.482459813e-02    5.775111914e-02
     5508000000    2.859542891e-02    7.634237409e-02
     5511000000    2.430700464e-03    7.449506968e-02
     5514000000   -2.912500873e-02    7.043386996e-02
     5517000000   -3.943284601e-02    4.832338542e-02
     5520000000   -5.815150961e-02    2.810911462e-02
     5523000000   -6.320501119e-02    3.372886451e-03
     5526000000   -5.104362220e-02   -1.210436132e-02
     5529000000   -4.017531499e-02   -3.276271746e-02
     5532000000   -2.377653494e-02   -3.695999458e-02
     5535000000   -9.385499172e-03   -3.465009481e-02
     5538000000    7.817252539e-03   -3.603823856e-02
     5541000000    2.351442538e-02   -2.950250730e-02
     5544000000    2.429039590e-02   -1.398985460e-02
     5547000000    3.201662749e-02   -6.422353326e-04
     5550000000    1.731391251e-02    6.822519936e-03
     5553000000    1.246161759e-02    1.199513953e-02
     5556000000    7.290104870e-03    2.525179088e-02
     5559000000   -8.413524483e-04    8.719315752e-03
     5562000000   -1.188134123e-02    1.607943326e-02
     5565000000   -1.186800376e-02    4.040769767e-03
     5568000000   -9.752785787e-03   -6.193615496e-03
     5571000000   -2.505326876e-03   -9.848917834e-03
     5574000000    3.522003070e-03   -1.293953788e-02
     5577000000    1.516112406e-02   -6.887425669e-03
     5580000000    1.795400307e-02   -2.835913561e-03
     5583000000    2.370608039e-02    1.162636280e-02
     5586000000    2.544752881e-02    1.451319177e-02
     5589000000    1.220275182e-02    3.122017719e-02
     5592000000   -1.737673883e-03    3.785301745e-02
     5595000000   -1.050639246e-02    3.719205409e-02
     5598000000   -3.103294596e-02    2.917242236e-02
     5601000000   -4.606559500e-02    1.267827488e-02
     5604000000   -5.093125999e-02   -6.243736134e-04
     5607000000   -5.273407698e-02   -2.188284136e-02
     5610000000   -4.539583996e-02   -3.847593442e-02
     5613000000   -2.921545506e-02   -5.848558247e-02
     5616000000   -4.908951931e-03   -7.013359666e-02
     5619000000    2.087543905e-02   -7.120473683e-02
     5622000000    4.508281499e-02   -6.387408823e-02
     5625000000    6.849323213e-02   -4.465267807e-02
     5628000000    8.119969070e-02   -1.807830669e-02
     5631000000    8.738771826e-02    1.148916781e-02
     5634000000    8.241841942e-02    3.598872945e-02
     5637000000    5.202175677e-02    7.913152128e-02
     5640000000    3.760579973e-02    9.050681442e-02
     5643000000   -9.522270411e-03    9.958899021e-02
     5646000000   -4.492136464e-02    9.492611140e-02
     5649000000   -7.789691538e-02    7.699058950e-02
     5652000000   -1.005074456e-01    5.251670256e-02
     5655000000   -1.150991246e-01    4.408632405e-03
     5658000000   -1.114094257e-01   -4.203023389e-02
     5661000000   -9.072870016e-02   -8.014443517e-02
     5664000000   -6.984993815e-02   -1.059426740e-01
     5667000000   -2.282459289e-02   -1.261846572e-01
     5670000000    2.670801431e-02   -1.265384257e-01
     5673000000    6.786109507e-02   -1.155910492e-01
     5676000000    1.090201512e-01   -8.026765287e-02
     5679000000    1.328902841e-01   -3.461349010e-02
     5682000000    1.405783445e-01    1.255121455e-02
     5685000000    1.244916320e-01    6.776002049e-02
     5688000000    1.031922400e-01    1.075616553e-01
     5691000000    4.839105532e-02    1.375647038e-01
     5694000000   -2.786835190e-03    1.517655551e-01
     5697000000   -5.065512285e-02    1.526606381e-01
     5700000000   -1.065296754e-01    1.184285581e-01
     5703000000   -1.440981179e-01    6.461013108e-02
     5706000000   -1.679158360e-01    1.958362944e-02
     5709000000   -1.603483111e-01   -4.693008959e-02
     5712000000   -1.370285749e-01   -1.045967340e-01
     5715000000   -8.285919577e-02   -1.464693695e-01
     5718000000   -3.241425380e-02   -1.744215339e-01
     5721000000    3.050667234e-02   -1.834913045e-01
     5724000000    9.650672227e-02   -1.609666198e-01
     5727000000    1.466800869e-01   -1.164660826e-01
     5730000000    1.811440587e-01   -5.597712472e-02
     5733000000    1.912478358e-01    1.365275029e-02
     5736000000    1.735065877e-01    8.333344758e-02
     5739000000    1.391707510e-01    1.415307224e-01
     5742000000    8.231545985e-02    1.862479150e-01
     5745000000    5.461738911e-03    1.995612532e-01
     5748000000   -6.484800577e-02    2.035475969e-01
     5751000000   -1.300178766e-01    1.506417245e-01
     5754000000   -1.899308115e-01    1.137781441e-01
     5757000000   -2.016587704e-01    2.723439038e-02
     5760000000   -2.079083622e-01   -4.813266173e-02
     5763000000   -1.824386716e-01   -1.217164770e-01
     5766000000   -1.285500079e-01   -1.796808988e-01
     5769000000   -5.316066369e-02   -2.167236805e-01
     5772000000    2.613614872e-02   -2.295837253e-01
     5775000000    1.059260517e-01   -1.991354227e-01
     5778000000    1.734605730e-01   -1.527898014e-01
     5781000000    2.194670588e-01   -8.370776474e-02
     5784000000    2.366853803e-01    8.275900618e-04
     5787000000    2.183023989e-01    8.343214542e-02
     5790000000    1.742587537e-01    1.570854634e-01
     5793000000    1.114640161e-01    2.162206471e-01
     5796000000    2.775926515e-02    2.418509722e-01
     5799000000   -6.062177941e-02    2.370237559e-01
     5802000000   -1.426675469e-01    1.999536604e-01
     5805000000   -2.047150135e-01    1.362092197e-01
     5808000000   -2.435260564e-01    5.433860421e-02
     5811000000   -2.461472303e-01   -3.485114500e-02
     5814000000   -2.196156383e-01   -1.200037897e-01
     5817000000   -1.624430120e-01   -1.927225143e-01
     5820000000   -8.168408275e-02   -2.388127744e-01
     5823000000    8.768257685e-03   -2.551512122e-01
     5826000000    1.004350036e-01   -2.346022576e-01
     5829000000    1.831644177e-01   -1.897207350e-01
     5832000000    2.252582759e-01   -1.072842181e-01
     5835000000    2.597771585e-01   -1.612942107e-02
     5838000000    2.460462004e-01    7.549379021e-02
     5841000000    2.018346339e-01    1.598932743e-01
     5844000000    1.335940957e-01    2.326734662e-01
     5847000000    4.327757657e-02    2.553428113e-01
     5850000000   -5.297435820e-02    2.575285733e-01
     5853000000   -1.457328200e-01    2.226092368e-01
     5856000000   -2.199293226e-01    1.565193534e-01
     5859000000   -2.569728494e-01    7.002830505e-02
     5862000000   -2.671073675e-01   -2.752855234e-02
     5865000000   -2.343655080e-01   -1.161550805e-01
     5868000000   -1.795929521e-01   -1.995869577e-01
     5871000000   -9.513875097e-02   -2.532932758e-01
     5874000000    3.591588698e-03   -2.726977170e-01
     5877000000    1.036209017e-01   -2.526968718e-01
     5880000000    1.764725149e-01   -1.990153342e-01
     5883000000    2.525236905e-01   -1.175825298e-01
     5886000000    2.674931586e-01   -2.325290442e-02
     5889000000    2.614010572e-01    8.132629842e-02
     5892000000    2.173850685e-01    1.732022166e-01
     5895000000    1.430397034e-01    2.216109335e-01
     5898000000    3.574458137e-02    2.861505449e-01
     5901000000   -5.008173734e-02    2.672365010e-01
     5904000000   -1.559931785e-01    2.308489382e-01
     5907000000   -2.231712639e-01    1.607440561e-01
     5910000000   -2.654932439e-01    7.374153286e-02
     5913000000   -2.837165594e-01   -4.361839592e-02
     5916000000   -2.492594272e-01   -1.234111637e-01
     5919000000   -1.842993945e-01   -2.116347700e-01
     5922000000   -1.002048999e-01   -2.584372163e-01
     5925000000    8.331349120e-03   -2.872003615e-01
     5928000000    1.055276841e-01   -2.627456486e-01
     5931000000    1.965890229e-01   -2.071621269e-01
     5934000000    2.547109127e-01   -1.237219051e-01
     5937000000    2.885124981e-01   -1.658647694e-02
     5940000000    2.766110897e-01    9.276710451e-02
     5943000000    2.236376852e-01    1.686241478e-01
     5946000000    1.442720592e-01    2.470329404e-01
     5949000000    4.597494006e-02    2.812108099e-01
     5952000000   -5.431556702e-02    2.775342464e-01
     5955000000   -1.634388268e-01    2.428681552e-01
     5958000000   -2.300827801e-01    1.695350111e-01
     5961000000   -2.722727954e-01    7.773122936e-02
     5964000000   -2.940807939e-01   -4.833752662e-02
     5967000000   -2.557194829e-01   -1.191163734e-01
     5970000000   -1.849963963e-01   -2.314578593e-01
     5973000000   -9.776527435e-02   -2.756848931e-01
     5976000000    1.376218349e-02   -2.922905982e-01
     5979000000    9.818787873e-02   -2.659940124e-01
     5982000000    2.112042159e-01   -2.037263662e-01
     5985000000    2.727908492e-01   -1.132224128e-01
     5988000000    2.891689837e-01   -1.851452887e-02
     5991000000    2.763881683e-01    9.069000185e-02
     5994000000    2.232885808e-01    1.873904765e-01
     5997000000    1.507105529e-01    2.443692088e-01
     6000000000    3.596570715e-02    2.920818627e-01
