! NanoVNA-App
! Date: 2026-05-22 15:38:30
! Start: 2.3GHz Stop: 2.6GHz Points: 401
! S-Parameter data: F S11
# Hz S RI R 50
!     Frequency           S11_Real           S11_Imag
     2300000000   -2.470694333e-01    1.533938050e-01
     2300750000   -2.593141198e-01    1.298983395e-01
     2301500000   -2.697295845e-01    1.050228626e-01
     2302250000   -2.763502598e-01    8.060383797e-02
     2303000000   -2.818399370e-01    5.405106768e-02
     2303750000   -2.853052318e-01    2.842414379e-02
     2304500000   -2.851013541e-01    3.008437110e-03
     2305250000   -2.837430835e-01   -2.242945135e-02
     2306000000   -2.799969912e-01   -4.855220020e-02
     2306750000   -2.735999823e-01   -7.226845622e-02
     2307500000   -2.649698555e-01   -9.641560912e-02
     2308250000   -2.552082837e-01   -1.202555373e-01
     2309000000   -2.419437468e-01   -1.414113790e-01
     2309750000   -2.271741927e-01   -1.624922305e-01
     2310500000   -2.118340433e-01   -1.816746444e-01
     2311250000   -1.931066811e-01   -1.994925737e-01
     2312000000   -1.747526526e-01   -2.151627243e-01
     2312750000   -1.543361098e-01   -2.277634591e-01
     2313500000   -1.324741989e-01   -2.407772392e-01
     2314250000   -1.099950373e-01   -2.504359186e-01
     2315000000   -8.683960885e-02   -2.581584752e-01
     2315750000   -6.229004636e-02   -2.647060454e-01
     2316500000   -3.853185475e-02   -2.682301104e-01
     2317250000   -1.425442006e-02   -2.699903548e-01
     2318000000    8.994827047e-03   -2.676987052e-01
     2318750000    3.379794583e-02   -2.652613521e-01
     2319500000    5.818644166e-02   -2.613131106e-01
     2320250000    7.954046875e-02   -2.528041601e-01
     2321000000    1.019595787e-01   -2.438675612e-01
     2321750000    1.227763072e-01   -2.325478345e-01
     2322500000    1.416173726e-01   -2.193907648e-01
     2323250000    1.610259861e-01   -2.049498409e-01
     2324000000    1.777668744e-01   -1.881101280e-01
     2324750000    1.932087541e-01   -1.714097857e-01
     2325500000    2.068977952e-01   -1.518751979e-01
     2326250000    2.204061002e-01   -1.313982755e-01
     2327000000    2.279146612e-01   -1.108000576e-01
     2327750000    2.383933961e-01   -8.816651255e-02
     2328500000    2.424387038e-01   -6.744673103e-02
     2329250000    2.474804074e-01   -4.308343306e-02
     2330000000    2.493936718e-01   -2.082399651e-02
     2330750000    2.485846728e-01    1.723856432e-03
     2331500000    2.467709184e-01    2.519077435e-02
     2332250000    2.426297665e-01    4.681326449e-02
     2333000000    2.370703220e-01    7.021217048e-02
     2333750000    2.284641713e-01    8.965512365e-02
     2334500000    2.189054340e-01    1.113536432e-01
     2335250000    2.070755959e-01    1.290328354e-01
     2336000000    1.943503320e-01    1.477732956e-01
     2336750000    1.801461875e-01    1.640429646e-01
     2337500000    1.634506434e-01    1.783791929e-01
     2338250000    1.465041637e-01    1.938179731e-01
     2339000000    1.282023042e-01    2.042909563e-01
     2339750000    1.088550091e-01    2.159106135e-01
     2340500000    8.865002543e-02    2.231676579e-01
     2341250000    6.866280735e-02    2.297798991e-01
     2342000000    4.723708704e-02    2.349398434e-01
     2342750000    2.603939362e-02    2.368223071e-01
     2343500000    4.045111593e-03    2.387267798e-01
     2344250000   -1.713079773e-02    2.364295721e-01
     2345000000   -3.738078848e-02    2.331823260e-01
     2345750000   -5.921658501e-02    2.286877781e-01
     2346500000   -7.880638540e-02    2.212613225e-01
     2347250000   -9.766834229e-02    2.127382904e-01
     2348000000   -1.170890704e-01    2.031160146e-01
     2348750000   -1.338794976e-01    1.906492263e-01
     2349500000   -1.482838392e-01    1.776223928e-01
     2350250000   -1.641643494e-01    1.627534181e-01
     2351000000   -1.757885665e-01    1.477556825e-01
     2351750000   -1.881501675e-01    1.306230426e-01
     2352500000   -2.005293816e-01    1.129755005e-01
     2353250000   -2.070659101e-01    9.440536797e-02
     2354000000   -2.135634124e-01    7.530567795e-02
     2354750000   -2.191554010e-01    5.560883135e-02
     2355500000   -2.221219838e-01    3.514477238e-02
     2356250000   -2.246508002e-01    1.436065137e-02
     2357000000   -2.220276892e-01   -3.079548478e-03
     2357750000   -2.213095874e-01   -2.548740432e-02
     2358500000   -2.163648158e-01   -4.346939549e-02
     2359250000   -2.109127790e-01   -6.200834364e-02
     2360000000   -2.047534585e-01   -8.227121830e-02
     2360750000   -1.947218180e-01   -9.873988479e-02
     2361500000   -1.851716191e-01   -1.148148179e-01
     2362250000   -1.732048094e-01   -1.307231337e-01
     2363000000   -1.599241793e-01   -1.450639516e-01
     2363750000   -1.458797455e-01   -1.592739969e-01
     2364500000   -1.310861856e-01   -1.689462513e-01
     2365250000   -1.148667634e-01   -1.797187626e-01
     2366000000   -9.787002951e-02   -1.894289553e-01
     2366750000   -8.057180792e-02   -1.956922561e-01
     2367500000   -6.264272332e-02   -2.009889483e-01
     2368250000   -4.400332645e-02   -2.054513991e-01
     2369000000   -2.677463926e-02   -2.057538331e-01
     2369750000   -7.532074116e-03   -2.068759352e-01
     2370500000    1.026108023e-02   -2.043109834e-01
     2371250000    2.933494747e-02   -2.019866556e-01
     2372000000    4.685299098e-02   -1.977279931e-01
     2372750000    6.370942295e-02   -1.907451153e-01
     2373500000    8.044470102e-02   -1.837400794e-01
     2374250000    9.634243697e-02   -1.746427268e-01
     2375000000    1.122534648e-01   -1.649321169e-01
     2375750000    1.240184084e-01   -1.534761786e-01
     2376500000    1.362257600e-01   -1.406667829e-01
     2377250000    1.489442736e-01   -1.268328875e-01
     2378000000    1.579628736e-01   -1.128149033e-01
     2378750000    1.672839969e-01   -9.764762968e-02
     2379500000    1.738043725e-01   -8.183887601e-02
     2380250000    1.809741557e-01   -6.521078199e-02
     2381000000    1.822808385e-01   -4.970543087e-02
     2381750000    1.859813184e-01   -3.195685893e-02
     2382500000    1.880525798e-01   -1.428065449e-02
     2383250000    1.861592978e-01    1.189540024e-03
     2384000000    1.855051965e-01    1.884801313e-02
     2384750000    1.817725152e-01    3.369658813e-02
     2385500000    1.766986251e-01    5.037385970e-02
     2386250000    1.703068614e-01    6.501854956e-02
     2387000000    1.629341841e-01    8.053163439e-02
     2387750000    1.542252451e-01    9.417776018e-02
     2388500000    1.439984590e-01    1.062768772e-01
     2389250000    1.328809410e-01    1.173331067e-01
     2390000000    1.206900924e-01    1.283549517e-01
     2390750000    1.077620983e-01    1.375083178e-01
     2391500000    9.459006786e-02    1.447740197e-01
     2392250000    7.936028391e-02    1.555798650e-01
     2393000000    6.552003324e-02    1.592603028e-01
     2393750000    5.028979108e-02    1.633324921e-01
     2394500000    3.503905982e-02    1.670805216e-01
     2395250000    1.906153187e-02    1.695177555e-01
     2396000000    4.635885358e-03    1.688871086e-01
     2396750000   -1.126985904e-02    1.686429679e-01
     2397500000   -2.577743120e-02    1.662797928e-01
     2398250000   -4.065884650e-02    1.628014445e-01
     2399000000   -5.556428432e-02    1.587401330e-01
     2399750000   -6.755544990e-02    1.519040316e-01
     2400500000   -8.071825653e-02    1.453427970e-01
     2401250000   -9.186750650e-02    1.372388303e-01
     2402000000   -1.032743230e-01    1.287014633e-01
     2402750000   -1.117796823e-01    1.191050261e-01
     2403500000   -1.210179999e-01    1.085816771e-01
     2404250000   -1.295734793e-01    9.768570960e-02
     2405000000   -1.357319653e-01    8.616423607e-02
     2405750000   -1.416361928e-01    7.324294001e-02
     2406500000   -1.445071250e-01    6.119797379e-02
     2407250000   -1.485927254e-01    4.750398174e-02
     2408000000   -1.508499980e-01    3.492021933e-02
     2408750000   -1.497036517e-01    2.212884277e-02
     2409500000   -1.494992375e-01    8.944765665e-03
     2410250000   -1.475571245e-01   -3.631127998e-03
     2411000000   -1.446044147e-01   -1.668785512e-02
     2411750000   -1.405914575e-01   -2.895575389e-02
     2412500000   -1.360015124e-01   -4.208100215e-02
     2413250000   -1.299939752e-01   -5.206569284e-02
     2414000000   -1.228123754e-01   -6.304793805e-02
     2414750000   -1.145794466e-01   -7.238479704e-02
     2415500000   -1.060786173e-01   -8.213216066e-02
     2416250000   -9.677029401e-02   -8.933971822e-02
     2417000000   -8.703707904e-02   -9.685289115e-02
     2417750000   -7.697125524e-02   -1.025635749e-01
     2418500000   -6.597442925e-02   -1.084284782e-01
     2419250000   -5.496358871e-02   -1.125562117e-01
     2420000000   -4.360757023e-02   -1.161418185e-01
     2420750000   -3.212041035e-02   -1.180011183e-01
     2421500000   -2.110259235e-02   -1.188667193e-01
     2422250000   -8.588011377e-03   -1.197192445e-01
     2423000000    1.864361344e-03   -1.179021895e-01
     2423750000    1.234328933e-02   -1.157603264e-01
     2424500000    2.247892320e-02   -1.132373437e-01
     2425250000    3.247148171e-02   -1.095316783e-01
     2426000000    4.384181648e-02   -1.048794016e-01
     2426750000    5.198358372e-02   -9.967380017e-02
     2427500000    6.090483069e-02   -9.362103045e-02
     2428250000    6.813937426e-02   -8.690541238e-02
     2429000000    7.542919368e-02   -7.947599888e-02
     2429750000    8.344133198e-02   -7.100335509e-02
     2430500000    8.865599334e-02   -6.293202937e-02
     2431250000    9.122022241e-02   -5.495109037e-02
     2432000000    9.637129307e-02   -4.545260593e-02
     2432750000    9.976035357e-02   -3.534131870e-02
     2433500000    1.015367880e-01   -2.652178332e-02
     2434250000    1.012585834e-01   -1.897357963e-02
     2435000000    1.034327000e-01   -6.941688713e-03
     2435750000    1.026213765e-01    2.028547460e-03
     2436500000    1.004800200e-01    9.180656634e-03
     2437250000    9.873323888e-02    1.979752071e-02
     2438000000    9.652057290e-02    2.832741663e-02
     2438750000    9.348196536e-02    3.766089678e-02
     2439500000    8.903595805e-02    4.369970784e-02
     2440250000    8.440005034e-02    5.051575601e-02
     2441000000    7.961627841e-02    5.772698671e-02
     2441750000    7.405462861e-02    6.146689877e-02
     2442500000    6.806766987e-02    6.689166278e-02
     2443250000    6.106662378e-02    7.376744598e-02
     2444000000    5.415496975e-02    7.672040164e-02
     2444750000    4.815113544e-02    7.903480530e-02
     2445500000    4.126336053e-02    8.171541244e-02
     2446250000    3.367795423e-02    8.369259536e-02
     2447000000    2.643042617e-02    8.455597609e-02
     2447750000    1.980489492e-02    8.488444984e-02
     2448500000    1.271305792e-02    8.378160745e-02
     2449250000    6.326334085e-03    8.299414068e-02
     2450000000   -3.064465418e-04    8.128873259e-02
     2450750000   -6.718641613e-03    7.901914418e-02
     2451500000   -1.302349661e-02    7.612307370e-02
     2452250000   -1.835116185e-02    7.308109850e-02
     2453000000   -2.390294708e-02    6.958246976e-02
     2453750000   -2.848556265e-02    6.508928537e-02
     2454500000   -3.318786621e-02    6.069758907e-02
     2455250000   -3.600581735e-02    5.607082322e-02
     2456000000   -4.022719339e-02    5.127126351e-02
     2456750000   -4.265657067e-02    4.574166983e-02
     2457500000   -4.572117701e-02    4.053680226e-02
     2458250000   -4.736176506e-02    3.523550555e-02
     2459000000   -4.782576114e-02    3.000483289e-02
     2459750000   -4.934621230e-02    2.412230521e-02
     2460500000   -4.907143489e-02    1.999985054e-02
     2461250000   -4.988576472e-02    1.356098894e-02
     2462000000   -4.904567078e-02    7.928537205e-03
     2462750000   -4.732428119e-02    4.818408750e-03
     2463500000   -4.656855017e-02   -3.351013875e-04
     2464250000   -4.486774653e-02   -5.668977275e-03
     2465000000   -4.238887504e-02   -6.418818608e-03
     2465750000   -4.031548649e-02   -1.236578450e-02
     2466500000   -3.751089051e-02   -1.564192958e-02
     2467250000   -3.522403166e-02   -1.523417421e-02
     2468000000   -3.160824254e-02   -2.101656422e-02
     2468750000   -2.894625627e-02   -2.195145190e-02
     2469500000   -2.671984583e-02   -2.173908614e-02
     2470250000   -2.229535952e-02   -2.450120822e-02
     2471000000   -1.961769536e-02   -2.447924018e-02
     2471750000   -1.648585126e-02   -2.471950836e-02
     2472500000   -1.482854318e-02   -2.346321568e-02
     2473250000   -1.058134530e-02   -2.482968569e-02
     2474000000   -7.853118703e-03   -2.417253144e-02
     2474750000   -6.163684186e-03   -2.294213884e-02
     2475500000   -4.329192452e-03   -2.121635713e-02
     2476250000   -1.678258879e-03   -2.022676170e-02
     2477000000   -4.970630398e-04   -1.912675798e-02
     2477750000    5.893820780e-04   -1.803790033e-02
     2478500000    2.358605852e-03   -1.532521471e-02
     2479250000    3.816436976e-03   -1.334161311e-02
     2480000000    4.070061259e-03   -1.168690994e-02
     2480750000    4.863177426e-03   -9.204607457e-03
     2481500000    4.757853225e-03   -7.575314026e-03
     2482250000    4.842241295e-03   -5.894930102e-03
     2483000000    4.561827518e-03   -4.242653027e-03
     2483750000    3.961816896e-03   -2.594971796e-03
     2484500000    3.180083353e-03   -1.511410461e-03
     2485250000    2.234978369e-03   -2.829066361e-04
     2486000000    1.289142761e-03   -6.438291166e-05
     2486750000   -2.612928511e-04    5.639084266e-04
     2487500000   -1.236035954e-03    1.249517896e-03
     2488250000   -2.234943444e-03    2.009188989e-03
     2489000000   -4.258915316e-03    7.800621679e-04
     2489750000   -5.714273546e-03   -1.095616462e-04
     2490500000   -7.662415039e-03   -5.094512744e-05
     2491250000   -8.680920117e-03    3.527666559e-04
     2492000000   -1.021761354e-02   -2.572674537e-03
     2492750000   -1.144003961e-02   -4.371421412e-03
     2493500000   -1.271208096e-02   -5.192421842e-03
     2494250000   -1.342032477e-02   -5.604145583e-03
     2495000000   -1.361773349e-02   -8.721376769e-03
     2495750000   -1.450243499e-02   -9.597873315e-03
     2496500000   -1.472139824e-02   -1.163493935e-02
     2497250000   -1.354393736e-02   -1.483301539e-02
     2498000000   -1.368976198e-02   -1.531226095e-02
     2498750000   -1.274602581e-02   -1.818409748e-02
     2499500000   -1.144662779e-02   -1.974393614e-02
     2500250000   -1.070661936e-02   -2.157053351e-02
     2501000000   -8.076420054e-03   -2.414761297e-02
     2501750000   -7.161555346e-03   -2.539016865e-02
     2502500000   -3.684904426e-03   -2.720588259e-02
     2503250000   -1.512431540e-03   -2.848155983e-02
     2504000000    1.233973657e-03   -2.942970768e-02
     2504750000    4.791070707e-03   -3.004820459e-02
     2505500000    7.504538167e-03   -3.089335561e-02
     2506250000    1.129226014e-02   -3.078854643e-02
     2507000000    1.531034522e-02   -3.098822944e-02
     2507750000    1.908815652e-02   -3.003812395e-02
     2508500000    2.189503610e-02   -2.974479273e-02
     2509250000    2.578631043e-02   -2.787734568e-02
     2510000000    2.908401377e-02   -2.697360516e-02
     2510750000    3.288764879e-02   -2.438029088e-02
     2511500000    3.646205366e-02   -2.178691886e-02
     2512250000    3.915624693e-02   -1.968415082e-02
     2513000000    4.220220074e-02   -1.620986499e-02
     2513750000    4.463553056e-02   -1.279775240e-02
     2514500000    4.752080515e-02   -9.188491851e-03
     2515250000    4.950636998e-02   -5.779794417e-03
     2516000000    5.105376616e-02   -8.361262735e-04
     2516750000    5.187472701e-02    3.876334755e-03
     2517500000    5.275121331e-02    8.657205850e-03
     2518250000    5.335564166e-02    1.266154274e-02
     2519000000    5.252819881e-02    1.851276867e-02
     2519750000    5.234096944e-02    2.342580259e-02
     2520500000    5.099486187e-02    2.852263674e-02
     2521250000    4.937228933e-02    3.322609887e-02
     2522000000    4.726994783e-02    3.818425164e-02
     2522750000    4.381443560e-02    4.342747107e-02
     2523500000    4.033541679e-02    4.816441238e-02
     2524250000    3.669933975e-02    5.213665217e-02
     2525000000    3.221992403e-02    5.633869395e-02
     2525750000    2.681152150e-02    6.122481450e-02
     2526500000    2.178473398e-02    6.399701536e-02
     2527250000    1.628999598e-02    6.732749939e-02
     2528000000    1.059435774e-02    6.921949983e-02
     2528750000    4.538859706e-03    7.159567624e-02
     2529500000   -2.251843223e-03    7.316055149e-02
     2530250000   -9.180142544e-03    7.367519289e-02
     2531000000   -1.580572687e-02    7.377646118e-02
     2531750000   -2.341550589e-02    7.347355038e-02
     2532500000   -2.946171910e-02    7.284966111e-02
     2533250000   -3.671549633e-02    7.143499702e-02
     2534000000   -4.332290590e-02    6.891270727e-02
     2534750000   -4.957780242e-02    6.571483612e-02
     2535500000   -5.616568401e-02    6.261896342e-02
     2536250000   -6.196919456e-02    5.816121399e-02
     2537000000   -6.797173619e-02    5.345355347e-02
     2537750000   -7.293263078e-02    4.802026600e-02
     2538500000   -7.808813453e-02    4.155237973e-02
     2539250000   -8.224464208e-02    3.542798385e-02
     2540000000   -8.574570715e-02    2.835192904e-02
     2540750000   -8.860579133e-02    2.077279612e-02
     2541500000   -9.144809842e-02    1.351707242e-02
     2542250000   -9.287549555e-02    5.255018827e-03
     2543000000   -9.319032729e-02   -2.581475535e-03
     2543750000   -9.404086322e-02   -1.102589257e-02
     2544500000   -9.255307913e-02   -1.945490204e-02
     2545250000   -9.174547344e-02   -2.739049122e-02
     2546000000   -8.938338608e-02   -3.617488593e-02
     2546750000   -8.570422977e-02   -4.441308603e-02
     2547500000   -8.226262033e-02   -5.185160413e-02
     2548250000   -7.751744241e-02   -5.955544487e-02
     2549000000   -7.222123444e-02   -6.687761843e-02
     2549750000   -6.630721688e-02   -7.288797200e-02
     2550500000   -5.950005352e-02   -7.926705480e-02
     2551250000   -5.170883611e-02   -8.483777940e-02
     2552000000   -4.368330166e-02   -9.002371132e-02
     2552750000   -3.620123118e-02   -9.441051632e-02
     2553500000   -2.708895877e-02   -9.802836180e-02
     2554250000   -1.658133231e-02   -1.006028801e-01
     2555000000   -7.550543640e-03   -1.028000787e-01
     2555750000    1.487655099e-03   -1.040684059e-01
     2556500000    1.210860163e-02   -1.036329791e-01
     2557250000    2.134605870e-02   -1.033891663e-01
     2558000000    3.130878508e-02   -1.010978296e-01
     2558750000    4.100872204e-02   -9.750203788e-02
     2559500000    5.090324581e-02   -9.501374513e-02
     2560250000    5.982708931e-02   -9.049928933e-02
     2561000000    6.846521050e-02   -8.457572758e-02
     2561750000    7.728438824e-02   -7.787365466e-02
     2562500000    8.500628173e-02   -7.216598839e-02
     2563250000    9.178987890e-02   -6.332305819e-02
     2564000000    9.867271036e-02   -5.472470447e-02
     2564750000    1.046895534e-01   -4.609900713e-02
     2565500000    1.097264588e-01   -3.562403098e-02
     2566250000    1.130139306e-01   -2.558509819e-02
     2567000000    1.167279854e-01   -1.464319509e-02
     2567750000    1.187254265e-01   -4.125647712e-03
     2568500000    1.192964613e-01    7.490574848e-03
     2569250000    1.197720319e-01    1.905527338e-02
     2570000000    1.189236045e-01    3.049761988e-02
     2570750000    1.168535128e-01    4.134331271e-02
     2571500000    1.139250472e-01    5.230891332e-02
     2572250000    1.097190082e-01    6.330641359e-02
     2573000000    1.052196175e-01    7.386682183e-02
     2573750000    9.885323793e-02    8.399819583e-02
     2574500000    9.196296334e-02    9.351263195e-02
     2575250000    8.356534690e-02    1.023850143e-01
     2576000000    7.506000996e-02    1.104078144e-01
     2576750000    6.520556659e-02    1.174173951e-01
     2577500000    5.504437909e-02    1.228409708e-01
     2578250000    4.423138127e-02    1.291748434e-01
     2579000000    3.239069134e-02    1.327557713e-01
     2579750000    2.030023374e-02    1.364739537e-01
     2580500000    8.329203352e-03    1.383998394e-01
     2581250000   -4.617549479e-03    1.394301206e-01
     2582000000   -1.715012267e-02    1.387971342e-01
     2582750000   -2.996380441e-02    1.377410889e-01
     2583500000   -4.280519858e-02    1.343496889e-01
     2584250000   -5.547606200e-02    1.309647560e-01
     2585000000   -6.700592488e-02    1.256530136e-01
     2585750000   -7.935972512e-02    1.200359538e-01
     2586500000   -9.074603766e-02    1.134734079e-01
     2587250000   -1.010202765e-01    1.043075770e-01
     2588000000   -1.112558991e-01    9.574183822e-02
     2588750000   -1.195881069e-01    8.478944749e-02
     2589500000   -1.281718761e-01    7.452458143e-02
     2590250000   -1.349370480e-01    6.226797774e-02
     2591000000   -1.409683973e-01    4.940435290e-02
     2591750000   -1.454480439e-01    3.626348078e-02
     2592500000   -1.490119994e-01    2.267641947e-02
     2593250000   -1.517691165e-01    9.227730334e-03
     2594000000   -1.520885825e-01   -5.907262675e-03
     2594750000   -1.517486125e-01   -2.051888034e-02
     2595500000   -1.505883336e-01   -3.458426893e-02
     2596250000   -1.476092786e-01   -4.894354194e-02
     2597000000   -1.430602819e-01   -6.292112172e-02
     2597750000   -1.384378076e-01   -7.736346871e-02
     2598500000   -1.304293424e-01   -9.043227136e-02
     2599250000   -1.229325607e-01   -1.026426852e-01
     2600000000   -1.140065491e-01   -1.152798906e-01
