! NanoVNA-App
! Date: 2026-05-22 15:38:00
! Start: 4.8GHz Stop: 6GHz Points: 401
! S-Parameter data: F S11
# Hz S RI R 50
!     Frequency           S11_Real           S11_Imag
     4800000000    1.558079869e-01    1.766267717e-01
     4803000000    8.032126725e-02    2.158147544e-01
     4806000000   -2.475909423e-03    2.283628285e-01
     4809000000   -8.278636634e-02    2.042983919e-01
     4812000000   -1.498114020e-01    1.569373757e-01
     4815000000   -1.930795014e-01    9.042117000e-02
     4818000000   -2.100123465e-01    1.530101057e-02
     4821000000   -1.933377683e-01   -5.936760083e-02
     4824000000   -1.557948589e-01   -1.222055033e-01
     4827000000   -9.773937613e-02   -1.656997949e-01
     4830000000   -2.960709855e-02   -1.862321198e-01
     4833000000    3.930602223e-02   -1.764507443e-01
     4836000000    9.885358810e-02   -1.444543749e-01
     4839000000    1.407778710e-01   -9.541440755e-02
     4842000000    1.613923907e-01   -3.372251242e-02
     4845000000    1.581661552e-01    2.779899351e-02
     4848000000    1.326624453e-01    8.139728755e-02
     4851000000    8.949199319e-02    1.223342195e-01
     4854000000    3.490435332e-02    1.434589624e-01
     4857000000   -2.011464350e-02    1.401515454e-01
     4860000000   -7.053565234e-02    1.219341382e-01
     4863000000   -1.086825728e-01    8.460593969e-02
     4866000000   -1.228291541e-01    3.631689027e-02
     4869000000   -1.273703128e-01   -1.387401577e-02
     4872000000   -1.043172106e-01   -5.715578422e-02
     4875000000   -7.229974866e-02   -9.206298739e-02
     4878000000   -2.663703077e-02   -1.045706347e-01
     4881000000    1.611938700e-02   -1.072492898e-01
     4884000000    5.393106863e-02   -8.682259917e-02
     4887000000    8.506605029e-02   -5.800447240e-02
     4890000000    9.463450313e-02   -1.804119721e-02
     4893000000    9.232994169e-02    2.027807944e-02
     4896000000    7.489561290e-02    5.660576001e-02
     4899000000    4.374706745e-02    7.923887670e-02
     4902000000    7.322406396e-03    8.766710758e-02
     4905000000   -3.046866506e-02    8.468453586e-02
     4908000000   -6.013473496e-02    6.219336390e-02
     4911000000   -7.881551981e-02    2.995110117e-02
     4914000000   -8.216860890e-02   -6.021762267e-03
     4917000000   -7.593663782e-02   -3.993974999e-02
     4920000000   -5.174398050e-02   -6.812245399e-02
     4923000000   -1.955918223e-02   -8.358356357e-02
     4926000000    1.796347648e-02   -8.222445846e-02
     4929000000    5.125582218e-02   -6.405773014e-02
     4932000000    7.859271765e-02   -4.160299525e-02
     4935000000    9.528715163e-02   -7.426347118e-03
     4938000000    8.974450082e-02    3.401673585e-02
     4941000000    7.029557228e-02    6.985527277e-02
     4944000000    3.598862886e-02    9.520938247e-02
     4947000000   -2.982199658e-03    1.089755371e-01
     4950000000   -4.878479987e-02    1.003861129e-01
     4953000000   -8.639555424e-02    8.048857003e-02
     4956000000   -1.153635681e-01    4.782750458e-02
     4959000000   -1.263589114e-01   -1.639045426e-03
     4962000000   -1.210967675e-01   -4.886841029e-02
     4965000000   -9.603471309e-02   -9.288847446e-02
     4968000000   -5.448295176e-02   -1.251520216e-01
     4971000000   -4.160614684e-03   -1.402077526e-01
     4974000000    5.007921159e-02   -1.331469417e-01
     4977000000    9.837383777e-02   -1.083542854e-01
     4980000000    1.354873627e-01   -6.595426798e-02
     4983000000    1.522579193e-01   -9.292442352e-03
     4986000000    1.486547738e-01    4.945055395e-02
     4989000000    1.197271869e-01    1.040423587e-01
     4992000000    7.522051781e-02    1.463820040e-01
     4995000000    1.616244204e-02    1.682576388e-01
     4998000000   -5.001956969e-02    1.630815268e-01
     5001000000   -1.097028032e-01    1.435739100e-01
     5004000000   -1.599494964e-01    9.491125494e-02
     5007000000   -1.823108643e-01    2.697826922e-02
     5010000000   -1.888178736e-01   -4.127655551e-02
     5013000000   -1.679113656e-01   -1.094362587e-01
     5016000000   -1.108534262e-01   -1.616411209e-01
     5019000000   -4.975333810e-02   -1.984123737e-01
     5022000000    2.538282797e-02   -2.063846439e-01
     5025000000    1.021618694e-01   -1.823524982e-01
     5028000000    1.660007387e-01   -1.404925138e-01
     5031000000    2.054832876e-01   -6.677041948e-02
     5034000000    2.212823629e-01    1.300052181e-02
     5037000000    2.120462656e-01    9.228076041e-02
     5040000000    1.574749351e-01    1.643884480e-01
     5043000000    9.235438704e-02    2.143989354e-01
     5046000000    1.004067156e-02    2.396668643e-01
     5049000000   -7.950790226e-02    2.263490558e-01
     5052000000   -1.597427726e-01    1.878021061e-01
     5055000000   -2.199468613e-01    1.215031818e-01
     5058000000   -2.491503507e-01    3.093569539e-02
     5061000000   -2.475493550e-01   -6.022293493e-02
     5064000000   -2.139479071e-01   -1.469568461e-01
     5067000000   -1.459598243e-01   -2.155903727e-01
     5070000000   -5.924303085e-02   -2.582717240e-01
     5073000000    3.848290071e-02   -2.644984424e-01
     5076000000    1.340056360e-01   -2.336743176e-01
     5079000000    2.135883421e-01   -1.735634357e-01
     5082000000    2.630704641e-01   -8.535131812e-02
     5085000000    2.817165554e-01    1.315747201e-02
     5088000000    2.665995359e-01    1.143163443e-01
     5091000000    2.045468241e-01    2.023443878e-01
     5094000000    1.246499270e-01    2.681066990e-01
     5097000000    1.725252531e-02    2.967099845e-01
     5100000000   -9.062843025e-02    2.862100601e-01
     5103000000   -1.887037307e-01    2.325308323e-01
     5106000000   -2.648381591e-01    1.592339277e-01
     5109000000   -3.040490448e-01    5.177265778e-02
     5112000000   -3.105627596e-01   -5.706711113e-02
     5115000000   -2.642382979e-01   -1.646638662e-01
     5118000000   -1.923666894e-01   -2.482396960e-01
     5121000000   -8.880747855e-02   -3.013453782e-01
     5124000000    2.461116388e-02   -3.168554306e-01
     5127000000    1.376485974e-01   -2.884121835e-01
     5130000000    2.307624370e-01   -2.208753526e-01
     5133000000    2.965306044e-01   -1.253233701e-01
     5136000000    3.233190477e-01   -1.305059809e-02
     5139000000    3.074748516e-01    1.042715013e-01
     5142000000    2.535833716e-01    2.066313177e-01
     5145000000    1.607279032e-01    2.846797705e-01
     5148000000    5.033520609e-02    3.250622451e-01
     5151000000   -6.857643276e-02    3.194504976e-01
     5154000000   -1.799104959e-01    2.761207521e-01
     5157000000   -2.682537436e-01    1.932449192e-01
     5160000000   -3.191978633e-01    8.583921939e-02
     5163000000   -3.324534297e-01   -3.231776506e-02
     5166000000   -2.990064323e-01   -1.491304338e-01
     5169000000   -2.258092463e-01   -2.457319647e-01
     5172000000   -1.243146658e-01   -3.143139780e-01
     5175000000   -5.308011547e-03   -3.341423273e-01
     5178000000    1.157488376e-01   -3.149489760e-01
     5181000000    2.185542732e-01   -2.545458078e-01
     5184000000    2.919179499e-01   -1.601549536e-01
     5187000000    3.351041079e-01   -4.311135784e-02
     5190000000    3.232495189e-01    7.769346237e-02
     5193000000    2.725469470e-01    1.846536100e-01
     5196000000    1.887953132e-01    2.716549933e-01
     5199000000    7.596487552e-02    3.187170625e-01
     5202000000   -4.089191183e-02    3.254598677e-01
     5205000000   -1.573528647e-01    2.903376520e-01
     5208000000   -2.473483533e-01    2.143896669e-01
     5211000000   -3.081813753e-01    1.111977100e-01
     5214000000   -3.274567425e-01   -5.514597986e-03
     5217000000   -3.017238677e-01   -1.213229895e-01
     5220000000   -2.362509519e-01   -2.198006362e-01
     5223000000   -1.399912834e-01   -2.872656286e-01
     5226000000   -2.614842914e-02   -3.178071678e-01
     5229000000    9.077449888e-02   -3.023903668e-01
     5232000000    1.931593865e-01   -2.479024082e-01
     5235000000    2.687495947e-01   -1.609252691e-01
     5238000000    3.082223535e-01   -5.332115293e-02
     5241000000    3.047231734e-01    6.121044606e-02
     5244000000    2.615047097e-01    1.695386022e-01
     5247000000    1.836817265e-01    2.484709173e-01
     5250000000    8.111539483e-02    2.983413041e-01
     5253000000   -3.073635697e-02    3.061310351e-01
     5256000000   -1.393173933e-01    2.739113867e-01
     5259000000   -2.259970009e-01    2.050172091e-01
     5262000000   -2.861708999e-01    1.046521142e-01
     5265000000   -3.028527498e-01   -4.143540282e-03
     5268000000   -2.798460722e-01   -1.094078720e-01
     5271000000   -2.213357687e-01   -2.052721679e-01
     5274000000   -1.332461089e-01   -2.725888789e-01
     5277000000   -2.391833998e-02   -2.999276221e-01
     5280000000    8.260025084e-02   -2.880751193e-01
     5283000000    1.813596785e-01   -2.357015759e-01
     5286000000    2.517336905e-01   -1.533013284e-01
     5289000000    2.886150479e-01   -5.006072298e-02
     5292000000    2.872250974e-01    5.647813529e-02
     5295000000    2.464307398e-01    1.569859385e-01
     5298000000    1.739648283e-01    2.355067134e-01
     5301000000    8.028826118e-02    2.810319960e-01
     5304000000   -2.633768693e-02    2.890934646e-01
     5307000000   -1.272144914e-01    2.590376139e-01
     5310000000   -2.085150480e-01    1.951093525e-01
     5313000000   -2.636824846e-01    1.054987162e-01
     5316000000   -2.817675769e-01    2.831998980e-03
     5319000000   -2.603543401e-01   -9.905379266e-02
     5322000000   -2.086846679e-01   -1.826556325e-01
     5325000000   -1.293037981e-01   -2.431877553e-01
     5328000000   -3.298871592e-02   -2.712442279e-01
     5331000000    6.648987532e-02   -2.616088688e-01
     5334000000    1.545678824e-01   -2.196603119e-01
     5337000000    2.201029658e-01   -1.470120996e-01
     5340000000    2.550670207e-01   -6.021789461e-02
     5343000000    2.551646233e-01    3.730011731e-02
     5346000000    2.197149843e-01    1.241953596e-01
     5349000000    1.584141403e-01    1.934833378e-01
     5352000000    7.829792053e-02    2.367825657e-01
     5355000000   -1.277143136e-02    2.442716360e-01
     5358000000   -1.046875864e-01    2.123495340e-01
     5361000000   -1.741130799e-01    1.673860848e-01
     5364000000   -2.196545154e-01    9.420242161e-02
     5367000000   -2.310783714e-01   -1.640130882e-03
     5370000000   -2.178559601e-01   -8.255743980e-02
     5373000000   -1.752893031e-01   -1.500726789e-01
     5376000000   -1.152574569e-01   -2.041428238e-01
     5379000000   -2.036741376e-02   -2.198073566e-01
     5382000000    5.128967389e-02   -2.218061984e-01
     5385000000    1.254900396e-01   -1.795989871e-01
     5388000000    1.806450039e-01   -1.121165380e-01
     5391000000    2.096213996e-01   -4.669725895e-02
     5394000000    2.053649426e-01    3.210122883e-02
     5397000000    1.751936376e-01    1.046366543e-01
     5400000000    1.227486357e-01    1.572013646e-01
     5403000000    5.896552652e-02    1.897035390e-01
     5406000000   -1.448021922e-02    1.922120005e-01
     5409000000   -8.130957186e-02    1.782003045e-01
     5412000000   -1.356403977e-01    1.240420491e-01
     5415000000   -1.698839664e-01    6.508395076e-02
     5418000000   -1.806760132e-01    4.104257969e-04
     5421000000   -1.646902561e-01   -6.493753940e-02
     5424000000   -1.316091418e-01   -1.195743680e-01
     5427000000   -7.908383757e-02   -1.582373381e-01
     5430000000   -8.661420085e-03   -1.615153253e-01
     5433000000    5.031065643e-02   -1.614014506e-01
     5436000000    1.007483602e-01   -1.178672239e-01
     5439000000    1.409693807e-01   -8.140656352e-02
     5442000000    1.496374458e-01   -1.753381453e-02
     5445000000    1.504484266e-01    3.660497442e-02
     5448000000    1.126551554e-01    8.454483002e-02
     5451000000    7.220583409e-02    1.204463914e-01
     5454000000    2.489141189e-02    1.392742544e-01
     5457000000   -2.822060511e-02    1.367600560e-01
     5460000000   -7.532510906e-02    1.097513512e-01
     5463000000   -1.088059545e-01    7.473952323e-02
     5466000000   -1.291804165e-01    2.815614827e-02
     5469000000   -1.199611053e-01   -2.551134676e-02
     5472000000   -1.048229784e-01   -6.811925024e-02
     5475000000   -7.766471058e-02   -1.046062633e-01
     5478000000   -2.480827644e-02   -1.140483841e-01
     5481000000    1.704013906e-02   -1.186716855e-01
     5484000000    5.985423550e-02   -9.745962918e-02
     5487000000    8.858256042e-02   -6.933391094e-02
     5490000000    1.070936471e-01   -2.650162950e-02
     5493000000    9.940351546e-02    1.789673604e-02
     5496000000    1.007688791e-01    5.447193980e-02
     5499000000    5.130451918e-02    7.890705019e-02
     5502000000    2.509597503e-02    1.000132486e-01
     5505000000   -1.540447678e-02    9.727694839e-02
     5508000000   -5.102334917e-02    9.229779243e-02
     5511000000   -7.769431174e-02    5.332529545e-02
     5514000000   -9.115694463e-02    2.020962164e-02
     5517000000   -8.446336538e-02   -1.818127558e-02
     5520000000   -7.629067451e-02   -5.156251788e-02
     5523000000   -4.844249412e-02   -7.492955029e-02
     5526000000   -1.131479815e-02   -8.265240490e-02
     5529000000    2.344682999e-02   -7.837262750e-02
     5532000000    5.251165107e-02   -7.371080667e-02
     5535000000    7.266290486e-02   -4.101397470e-02
     5538000000    8.528672159e-02   -9.065725841e-03
     5541000000    8.318506181e-02    2.551593073e-02
     5544000000    6.443738192e-02    5.368514359e-02
     5547000000    3.534491733e-02    7.449136674e-02
     5550000000   -2.262822672e-04    7.842411846e-02
     5553000000   -2.995783091e-02    7.629337907e-02
     5556000000   -5.944332108e-02    5.802970752e-02
     5559000000   -7.698263973e-02    2.746680193e-02
     5562000000   -8.394569159e-02   -7.749777287e-03
     5565000000   -7.924067229e-02   -3.695125133e-02
     5568000000   -5.767475441e-02   -6.842539459e-02
     5571000000   -2.428832278e-02   -8.685512096e-02
     5574000000    8.261219598e-03   -9.422630072e-02
     5577000000    5.034454167e-02   -7.404217869e-02
     5580000000    7.576267421e-02   -6.192563474e-02
     5583000000    9.033369273e-02   -1.489110664e-02
     5586000000    9.978064150e-02    1.290654950e-02
     5589000000    8.610215783e-02    5.293662474e-02
     5592000000    5.385236070e-02    8.626148850e-02
     5595000000    2.977830730e-02    1.044219881e-01
     5598000000   -1.586928964e-02    1.084308103e-01
     5601000000   -6.242275611e-02    8.646681905e-02
     5604000000   -9.142494947e-02    7.290577888e-02
     5607000000   -1.125333980e-01    2.215495892e-02
     5610000000   -1.210988611e-01   -1.340262871e-02
     5613000000   -1.075105518e-01   -5.909953639e-02
     5616000000   -7.391627133e-02   -9.883359075e-02
     5619000000   -3.284768388e-02   -1.226192787e-01
     5622000000    1.579489186e-02   -1.293993443e-01
     5625000000    6.151564419e-02   -1.224260330e-01
     5628000000    1.054751724e-01   -8.501565456e-02
     5631000000    1.328679919e-01   -4.512651265e-02
     5634000000    1.425246596e-01    1.109382976e-02
     5637000000    1.383937001e-01    6.262800097e-02
     5640000000    9.994847327e-02    1.122057661e-01
     5643000000    5.563353002e-02    1.427460760e-01
     5646000000    2.090627095e-03    1.594853401e-01
     5649000000   -5.711532757e-02    1.525724828e-01
     5652000000   -1.097895503e-01    1.212880909e-01
     5655000000   -1.501440406e-01    7.742765546e-02
     5658000000   -1.641693562e-01    9.835746139e-03
     5661000000   -1.692359746e-01   -4.375720769e-02
     5664000000   -1.393505633e-01   -1.019237936e-01
     5667000000   -9.144217521e-02   -1.463222355e-01
     5670000000   -3.240978345e-02   -1.735755950e-01
     5673000000    3.163626418e-02   -1.765728444e-01
     5676000000    9.560618550e-02   -1.595305502e-01
     5679000000    1.456537694e-01   -1.059984863e-01
     5682000000    1.812344939e-01   -5.088081211e-02
     5685000000    1.827640980e-01    2.184706368e-02
     5688000000    1.682709157e-01    8.506427705e-02
     5691000000    1.343673319e-01    1.447015405e-01
     5694000000    6.355757266e-02    1.768318266e-01
     5697000000    3.738115774e-03    2.033918947e-01
     5700000000   -7.171986252e-02    1.868076324e-01
     5703000000   -1.363935918e-01    1.486469656e-01
     5706000000   -1.827552021e-01    9.052701294e-02
     5709000000   -1.926948875e-01    1.557711326e-02
     5712000000   -1.947155744e-01   -5.686981231e-02
     5715000000   -1.672890633e-01   -1.258838326e-01
     5718000000   -1.051833704e-01   -1.762939394e-01
     5721000000   -3.381845728e-02   -2.036994845e-01
     5724000000    4.159441963e-02   -2.045366466e-01
     5727000000    1.150842160e-01   -1.782458425e-01
     5730000000    1.719969064e-01   -1.247296855e-01
     5733000000    2.052993625e-01   -5.414439365e-02
     5736000000    2.085134685e-01    2.580398880e-02
     5739000000    1.943704039e-01    1.027459800e-01
     5742000000    1.380312145e-01    1.594589204e-01
     5745000000    7.196968794e-02    2.062192559e-01
     5748000000   -6.725111976e-03    2.173158228e-01
     5751000000   -8.309277147e-02    1.873593628e-01
     5754000000   -1.579104811e-01    1.586515456e-01
     5757000000   -2.036191523e-01    8.714101464e-02
     5760000000   -2.214191109e-01    6.750811823e-03
     5763000000   -2.171451449e-01   -7.705612481e-02
     5766000000   -1.736072451e-01   -1.494104415e-01
     5769000000   -1.028969362e-01   -1.980937868e-01
     5772000000   -2.506477013e-02   -2.394210249e-01
     5775000000    5.929882079e-02   -2.256534100e-01
     5778000000    1.375987232e-01   -1.905123442e-01
     5781000000    2.007175684e-01   -1.310390681e-01
     5784000000    2.339167595e-01   -4.840837792e-02
     5787000000    2.413494587e-01    3.913366795e-02
     5790000000    2.079582363e-01    1.191053689e-01
     5793000000    1.555089355e-01    1.940531135e-01
     5796000000    7.493267953e-02    2.365997136e-01
     5799000000   -1.677020825e-02    2.485611290e-01
     5802000000   -1.034340039e-01    2.275663018e-01
     5805000000   -1.774861962e-01    1.735192686e-01
     5808000000   -2.339114398e-01    9.944619983e-02
     5811000000   -2.568127811e-01    9.156888351e-03
     5814000000   -2.364313751e-01   -7.736467570e-02
     5817000000   -1.959371418e-01   -1.656028777e-01
     5820000000   -1.233278438e-01   -2.303758860e-01
     5823000000   -3.888693079e-02   -2.483606786e-01
     5826000000    5.974514410e-02   -2.512118220e-01
     5829000000    1.527775079e-01   -2.184517235e-01
     5832000000    2.135692090e-01   -1.473350823e-01
     5835000000    2.550884783e-01   -5.942231044e-02
     5838000000    2.607955933e-01    3.673873469e-02
     5841000000    2.287272662e-01    1.253780872e-01
     5844000000    1.698383242e-01    2.023925483e-01
     5847000000    8.532248437e-02    2.551576495e-01
     5850000000   -1.031271741e-02    2.644596994e-01
     5853000000   -1.028578356e-01    2.428067923e-01
     5856000000   -1.836338788e-01    1.888634562e-01
     5859000000   -2.383162975e-01    1.101052910e-01
     5862000000   -2.616670132e-01    1.794596389e-02
     5865000000   -2.439746708e-01   -6.933709234e-02
     5868000000   -2.038311064e-01   -1.550622135e-01
     5871000000   -1.337457448e-01   -2.234272510e-01
     5874000000   -4.208352417e-02   -2.582164407e-01
     5877000000    6.135227904e-02   -2.607801855e-01
     5880000000    1.425633878e-01   -2.196643502e-01
     5883000000    2.039903551e-01   -1.526914984e-01
     5886000000    2.569567263e-01   -5.923771113e-02
     5889000000    2.474660724e-01    2.363974042e-02
     5892000000    2.248538584e-01    1.181033105e-01
     5895000000    1.660837829e-01    1.909454167e-01
     5898000000    7.950648665e-02    2.453799099e-01
     5901000000   -1.178882923e-02    2.585556507e-01
     5904000000   -1.014414281e-01    2.317970991e-01
     5907000000   -1.868235618e-01    1.796449721e-01
     5910000000   -2.221983671e-01    1.080821678e-01
     5913000000   -2.583403289e-01    2.706638072e-03
     5916000000   -2.427930385e-01   -8.254976571e-02
     5919000000   -1.924894899e-01   -1.627041101e-01
     5922000000   -1.234490350e-01   -2.158375531e-01
     5925000000   -2.936397679e-02   -2.534390986e-01
     5928000000    5.914346129e-02   -2.448138595e-01
     5931000000    1.481045485e-01   -2.047913074e-01
     5934000000    2.115263939e-01   -1.369010359e-01
     5937000000    2.441696078e-01   -5.150403455e-02
     5940000000    2.461715490e-01    4.185524583e-02
     5943000000    2.111582160e-01    1.189387068e-01
     5946000000    1.523679644e-01    1.896362156e-01
     5949000000    6.115897000e-02    2.457783371e-01
     5952000000   -1.545383688e-02    2.403439581e-01
     5955000000   -1.078235731e-01    2.198435813e-01
     5958000000   -1.712550223e-01    1.664110720e-01
     5961000000   -2.344084829e-01    7.831221074e-02
     5964000000   -2.416168302e-01   -6.720617879e-03
     5967000000   -2.195603102e-01   -8.235220611e-02
     5970000000   -1.679131538e-01   -1.802218258e-01
     5973000000   -9.983213246e-02   -2.159170806e-01
     5976000000   -1.193184033e-02   -2.364692241e-01
     5979000000    9.025014192e-02   -2.270598263e-01
     5982000000    1.517898887e-01   -1.829331964e-01
     5985000000    2.166445106e-01   -1.112065017e-01
     5988000000    2.355614305e-01   -3.379125148e-02
     5991000000    2.348800004e-01    6.646406651e-02
     5994000000    1.962517202e-01    1.464882642e-01
     5997000000    1.354999989e-01    1.990219206e-01
     6000000000    4.387383908e-02    2.393198758e-01
