! NanoVNA-App
! Date: 2026-05-23 15:23:00
! Start: 2.3GHz Stop: 2.6GHz Points: 401
! S-Parameter data: F S11
# Hz S RI R 50
!     Frequency           S11_Real           S11_Imag
     2300000000   -2.165900022e-01    1.469647288e-01
     2300750000   -2.282561213e-01    1.268092990e-01
     2301500000   -2.365181744e-01    1.059058234e-01
     2302250000   -2.470179200e-01    8.342271298e-02
     2303000000   -2.518972754e-01    6.074004248e-02
     2303750000   -2.552132607e-01    3.882902861e-02
     2304500000   -2.579716742e-01    1.511445176e-02
     2305250000   -2.576474547e-01   -7.870625705e-03
     2306000000   -2.552880347e-01   -3.108623624e-02
     2306750000   -2.512792945e-01   -5.269690230e-02
     2307500000   -2.452125251e-01   -7.581478357e-02
     2308250000   -2.373716533e-01   -9.570711851e-02
     2309000000   -2.264659405e-01   -1.156518981e-01
     2309750000   -2.153181285e-01   -1.369414628e-01
     2310500000   -2.014130354e-01   -1.538665444e-01
     2311250000   -1.866957545e-01   -1.711688936e-01
     2312000000   -1.703855246e-01   -1.873099804e-01
     2312750000   -1.529334784e-01   -1.995834857e-01
     2313500000   -1.342521012e-01   -2.122694850e-01
     2314250000   -1.149585545e-01   -2.230812460e-01
     2315000000   -9.406507015e-02   -2.310466170e-01
     2315750000   -7.244750857e-02   -2.384593189e-01
     2316500000   -5.129067972e-02   -2.426152676e-01
     2317250000   -2.923582122e-02   -2.454223633e-01
     2318000000   -7.367874030e-03   -2.468676418e-01
     2318750000    1.406209450e-02   -2.446854264e-01
     2319500000    3.409227356e-02   -2.408967912e-01
     2320250000    5.674325302e-02   -2.370021045e-01
     2321000000    7.851391286e-02   -2.298008502e-01
     2321750000    9.644856304e-02   -2.205609679e-01
     2322500000    1.153485626e-01   -2.103026658e-01
     2323250000    1.349838972e-01   -1.990554482e-01
     2324000000    1.513903290e-01   -1.847371757e-01
     2324750000    1.659243405e-01   -1.703083068e-01
     2325500000    1.797837466e-01   -1.535860300e-01
     2326250000    1.909171939e-01   -1.360527724e-01
     2327000000    2.043380439e-01   -1.177001446e-01
     2327750000    2.108209133e-01   -9.931892902e-02
     2328500000    2.205211967e-01   -7.951987535e-02
     2329250000    2.256632298e-01   -5.835622549e-02
     2330000000    2.285699993e-01   -3.884842619e-02
     2330750000    2.314186841e-01   -1.782121696e-02
     2331500000    2.306613177e-01    3.100822447e-03
     2332250000    2.287836522e-01    2.366865054e-02
     2333000000    2.258912325e-01    4.454956949e-02
     2333750000    2.197398841e-01    6.331883371e-02
     2334500000    2.122668773e-01    8.264575899e-02
     2335250000    2.034536600e-01    1.014643312e-01
     2336000000    1.924387068e-01    1.185089201e-01
     2336750000    1.811681241e-01    1.346530169e-01
     2337500000    1.673735529e-01    1.503293514e-01
     2338250000    1.529291421e-01    1.642225981e-01
     2339000000    1.373693198e-01    1.755681187e-01
     2339750000    1.203753054e-01    1.879468560e-01
     2340500000    1.028195024e-01    1.955866069e-01
     2341250000    8.476404846e-02    2.031621337e-01
     2342000000    6.587336957e-02    2.104195207e-01
     2342750000    4.629635438e-02    2.145252228e-01
     2343500000    2.758512273e-02    2.165027410e-01
     2344250000    7.184423972e-03    2.187728137e-01
     2345000000   -1.153405569e-02    2.172765732e-01
     2345750000   -3.047972545e-02    2.143743932e-01
     2346500000   -5.129760504e-02    2.108958364e-01
     2347250000   -6.756187975e-02    2.032419890e-01
     2348000000   -8.593871444e-02    1.968809366e-01
     2348750000   -1.035817787e-01    1.878552139e-01
     2349500000   -1.185778603e-01    1.773295254e-01
     2350250000   -1.341087073e-01    1.658739150e-01
     2351000000   -1.475490630e-01    1.529172212e-01
     2351750000   -1.601477563e-01    1.385464668e-01
     2352500000   -1.705988497e-01    1.242359728e-01
     2353250000   -1.808582544e-01    1.075305715e-01
     2354000000   -1.888642758e-01    9.082500637e-02
     2354750000   -1.950542033e-01    7.399395108e-02
     2355500000   -1.985305995e-01    5.659323558e-02
     2356250000   -2.058973610e-01    3.609916568e-02
     2357000000   -2.067075372e-01    1.902915910e-02
     2357750000   -2.068345696e-01    4.879945191e-04
     2358500000   -2.044665962e-01   -1.643274166e-02
     2359250000   -2.027897239e-01   -3.610990196e-02
     2360000000   -1.977119446e-01   -5.184779316e-02
     2360750000   -1.919522583e-01   -6.971713901e-02
     2361500000   -1.850351393e-01   -8.572455496e-02
     2362250000   -1.759964079e-01   -1.018437445e-01
     2363000000   -1.658780426e-01   -1.153979227e-01
     2363750000   -1.544511765e-01   -1.291590780e-01
     2364500000   -1.423148811e-01   -1.418618560e-01
     2365250000   -1.291234046e-01   -1.530390829e-01
     2366000000   -1.151733920e-01   -1.634663790e-01
     2366750000   -9.989569336e-02   -1.719533801e-01
     2367500000   -8.496997505e-02   -1.791151464e-01
     2368250000   -6.851705164e-02   -1.856837571e-01
     2369000000   -5.242550001e-02   -1.897036731e-01
     2369750000   -3.529305756e-02   -1.926135123e-01
     2370500000   -1.887989789e-02   -1.933598518e-01
     2371250000   -2.626902889e-03   -1.932224035e-01
     2372000000    1.364280190e-02   -1.928210855e-01
     2372750000    2.939271927e-02   -1.880471855e-01
     2373500000    4.572895169e-02   -1.849956661e-01
     2374250000    6.133069843e-02   -1.798998266e-01
     2375000000    7.528702915e-02   -1.722287387e-01
     2375750000    9.055771679e-02   -1.643980742e-01
     2376500000    1.015936434e-01   -1.548492610e-01
     2377250000    1.144677252e-01   -1.444371492e-01
     2378000000    1.245661899e-01   -1.329836696e-01
     2378750000    1.331379116e-01   -1.209120899e-01
     2379500000    1.437821388e-01   -1.072535291e-01
     2380250000    1.500182599e-01   -9.459565580e-02
     2381000000    1.549883187e-01   -8.062368631e-02
     2381750000    1.614287049e-01   -6.499168277e-02
     2382500000    1.663382053e-01   -5.036780611e-02
     2383250000    1.684307009e-01   -3.406303376e-02
     2384000000    1.690961868e-01   -1.965398528e-02
     2384750000    1.681884974e-01   -6.506436504e-03
     2385500000    1.683300883e-01    1.118335035e-02
     2386250000    1.632836610e-01    2.248240821e-02
     2387000000    1.612113118e-01    3.997087851e-02
     2387750000    1.562616378e-01    5.456626043e-02
     2388500000    1.491584480e-01    6.430331618e-02
     2389250000    1.419012100e-01    7.737452537e-02
     2390000000    1.338183582e-01    9.026441723e-02
     2390750000    1.241777763e-01    1.003145799e-01
     2391500000    1.143782884e-01    1.082979590e-01
     2392250000    1.039944366e-01    1.195845753e-01
     2393000000    9.268731624e-02    1.273475885e-01
     2393750000    8.090646565e-02    1.339723021e-01
     2394500000    6.892915070e-02    1.402398348e-01
     2395250000    5.686227232e-02    1.436823159e-01
     2396000000    4.341983423e-02    1.485945582e-01
     2396750000    3.066769987e-02    1.507793069e-01
     2397500000    1.711369306e-02    1.518485099e-01
     2398250000    4.465362057e-03    1.517068744e-01
     2399000000   -8.284439333e-03    1.511134803e-01
     2399750000   -1.969743520e-02    1.484225541e-01
     2400500000   -3.312937543e-02    1.456951201e-01
     2401250000   -4.490819201e-02    1.419077069e-01
     2402000000   -5.491919070e-02    1.371178776e-01
     2402750000   -6.569622457e-02    1.305323392e-01
     2403500000   -7.506515086e-02    1.240838319e-01
     2404250000   -8.518584818e-02    1.168977469e-01
     2405000000   -9.246084839e-02    1.087778807e-01
     2405750000   -1.005307212e-01    9.977056831e-02
     2406500000   -1.067822799e-01    9.108542651e-02
     2407250000   -1.126696616e-01    8.082764596e-02
     2408000000   -1.168664545e-01    7.109599560e-02
     2408750000   -1.208498254e-01    6.101904809e-02
     2409500000   -1.241118610e-01    5.000668764e-02
     2410250000   -1.250456870e-01    4.024139792e-02
     2411000000   -1.266912818e-01    2.851213515e-02
     2411750000   -1.270206422e-01    1.778399572e-02
     2412500000   -1.257044375e-01    8.195901290e-03
     2413250000   -1.242609844e-01   -1.658210997e-03
     2414000000   -1.224002168e-01   -1.237735059e-02
     2414750000   -1.189568266e-01   -2.246238850e-02
     2415500000   -1.149794906e-01   -3.069709800e-02
     2416250000   -1.108377576e-01   -3.987071291e-02
     2417000000   -1.053405628e-01   -4.744377360e-02
     2417750000   -9.942346066e-02   -5.397567898e-02
     2418500000   -9.333869815e-02   -6.214157864e-02
     2419250000   -8.654426783e-02   -6.777724624e-02
     2420000000   -7.926525176e-02   -7.326549292e-02
     2420750000   -7.179544866e-02   -7.710255682e-02
     2421500000   -6.367515773e-02   -8.201508969e-02
     2422250000   -5.485350266e-02   -8.280365914e-02
     2423000000   -4.777406156e-02   -8.745981753e-02
     2423750000   -3.894491866e-02   -8.912370354e-02
     2424500000   -3.252091631e-02   -8.945853263e-02
     2425250000   -2.274410799e-02   -9.079144895e-02
     2426000000   -1.481347345e-02   -9.089837223e-02
     2426750000   -7.556734141e-03   -8.946885914e-02
     2427500000    6.695060874e-04   -8.835802972e-02
     2428250000    1.007757336e-02   -8.629232645e-02
     2429000000    1.439060178e-02   -8.366697282e-02
     2429750000    2.109666169e-02   -8.061888814e-02
     2430500000    2.862993255e-02   -7.699003816e-02
     2431250000    3.493532911e-02   -7.333242893e-02
     2432000000    3.824841976e-02   -6.947091967e-02
     2432750000    4.496371374e-02   -6.403228641e-02
     2433500000    4.741379619e-02   -6.038204208e-02
     2434250000    5.385119095e-02   -5.410760269e-02
     2435000000    5.594391003e-02   -4.985859245e-02
     2435750000    5.904296041e-02   -4.367069900e-02
     2436500000    6.169211864e-02   -3.787605464e-02
     2437250000    6.256273389e-02   -3.314338997e-02
     2438000000    6.354138255e-02   -2.830387466e-02
     2438750000    6.706050783e-02   -1.895599440e-02
     2439500000    6.616537273e-02   -1.559314970e-02
     2440250000    6.664030254e-02   -1.103309356e-02
     2441000000    6.634429097e-02   -6.263060495e-03
     2441750000    6.594546139e-02   -8.323618385e-05
     2442500000    6.517302990e-02    3.425893141e-03
     2443250000    6.347965449e-02    7.926691324e-03
     2444000000    6.187549978e-02    1.174984593e-02
     2444750000    5.988571048e-02    1.654148288e-02
     2445500000    5.788192153e-02    2.010621503e-02
     2446250000    5.525513738e-02    2.546576783e-02
     2447000000    5.349109694e-02    2.558934316e-02
     2447750000    5.054971576e-02    2.941757627e-02
     2448500000    4.775571451e-02    3.153566271e-02
     2449250000    4.445992038e-02    3.387669846e-02
     2450000000    4.121312499e-02    3.562739491e-02
     2450750000    3.817357123e-02    3.800238669e-02
     2451500000    3.611297533e-02    3.855319321e-02
     2452250000    3.143887967e-02    4.033316299e-02
     2453000000    2.925280854e-02    4.135489091e-02
     2453750000    2.595790289e-02    4.217284545e-02
     2454500000    2.238703333e-02    4.274047539e-02
     2455250000    2.016193606e-02    4.361744225e-02
     2456000000    1.688000560e-02    4.393459111e-02
     2456750000    1.381033938e-02    4.412651435e-02
     2457500000    9.808368050e-03    4.474494234e-02
     2458250000    8.633176796e-03    4.499677196e-02
     2459000000    5.319184158e-03    4.548486322e-02
     2459750000    3.338495269e-03    4.528135061e-02
     2460500000    8.514549118e-04    4.525448009e-02
     2461250000   -2.096976619e-03    4.467604309e-02
     2462000000   -2.129714936e-03    4.635702074e-02
     2462750000   -6.304135546e-03    4.528367892e-02
     2463500000   -8.443837054e-03    4.458593205e-02
     2464250000   -1.010657288e-02    4.511613399e-02
     2465000000   -1.307059079e-02    4.371391609e-02
     2465750000   -1.499788370e-02    4.388233647e-02
     2466500000   -1.682303101e-02    4.328125715e-02
     2467250000   -1.941691525e-02    4.318243638e-02
     2468000000   -2.081003040e-02    4.522476718e-02
     2468750000   -2.349869348e-02    4.152425379e-02
     2469500000   -2.555614710e-02    4.179435223e-02
     2470250000   -2.795122005e-02    4.048776999e-02
     2471000000   -2.966140024e-02    4.031866416e-02
     2471750000   -3.229952976e-02    3.987852484e-02
     2472500000   -3.448095173e-02    3.775319085e-02
     2473250000   -3.732948378e-02    3.751305118e-02
     2474000000   -3.939460218e-02    3.516341746e-02
     2474750000   -4.246341810e-02    3.395979479e-02
     2475500000   -4.471462592e-02    3.169047460e-02
     2476250000   -4.719980061e-02    3.014840186e-02
     2477000000   -5.010559037e-02    2.787804604e-02
     2477750000   -5.210050195e-02    2.503048256e-02
     2478500000   -5.616394058e-02    2.282471769e-02
     2479250000   -5.759496614e-02    1.956232637e-02
     2480000000   -5.970894918e-02    1.660772040e-02
     2480750000   -6.255573779e-02    1.367475279e-02
     2481500000   -6.382498145e-02    9.769107215e-03
     2482250000   -6.573436409e-02    5.650339648e-03
     2483000000   -6.772293150e-02    1.580030308e-03
     2483750000   -6.803780794e-02   -2.519339556e-03
     2484500000   -6.937374920e-02   -7.141246460e-03
     2485250000   -7.015326619e-02   -1.229651179e-02
     2486000000   -7.045883685e-02   -1.727451943e-02
     2486750000   -7.106436044e-02   -2.263167128e-02
     2487500000   -6.979090720e-02   -2.768882923e-02
     2488250000   -6.949482858e-02   -3.252584115e-02
     2489000000   -6.814350188e-02   -3.802651539e-02
     2489750000   -6.702760607e-02   -4.395014793e-02
     2490500000   -6.474396586e-02   -4.860408604e-02
     2491250000   -6.192748249e-02   -5.305034295e-02
     2492000000   -5.886256322e-02   -5.861975253e-02
     2492750000   -5.536318943e-02   -6.392438710e-02
     2493500000   -5.135746300e-02   -6.907627732e-02
     2494250000   -4.667109624e-02   -7.232525200e-02
     2495000000   -4.148523882e-02   -7.691531628e-02
     2495750000   -3.644051030e-02   -8.131960779e-02
     2496500000   -3.038217127e-02   -8.461788297e-02
     2497250000   -2.450066991e-02   -8.700965345e-02
     2498000000   -1.764907129e-02   -9.047292918e-02
     2498750000   -1.028932631e-02   -9.266643226e-02
     2499500000   -3.038074821e-03   -9.378490597e-02
     2500250000    4.264184274e-03   -9.504143149e-02
     2501000000    1.086877938e-02   -9.450576454e-02
     2501750000    1.990375668e-02   -9.513442963e-02
     2502500000    2.850270085e-02   -9.464646876e-02
     2503250000    3.553368896e-02   -9.304610640e-02
     2504000000    4.294482991e-02   -9.048132598e-02
     2504750000    5.141809210e-02   -8.814603090e-02
     2505500000    5.899274349e-02   -8.456190675e-02
     2506250000    6.537602097e-02   -8.063839376e-02
     2507000000    7.249867171e-02   -7.531420887e-02
     2507750000    7.939477265e-02   -6.968365610e-02
     2508500000    8.506079018e-02   -6.389719248e-02
     2509250000    9.138792008e-02   -5.715416744e-02
     2510000000    9.657239914e-02   -4.957921430e-02
     2510750000    1.011248603e-01   -4.118263349e-02
     2511500000    1.051006466e-01   -3.268528357e-02
     2512250000    1.085126027e-01   -2.384650335e-02
     2513000000    1.111243069e-01   -1.460633241e-02
     2513750000    1.125145704e-01   -4.795553163e-03
     2514500000    1.134158298e-01    5.492543802e-03
     2515250000    1.139288545e-01    1.585728861e-02
     2516000000    1.133181900e-01    2.597491071e-02
     2516750000    1.118302047e-01    3.653430939e-02
     2517500000    1.093769446e-01    4.708892852e-02
     2518250000    1.063124985e-01    5.710244179e-02
     2519000000    1.020564139e-01    6.747402251e-02
     2519750000    9.733930230e-02    7.691831142e-02
     2520500000    9.120487422e-02    8.597487211e-02
     2521250000    8.478790522e-02    9.505093843e-02
     2522000000    7.719983906e-02    1.027465835e-01
     2522750000    6.954173744e-02    1.102962196e-01
     2523500000    6.044076383e-02    1.169890463e-01
     2524250000    5.068052933e-02    1.227686480e-01
     2525000000    4.035793617e-02    1.286236197e-01
     2525750000    2.947575971e-02    1.331885457e-01
     2526500000    1.884830743e-02    1.360824555e-01
     2527250000    6.947875023e-03    1.385731101e-01
     2528000000   -4.971962422e-03    1.400490403e-01
     2528750000   -1.721514575e-02    1.406486332e-01
     2529500000   -2.909418941e-02    1.395062953e-01
     2530250000   -4.143987224e-02    1.377989650e-01
     2531000000   -5.341832712e-02    1.349558085e-01
     2531750000   -6.566627324e-02    1.313355267e-01
     2532500000   -7.703783363e-02    1.267189831e-01
     2533250000   -8.797569573e-02    1.207291260e-01
     2534000000   -9.913134575e-02    1.130958721e-01
     2534750000   -1.089656502e-01    1.052390411e-01
     2535500000   -1.179994270e-01    9.614300728e-02
     2536250000   -1.265387833e-01    8.576888591e-02
     2537000000   -1.347877383e-01    7.490989566e-02
     2537750000   -1.408197582e-01    6.342764199e-02
     2538500000   -1.472558975e-01    5.141901225e-02
     2539250000   -1.519125998e-01    3.858720511e-02
     2540000000   -1.551503986e-01    2.534673549e-02
     2540750000   -1.579395533e-01    1.098495163e-02
     2541500000   -1.598007828e-01   -2.302011941e-03
     2542250000   -1.593943238e-01   -1.700822636e-02
     2543000000   -1.585184336e-01   -3.114302829e-02
     2543750000   -1.567124724e-01   -4.522698373e-02
     2544500000   -1.525902301e-01   -5.933859199e-02
     2545250000   -1.478748471e-01   -7.312370092e-02
     2546000000   -1.423902512e-01   -8.619407564e-02
     2546750000   -1.350082606e-01   -9.948382527e-02
     2547500000   -1.269711554e-01   -1.116628721e-01
     2548250000   -1.170728877e-01   -1.235499606e-01
     2549000000   -1.063496098e-01   -1.334894598e-01
     2549750000   -9.477584809e-02   -1.434859186e-01
     2550500000   -8.241418749e-02   -1.518470198e-01
     2551250000   -6.846205145e-02   -1.595637649e-01
     2552000000   -5.562755093e-02   -1.658944339e-01
     2552750000   -4.043477029e-02   -1.712484062e-01
     2553500000   -2.531137876e-02   -1.750923544e-01
     2554250000   -9.730681777e-03   -1.774443537e-01
     2555000000    5.110703409e-03   -1.792061925e-01
     2555750000    2.148401365e-02   -1.786991954e-01
     2556500000    3.750234097e-02   -1.766278446e-01
     2557250000    5.251070485e-02   -1.742905676e-01
     2558000000    6.733760983e-02   -1.684747487e-01
     2558750000    8.315064758e-02   -1.624996662e-01
     2559500000    9.746373445e-02   -1.545556933e-01
     2560250000    1.115426645e-01   -1.460753083e-01
     2561000000    1.247176453e-01   -1.354254484e-01
     2561750000    1.375988275e-01   -1.230863482e-01
     2562500000    1.491840184e-01   -1.115649715e-01
     2563250000    1.588460803e-01   -9.719668329e-02
     2564000000    1.684150994e-01   -8.254970610e-02
     2564750000    1.771424860e-01   -6.786280870e-02
     2565500000    1.846690774e-01   -5.124080181e-02
     2566250000    1.883407682e-01   -3.424831480e-02
     2567000000    1.935165972e-01   -1.731109433e-02
     2567750000    1.950745434e-01    9.432951629e-05
     2568500000    1.957845092e-01    1.778612472e-02
     2569250000    1.957041770e-01    3.591695428e-02
     2570000000    1.927581280e-01    5.342105776e-02
     2570750000    1.886430383e-01    7.055385411e-02
     2571500000    1.833008826e-01    8.693498373e-02
     2572250000    1.766282767e-01    1.036330611e-01
     2573000000    1.677908003e-01    1.201944426e-01
     2573750000    1.575397551e-01    1.344284266e-01
     2574500000    1.466179937e-01    1.486091912e-01
     2575250000    1.334251165e-01    1.611401588e-01
     2576000000    1.193612441e-01    1.732028872e-01
     2576750000    1.039868668e-01    1.834336370e-01
     2577500000    8.814517409e-02    1.920285970e-01
     2578250000    7.117778063e-02    1.996770203e-01
     2579000000    5.245630071e-02    2.058836222e-01
     2579750000    3.427819535e-02    2.096939385e-01
     2580500000    1.555252541e-02    2.127047330e-01
     2581250000   -4.412468988e-03    2.137535810e-01
     2582000000   -2.422718890e-02    2.135395557e-01
     2582750000   -4.377593845e-02    2.110184729e-01
     2583500000   -6.384805590e-02    2.076399326e-01
     2584250000   -8.246807009e-02    2.018053979e-01
     2585000000   -1.002881154e-01    1.937986910e-01
     2585750000   -1.194710955e-01    1.855035573e-01
     2586500000   -1.358836889e-01    1.749388427e-01
     2587250000   -1.526745856e-01    1.630454808e-01
     2588000000   -1.670479476e-01    1.495140195e-01
     2588750000   -1.810916662e-01    1.348379701e-01
     2589500000   -1.931235194e-01    1.186801568e-01
     2590250000   -2.046138048e-01    1.024385244e-01
     2591000000   -2.123334557e-01    8.427061886e-02
     2591750000   -2.202640176e-01    6.553356349e-02
     2592500000   -2.260755897e-01    4.598841444e-02
     2593250000   -2.308408171e-01    2.599334903e-02
     2594000000   -2.310777009e-01    5.533772055e-03
     2594750000   -2.305697203e-01   -1.408910565e-02
     2595500000   -2.297182828e-01   -3.588479385e-02
     2596250000   -2.270721048e-01   -5.753480271e-02
     2597000000   -2.210517675e-01   -7.659478486e-02
     2597750000   -2.131332159e-01   -9.678983688e-02
     2598500000   -2.029741704e-01   -1.145634279e-01
     2599250000   -1.928230971e-01   -1.342761964e-01
     2600000000   -1.809425205e-01   -1.515841633e-01
