! NanoVNA-App
! Date: 2026-05-22 23:28:32
! Start: 2.3GHz Stop: 2.6GHz Points: 401
! S-Parameter data: F S11
# Hz S RI R 50
!     Frequency           S11_Real           S11_Imag
     2300000000   -2.821688056e-01   -2.315382846e-02
     2300750000   -2.785943151e-01   -4.785527661e-02
     2301500000   -2.721640468e-01   -7.274600863e-02
     2302250000   -2.636079788e-01   -9.694860876e-02
     2303000000   -2.532154322e-01   -1.203707233e-01
     2303750000   -2.412858307e-01   -1.413891017e-01
     2304500000   -2.266948521e-01   -1.624781489e-01
     2305250000   -2.108328789e-01   -1.807794273e-01
     2306000000   -1.929329336e-01   -1.993250251e-01
     2306750000   -1.748454869e-01   -2.136349529e-01
     2307500000   -1.536287665e-01   -2.288999408e-01
     2308250000   -1.329412609e-01   -2.404276729e-01
     2309000000   -1.107958928e-01   -2.506352961e-01
     2309750000   -8.728277683e-02   -2.583557963e-01
     2310500000   -6.448906660e-02   -2.643598616e-01
     2311250000   -3.974044695e-02   -2.679575384e-01
     2312000000   -1.650573127e-02   -2.693881094e-01
     2312750000    7.300843485e-03   -2.687578201e-01
     2313500000    3.198639303e-02   -2.659680843e-01
     2314250000    5.483524874e-02   -2.616204023e-01
     2315000000    7.792016864e-02   -2.540813386e-01
     2315750000    9.941906482e-02   -2.451873124e-01
     2316500000    1.206421927e-01   -2.345649600e-01
     2317250000    1.400006860e-01   -2.220993936e-01
     2318000000    1.586464047e-01   -2.074176073e-01
     2318750000    1.758086532e-01   -1.913997531e-01
     2319500000    1.922202259e-01   -1.747732311e-01
     2320250000    2.048128396e-01   -1.559704840e-01
     2321000000    2.176782489e-01   -1.362756789e-01
     2321750000    2.275224328e-01   -1.155407056e-01
     2322500000    2.363420278e-01   -9.435397387e-02
     2323250000    2.421776801e-01   -7.335108519e-02
     2324000000    2.467310727e-01   -5.041976646e-02
     2324750000    2.497776002e-01   -2.830909565e-02
     2325500000    2.487916350e-01   -6.045792717e-03
     2326250000    2.483822554e-01    1.762124151e-02
     2327000000    2.439017147e-01    3.856547922e-02
     2327750000    2.390580773e-01    6.036317348e-02
     2328500000    2.326239347e-01    8.117057383e-02
     2329250000    2.219752222e-01    1.008967608e-01
     2330000000    2.114517093e-01    1.193898544e-01
     2330750000    1.988256723e-01    1.388562322e-01
     2331500000    1.845119745e-01    1.542256773e-01
     2332250000    1.692698002e-01    1.696828306e-01
     2333000000    1.526241004e-01    1.834255159e-01
     2333750000    1.348898858e-01    1.960626394e-01
     2334500000    1.161082759e-01    2.061070204e-01
     2335250000    9.644264728e-02    2.140083611e-01
     2336000000    7.654657215e-02    2.218689024e-01
     2336750000    5.652607605e-02    2.268945426e-01
     2337500000    3.542657942e-02    2.303587049e-01
     2338250000    1.404126082e-02    2.318121195e-01
     2339000000   -5.996784661e-03    2.306286842e-01
     2339750000   -2.686126716e-02    2.288530469e-01
     2340500000   -4.686987400e-02    2.243275046e-01
     2341250000   -6.620395184e-02    2.180764377e-01
     2342000000   -8.503880352e-02    2.106391490e-01
     2342750000   -1.026059836e-01    2.009083331e-01
     2343500000   -1.196130291e-01    1.894331127e-01
     2344250000   -1.356105804e-01    1.774955243e-01
     2345000000   -1.503492594e-01    1.638415605e-01
     2345750000   -1.643914878e-01    1.487333775e-01
     2346500000   -1.750362515e-01    1.326830089e-01
     2347250000   -1.862716973e-01    1.161305457e-01
     2348000000   -1.948363930e-01    9.842870384e-02
     2348750000   -2.019457519e-01    7.971187681e-02
     2349500000   -2.061114609e-01    6.107911840e-02
     2350250000   -2.105398625e-01    4.136582091e-02
     2351000000   -2.126357108e-01    2.259428613e-02
     2351750000   -2.117798030e-01    3.449146403e-03
     2352500000   -2.117314041e-01   -1.593894325e-02
     2353250000   -2.079909444e-01   -3.425041214e-02
     2354000000   -2.031944394e-01   -5.349211395e-02
     2354750000   -1.968191415e-01   -7.057359815e-02
     2355500000   -1.877867877e-01   -8.714845777e-02
     2356250000   -1.791263819e-01   -1.042851880e-01
     2357000000   -1.688280851e-01   -1.198778227e-01
     2357750000   -1.559034735e-01   -1.334843040e-01
     2358500000   -1.421099603e-01   -1.451833397e-01
     2359250000   -1.293091029e-01   -1.597951502e-01
     2360000000   -1.136676371e-01   -1.683837771e-01
     2360750000   -9.801603854e-02   -1.767783612e-01
     2361500000   -8.219113201e-02   -1.838425249e-01
     2362250000   -6.440593302e-02   -1.901997030e-01
     2363000000   -4.720666632e-02   -1.936889589e-01
     2363750000   -2.984779701e-02   -1.967050582e-01
     2364500000   -1.292207465e-02   -1.973260939e-01
     2365250000    4.927119706e-03   -1.966876388e-01
     2366000000    2.151320688e-02   -1.944323182e-01
     2366750000    3.870001435e-02   -1.906362027e-01
     2367500000    5.473103747e-02   -1.846791804e-01
     2368250000    7.049602270e-02   -1.781340092e-01
     2369000000    8.533823490e-02   -1.700776964e-01
     2369750000    9.956907481e-02   -1.603928208e-01
     2370500000    1.120700762e-01   -1.495840102e-01
     2371250000    1.245766580e-01   -1.375967264e-01
     2372000000    1.349836886e-01   -1.254504174e-01
     2372750000    1.444028914e-01   -1.111016273e-01
     2373500000    1.532406807e-01   -9.708077461e-02
     2374250000    1.599548012e-01   -8.213201165e-02
     2375000000    1.653675288e-01   -6.664562225e-02
     2375750000    1.700308472e-01   -5.070700124e-02
     2376500000    1.718771905e-01   -3.510647267e-02
     2377250000    1.730215549e-01   -1.868417300e-02
     2378000000    1.720130444e-01   -3.075386630e-03
     2378750000    1.714120358e-01    1.311106887e-02
     2379500000    1.673328280e-01    2.860347368e-02
     2380250000    1.629150659e-01    4.315279052e-02
     2381000000    1.577790231e-01    5.876250565e-02
     2381750000    1.486781985e-01    7.141462713e-02
     2382500000    1.419960260e-01    8.517497033e-02
     2383250000    1.317288727e-01    9.725149721e-02
     2384000000    1.220587343e-01    1.099050418e-01
     2384750000    1.099593341e-01    1.178635359e-01
     2385500000    9.744686633e-02    1.263547242e-01
     2386250000    8.495356143e-02    1.358540952e-01
     2387000000    7.079239935e-02    1.413020194e-01
     2387750000    5.708524585e-02    1.484718472e-01
     2388500000    4.273345321e-02    1.500370204e-01
     2389250000    2.842185274e-02    1.546748579e-01
     2390000000    1.372419298e-02    1.562874764e-01
     2390750000   -1.494623604e-03    1.560284942e-01
     2391500000   -1.601067930e-02    1.547101140e-01
     2392250000   -2.947080135e-02    1.518277973e-01
     2393000000   -4.432253167e-02    1.487809867e-01
     2393750000   -5.818661302e-02    1.441962719e-01
     2394500000   -6.935980171e-02    1.374187768e-01
     2395250000   -8.265443146e-02    1.308913231e-01
     2396000000   -9.372612834e-02    1.223987043e-01
     2396750000   -1.039553285e-01    1.137897298e-01
     2397500000   -1.134475991e-01    1.041104272e-01
     2398250000   -1.221297756e-01    9.406205267e-02
     2399000000   -1.279881448e-01    8.192013949e-02
     2399750000   -1.358450204e-01    7.062967122e-02
     2400500000   -1.396306306e-01    5.802453682e-02
     2401250000   -1.433197707e-01    4.572654516e-02
     2402000000   -1.482601613e-01    3.382641822e-02
     2402750000   -1.468948126e-01    2.019017376e-02
     2403500000   -1.484332979e-01    7.421342190e-03
     2404250000   -1.467608958e-01   -5.392214749e-03
     2405000000   -1.449371427e-01   -1.830831915e-02
     2405750000   -1.414946914e-01   -3.038988076e-02
     2406500000   -1.362929642e-01   -4.193137586e-02
     2407250000   -1.310301870e-01   -5.326829106e-02
     2408000000   -1.244560406e-01   -6.363821030e-02
     2408750000   -1.175000742e-01   -7.438133657e-02
     2409500000   -1.088480726e-01   -8.367269486e-02
     2410250000   -9.892918915e-02   -9.109611809e-02
     2411000000   -8.949288726e-02   -9.867148101e-02
     2411750000   -7.918166369e-02   -1.055753902e-01
     2412500000   -6.792989373e-02   -1.104744598e-01
     2413250000   -5.716202781e-02   -1.150667444e-01
     2414000000   -4.496108741e-02   -1.200492457e-01
     2414750000   -3.377931938e-02   -1.212224811e-01
     2415500000   -2.148286439e-02   -1.225414947e-01
     2416250000   -9.638812393e-03   -1.237874329e-01
     2417000000    1.750451047e-03   -1.224087998e-01
     2417750000    1.309141517e-02   -1.204852909e-01
     2418500000    2.500155568e-02   -1.180403158e-01
     2419250000    3.571388498e-02   -1.144719124e-01
     2420000000    4.615654424e-02   -1.097462177e-01
     2420750000    5.610199645e-02   -1.038457751e-01
     2421500000    6.536421180e-02   -9.789188951e-02
     2422250000    7.356306911e-02   -8.990276605e-02
     2423000000    8.103246987e-02   -8.220294118e-02
     2423750000    8.938525617e-02   -7.387012243e-02
     2424500000    9.470611811e-02   -6.464540958e-02
     2425250000    1.003601775e-01   -5.532918498e-02
     2426000000    1.046257243e-01   -4.583960772e-02
     2426750000    1.080116257e-01   -3.555332124e-02
     2427500000    1.119407192e-01   -2.561202832e-02
     2428250000    1.120092869e-01   -1.534749381e-02
     2429000000    1.115214527e-01   -5.364554469e-03
     2429750000    1.127751619e-01    5.887808278e-03
     2430500000    1.113850698e-01    1.512019243e-02
     2431250000    1.082814112e-01    2.377863415e-02
     2432000000    1.055045500e-01    3.382719308e-02
     2432750000    1.020711958e-01    4.324037209e-02
     2433500000    9.685691446e-02    5.158381909e-02
     2434250000    8.975203335e-02    5.708000809e-02
     2435000000    8.502148837e-02    6.718645990e-02
     2435750000    7.709807158e-02    7.345956564e-02
     2436500000    6.919483840e-02    7.909608632e-02
     2437250000    6.154993549e-02    8.363093436e-02
     2438000000    5.366304889e-02    9.081617743e-02
     2438750000    4.534566030e-02    9.319919348e-02
     2439500000    3.616774082e-02    9.690124542e-02
     2440250000    2.680829354e-02    9.811680019e-02
     2441000000    1.843295805e-02    9.926710278e-02
     2441750000    9.946724400e-03    9.942915291e-02
     2442500000   -4.548096913e-04    1.007973105e-01
     2443250000   -7.949232124e-03    9.901875257e-02
     2444000000   -1.751133427e-02    9.848581254e-02
     2444750000   -2.489037625e-02    9.380917996e-02
     2445500000   -3.290798143e-02    9.145755321e-02
     2446250000   -4.058087245e-02    8.854408562e-02
     2447000000   -4.725519195e-02    8.322938532e-02
     2447750000   -5.168050155e-02    7.724808156e-02
     2448500000   -5.963935703e-02    7.316862792e-02
     2449250000   -6.312365085e-02    6.607675552e-02
     2450000000   -6.876167655e-02    5.994954333e-02
     2450750000   -7.094235718e-02    5.338168517e-02
     2451500000   -7.484313846e-02    4.644812644e-02
     2452250000   -7.656750083e-02    3.959354013e-02
     2453000000   -7.787235826e-02    3.216127679e-02
     2453750000   -7.904159278e-02    2.498830110e-02
     2454500000   -7.931515574e-02    1.764154434e-02
     2455250000   -7.834244519e-02    1.044106763e-02
     2456000000   -7.730917633e-02    3.473396180e-03
     2456750000   -7.585032284e-02   -4.009902477e-03
     2457500000   -7.315549254e-02   -9.921418503e-03
     2458250000   -6.960854679e-02   -1.623701863e-02
     2459000000   -6.614017487e-02   -2.258383855e-02
     2459750000   -6.213479489e-02   -2.787267417e-02
     2460500000   -5.821160600e-02   -3.359774128e-02
     2461250000   -5.226051807e-02   -3.588434681e-02
     2462000000   -4.753831029e-02   -4.103446379e-02
     2462750000   -4.170758277e-02   -4.373598099e-02
     2463500000   -3.665926680e-02   -4.610802233e-02
     2464250000   -3.058046289e-02   -4.896596074e-02
     2465000000   -2.462019399e-02   -5.199301243e-02
     2465750000   -1.823701896e-02   -5.285600945e-02
     2466500000   -1.244730595e-02   -5.120896548e-02
     2467250000   -6.791558582e-03   -5.236331001e-02
     2468000000   -1.588156680e-03   -5.088355020e-02
     2468750000    4.873006605e-03   -5.154306814e-02
     2469500000    9.522706270e-03   -4.783327505e-02
     2470250000    1.465735119e-02   -4.729030281e-02
     2471000000    1.987223513e-02   -4.532508925e-02
     2471750000    2.361043356e-02   -4.188560322e-02
     2472500000    2.745288797e-02   -3.847075254e-02
     2473250000    3.094523028e-02   -3.486689180e-02
     2474000000    3.405610099e-02   -3.125810623e-02
     2474750000    3.482969850e-02   -2.649817243e-02
     2475500000    3.834900260e-02   -2.327289246e-02
     2476250000    4.149105400e-02   -1.959150843e-02
     2477000000    4.050805792e-02   -1.495257765e-02
     2477750000    4.128825292e-02   -1.067956630e-02
     2478500000    4.151952267e-02   -6.804133300e-03
     2479250000    4.096493497e-02   -2.415940398e-03
     2480000000    4.027978331e-02    1.443046378e-03
     2480750000    3.964445740e-02    5.148192402e-03
     2481500000    3.748504445e-02    8.341660723e-03
     2482250000    3.522489220e-02    1.178255212e-02
     2483000000    3.322921321e-02    1.471024286e-02
     2483750000    3.042945638e-02    1.788341813e-02
     2484500000    2.780795656e-02    2.013862692e-02
     2485250000    2.479740791e-02    2.141349390e-02
     2486000000    2.117920294e-02    2.297505550e-02
     2486750000    1.864267513e-02    2.428221330e-02
     2487500000    1.464490499e-02    2.454372123e-02
     2488250000    1.180522051e-02    2.375995368e-02
     2489000000    8.467367850e-03    2.453421056e-02
     2489750000    5.205159541e-03    2.337404899e-02
     2490500000    2.062497428e-03    2.252083831e-02
     2491250000   -1.024683123e-03    2.160185575e-02
     2492000000   -4.291493446e-03    1.903790608e-02
     2492750000   -6.840571295e-03    1.654574089e-02
     2493500000   -9.543531574e-03    1.418034453e-02
     2494250000   -1.176274102e-02    1.272740494e-02
     2495000000   -1.337126736e-02    8.967810310e-03
     2495750000   -1.542800386e-02    6.207845174e-03
     2496500000   -1.661637239e-02    3.281004028e-03
     2497250000   -1.772610471e-02    6.057703868e-04
     2498000000   -1.721939631e-02   -2.655645367e-03
     2498750000   -1.752911694e-02   -5.344476551e-03
     2499500000   -1.836752705e-02   -8.321394213e-03
     2500250000   -1.689198241e-02   -1.116371900e-02
     2501000000   -1.398088131e-02   -1.443340629e-02
     2501750000   -1.417976990e-02   -1.596949063e-02
     2502500000   -1.340606716e-02   -1.852859743e-02
     2503250000   -7.976933382e-03   -2.111983113e-02
     2504000000   -8.490877226e-03   -2.284343354e-02
     2504750000   -3.406735603e-03   -2.483322099e-02
     2505500000   -1.484373468e-03   -2.611864917e-02
     2506250000    8.241829928e-04   -2.670848742e-02
     2507000000    5.707406905e-03   -2.717162482e-02
     2507750000    6.952185649e-03   -2.786152624e-02
     2508500000    1.180281769e-02   -2.717742138e-02
     2509250000    1.451048534e-02   -2.693024278e-02
     2510000000    1.779996976e-02   -2.503360622e-02
     2510750000    2.099759690e-02   -2.388941310e-02
     2511500000    2.396336198e-02   -2.199450880e-02
     2512250000    2.759657614e-02   -1.874422655e-02
     2513000000    2.954027615e-02   -1.748359576e-02
     2513750000    3.151038662e-02   -1.318309177e-02
     2514500000    3.382786363e-02   -1.061850134e-02
     2515250000    3.532958031e-02   -6.945983041e-03
     2516000000    3.674164787e-02   -2.350957831e-03
     2516750000    3.741924092e-02    1.399783418e-03
     2517500000    3.774973005e-02    5.730960052e-03
     2518250000    3.792771697e-02    1.032751426e-02
     2519000000    3.763977811e-02    1.540479623e-02
     2519750000    3.685926273e-02    1.990037970e-02
     2520500000    3.479387611e-02    2.491114289e-02
     2521250000    3.336386755e-02    2.901485935e-02
     2522000000    3.114086017e-02    3.294409811e-02
     2522750000    2.811738662e-02    3.775749356e-02
     2523500000    2.499623783e-02    4.160135239e-02
     2524250000    2.111897431e-02    4.476895183e-02
     2525000000    1.672792621e-02    4.818338528e-02
     2525750000    1.154750958e-02    5.124449357e-02
     2526500000    6.615448743e-03    5.371071771e-02
     2527250000    1.015431597e-03    5.571893975e-02
     2528000000   -5.330931861e-03    5.663157627e-02
     2528750000   -9.923595935e-03    5.846874416e-02
     2529500000   -1.664386690e-02    5.855318531e-02
     2530250000   -2.271044999e-02    5.856249109e-02
     2531000000   -2.875163406e-02    5.815461278e-02
     2531750000   -3.535006568e-02    5.720371753e-02
     2532500000   -4.157591611e-02    5.592463166e-02
     2533250000   -4.745022580e-02    5.353033915e-02
     2534000000   -5.289791152e-02    5.087953061e-02
     2534750000   -5.883742496e-02    4.696805030e-02
     2535500000   -6.370136142e-02    4.344811663e-02
     2536250000   -6.847107410e-02    3.845399618e-02
     2537000000   -7.289365679e-02    3.260799870e-02
     2537750000   -7.596307993e-02    2.763623931e-02
     2538500000   -7.985427976e-02    2.186963335e-02
     2539250000   -8.245568722e-02    1.528080553e-02
     2540000000   -8.441802114e-02    8.350404911e-03
     2540750000   -8.587352186e-02    1.197561738e-03
     2541500000   -8.661933243e-02   -6.209304091e-03
     2542250000   -8.651103824e-02   -1.393113285e-02
     2543000000   -8.631447703e-02   -2.161250263e-02
     2543750000   -8.508819342e-02   -2.953811735e-02
     2544500000   -8.286684006e-02   -3.770002723e-02
     2545250000   -8.020491898e-02   -4.450726137e-02
     2546000000   -7.653646916e-02   -5.227856711e-02
     2546750000   -7.213887572e-02   -5.966778472e-02
     2547500000   -6.737191230e-02   -6.635052711e-02
     2548250000   -6.250128895e-02   -7.272031158e-02
     2549000000   -5.615941808e-02   -7.846732438e-02
     2549750000   -4.955967516e-02   -8.390484750e-02
     2550500000   -4.247067124e-02   -8.928583562e-02
     2551250000   -3.446452320e-02   -9.314090014e-02
     2552000000   -2.713000774e-02   -9.607946873e-02
     2552750000   -1.816615090e-02   -9.860686958e-02
     2553500000   -9.058747441e-03   -1.009206325e-01
     2554250000   -5.553938099e-04   -1.023612842e-01
     2555000000    8.804745972e-03   -1.025546119e-01
     2555750000    1.818773896e-02   -1.018052772e-01
     2556500000    2.689399198e-02   -1.005298868e-01
     2557250000    3.614298254e-02   -9.772875905e-02
     2558000000    4.553003237e-02   -9.407977760e-02
     2558750000    5.481421947e-02   -8.955827355e-02
     2559500000    6.266730279e-02   -8.592213690e-02
     2560250000    7.119590789e-02   -7.991816103e-02
     2561000000    7.846555859e-02   -7.265131176e-02
     2561750000    8.618926257e-02   -6.540806592e-02
     2562500000    9.232860804e-02   -5.871982872e-02
     2563250000    9.742089361e-02   -4.925664887e-02
     2564000000    1.032272577e-01   -4.057549685e-02
     2564750000    1.073744148e-01   -3.059827164e-02
     2565500000    1.111411601e-01   -2.064634487e-02
     2566250000    1.135722995e-01   -1.040816680e-02
     2567000000    1.152802706e-01   -2.267109085e-04
     2567750000    1.153237149e-01    1.175091043e-02
     2568500000    1.162180901e-01    2.167071216e-02
     2569250000    1.147270203e-01    3.253531456e-02
     2570000000    1.121484861e-01    4.389920458e-02
     2570750000    1.097413450e-01    5.424388498e-02
     2571500000    1.057056785e-01    6.389220804e-02
     2572250000    1.007585526e-01    7.385937870e-02
     2573000000    9.455742687e-02    8.333135396e-02
     2573750000    8.733323961e-02    9.257243574e-02
     2574500000    8.026539534e-02    1.006725878e-01
     2575250000    7.178603858e-02    1.082454026e-01
     2576000000    6.232929602e-02    1.153206155e-01
     2576750000    5.291426927e-02    1.207465827e-01
     2577500000    4.215607792e-02    1.255794317e-01
     2578250000    3.126248717e-02    1.298161149e-01
     2579000000    1.975742541e-02    1.330630630e-01
     2579750000    8.117789403e-03    1.348552555e-01
     2580500000   -4.165653139e-03    1.363021582e-01
     2581250000   -1.592308097e-02    1.361414641e-01
     2582000000   -2.849186212e-02    1.353582144e-01
     2582750000   -3.994456306e-02    1.335118860e-01
     2583500000   -5.197621882e-02    1.303195357e-01
     2584250000   -6.335995346e-02    1.259580702e-01
     2585000000   -7.496627420e-02    1.201836690e-01
     2585750000   -8.569186926e-02    1.141916960e-01
     2586500000   -9.539142996e-02    1.070485860e-01
     2587250000   -1.052268893e-01    9.811477363e-02
     2588000000   -1.139188036e-01    8.978588879e-02
     2588750000   -1.220147386e-01    7.947083563e-02
     2589500000   -1.286635399e-01    6.876809150e-02
     2590250000   -1.344046593e-01    5.777689070e-02
     2591000000   -1.391815245e-01    4.556449130e-02
     2591750000   -1.444221884e-01    3.464044258e-02
     2592500000   -1.462331861e-01    2.133812569e-02
     2593250000   -1.473882645e-01    8.908569813e-03
     2594000000   -1.472437382e-01   -4.712815862e-03
     2594750000   -1.466833949e-01   -1.741029695e-02
     2595500000   -1.452882588e-01   -3.041395918e-02
     2596250000   -1.411557347e-01   -4.375359043e-02
     2597000000   -1.373181939e-01   -5.652090535e-02
     2597750000   -1.302261502e-01   -6.818868965e-02
     2598500000   -1.248852238e-01   -8.113562316e-02
     2599250000   -1.165120825e-01   -9.140803665e-02
     2600000000   -1.086233929e-01   -1.028326973e-01
