! NanoVNA-App
! Date: 2026-05-22 23:29:02
! Start: 4.8GHz Stop: 6GHz Points: 401
! S-Parameter data: F S11
# Hz S RI R 50
!     Frequency           S11_Real           S11_Imag
     4800000000    7.444655895e-02   -2.328953296e-01
     4803000000    1.482005566e-01   -1.912254393e-01
     4806000000    2.003393173e-01   -1.252837926e-01
     4809000000    2.301405817e-01   -4.759614542e-02
     4812000000    2.241517603e-01    3.339621425e-02
     4815000000    1.995520890e-01    1.116228849e-01
     4818000000    1.453836709e-01    1.672011912e-01
     4821000000    7.778360695e-02    2.003550529e-01
     4824000000    4.667697474e-03    2.150648236e-01
     4827000000   -6.787397712e-02    1.961494833e-01
     4830000000   -1.316960603e-01    1.598253697e-01
     4833000000   -1.761767864e-01    1.032036468e-01
     4836000000   -1.917934418e-01    3.659193963e-02
     4839000000   -1.895397007e-01   -3.151322901e-02
     4842000000   -1.624348760e-01   -9.184347093e-02
     4845000000   -1.168138906e-01   -1.399864107e-01
     4848000000   -5.938372761e-02   -1.696002632e-01
     4851000000    3.877945477e-03   -1.742542982e-01
     4854000000    6.581214070e-02   -1.608367562e-01
     4857000000    1.118635684e-01   -1.242820397e-01
     4860000000    1.456169486e-01   -7.680525631e-02
     4863000000    1.588292271e-01   -2.145136707e-02
     4866000000    1.579495221e-01    3.869981691e-02
     4869000000    1.280189753e-01    8.434048295e-02
     4872000000    9.027209878e-02    1.164126694e-01
     4875000000    4.128773510e-02    1.465216875e-01
     4878000000   -5.792151205e-03    1.415995955e-01
     4881000000   -5.964214355e-02    1.326469928e-01
     4884000000   -8.817508072e-02    9.930948168e-02
     4887000000   -1.244452670e-01    5.853310227e-02
     4890000000   -1.270250380e-01    1.445717923e-02
     4893000000   -1.220036373e-01   -3.118424490e-02
     4896000000   -1.017015353e-01   -7.034026831e-02
     4899000000   -6.976819783e-02   -9.866186976e-02
     4902000000   -2.931774594e-02   -1.159058958e-01
     4905000000    9.316629730e-03   -1.189648286e-01
     4908000000    4.707803205e-02   -1.056307852e-01
     4911000000    7.742612064e-02   -8.062075078e-02
     4914000000    9.539692104e-02   -4.941422120e-02
     4917000000    1.049891263e-01   -1.208215393e-02
     4920000000    9.762375802e-02    2.354010195e-02
     4923000000    8.150470257e-02    5.412070453e-02
     4926000000    5.420449004e-02    7.645656914e-02
     4929000000    2.262200788e-02    9.487138689e-02
     4932000000   -6.232755724e-03    9.144423157e-02
     4935000000   -4.270139337e-02    8.408947289e-02
     4938000000   -5.827681348e-02    6.641289592e-02
     4941000000   -8.266584575e-02    3.747169673e-02
     4944000000   -7.977540791e-02    2.029982582e-02
     4947000000   -8.285211772e-02   -1.788557880e-02
     4950000000   -6.899928302e-02   -3.459403291e-02
     4953000000   -4.747472331e-02   -6.367729604e-02
     4956000000   -2.950651571e-02   -6.555816531e-02
     4959000000   -5.174155347e-03   -6.798951328e-02
     4962000000    2.202394977e-02   -6.218469888e-02
     4965000000    3.827727959e-02   -5.018046126e-02
     4968000000    5.218963698e-02   -3.269556537e-02
     4971000000    5.788368359e-02   -1.485308632e-02
     4974000000    5.694721639e-02    3.649793798e-03
     4977000000    5.124454945e-02    1.965116709e-02
     4980000000    3.982977569e-02    3.360506520e-02
     4983000000    2.400187589e-02    4.165113345e-02
     4986000000    8.431362920e-03    4.436708242e-02
     4989000000   -6.455062423e-03    4.171714932e-02
     4992000000   -2.393678762e-02    3.170441091e-02
     4995000000   -2.859361656e-02    2.768860757e-02
     4998000000   -3.702210262e-02    1.077110134e-02
     5001000000   -3.762552887e-02   -1.019262359e-03
     5004000000   -3.674693033e-02   -9.779128246e-03
     5007000000   -2.580728754e-02   -2.288683504e-02
     5010000000   -2.318710648e-02   -2.835025080e-02
     5013000000   -2.726740437e-03   -3.124461696e-02
     5016000000    2.467203420e-03   -3.216617182e-02
     5019000000    9.129517712e-03   -3.337986395e-02
     5022000000    1.977615990e-02   -3.163896501e-02
     5025000000    2.596009523e-02   -1.417636033e-02
     5028000000    2.873309702e-02   -4.999516066e-03
     5031000000    2.866706252e-02    4.229668528e-03
     5034000000    2.948452346e-02    1.290298998e-02
     5037000000    2.174542286e-02    2.052744664e-02
     5040000000    1.495588198e-02    2.511282265e-02
     5043000000    1.031208597e-02    3.215940669e-02
     5046000000   -1.465009293e-03    3.581766039e-02
     5049000000   -1.090958714e-02    3.239016607e-02
     5052000000   -2.045741118e-02    2.596479841e-02
     5055000000   -3.143179789e-02    2.301350422e-02
     5058000000   -3.352455795e-02    1.310756337e-02
     5061000000   -3.703051433e-02    1.962122740e-03
     5064000000   -3.637403622e-02   -9.350863285e-03
     5067000000   -3.370606527e-02   -2.072514966e-02
     5070000000   -2.454851009e-02   -2.809775062e-02
     5073000000   -1.324277278e-02   -3.501622751e-02
     5076000000    2.524390584e-04   -3.904914856e-02
     5079000000    1.418774482e-02   -3.649063408e-02
     5082000000    2.468150295e-02   -3.164457530e-02
     5085000000    3.621557727e-02   -2.200323902e-02
     5088000000    4.316801205e-02   -9.480129927e-03
     5091000000    4.868153855e-02    6.764474791e-03
     5094000000    4.736089334e-02    2.501796186e-02
     5097000000    3.969435021e-02    3.871401772e-02
     5100000000    2.704028413e-02    5.302174389e-02
     5103000000    8.493158966e-03    6.091497838e-02
     5106000000   -5.559359677e-03    6.267777085e-02
     5109000000   -2.870211937e-02    5.791844428e-02
     5112000000   -5.035150796e-02    4.324875027e-02
     5115000000   -5.615216866e-02    3.122249991e-02
     5118000000   -6.475749612e-02    8.882816881e-03
     5121000000   -6.611083448e-02   -1.707822084e-02
     5124000000   -5.799664557e-02   -4.080954939e-02
     5127000000   -3.854572773e-02   -6.151362509e-02
     5130000000   -2.113002539e-02   -7.181222737e-02
     5133000000    4.902671091e-03   -7.712770998e-02
     5136000000    2.850243449e-02   -7.392623276e-02
     5139000000    5.538468063e-02   -5.666913837e-02
     5142000000    7.112947851e-02   -3.900098801e-02
     5145000000    8.068921417e-02   -1.051518135e-02
     5148000000    8.174575120e-02    1.536018308e-02
     5151000000    7.093481719e-02    4.538716376e-02
     5154000000    4.714363441e-02    6.776247174e-02
     5157000000    2.124996856e-02    8.309835941e-02
     5160000000   -7.880779915e-03    8.801171184e-02
     5163000000   -4.053003341e-02    8.166210353e-02
     5166000000   -6.997460872e-02    6.191708520e-02
     5169000000   -8.848639578e-02    3.833150119e-02
     5172000000   -9.658518434e-02    1.588440646e-04
     5175000000   -9.535431117e-02   -3.300856799e-02
     5178000000   -7.539806515e-02   -6.709326059e-02
     5181000000   -5.258020386e-02   -9.177049249e-02
     5184000000   -2.050886676e-02   -1.069320664e-01
     5187000000    2.255417034e-02   -1.022152603e-01
     5190000000    5.704047903e-02   -9.771645069e-02
     5193000000    8.724491298e-02   -6.179955602e-02
     5196000000    1.094367579e-01   -3.444711491e-02
     5199000000    1.140684858e-01    1.149794180e-02
     5202000000    1.030031145e-01    5.288444832e-02
     5205000000    8.415942639e-02    8.918885142e-02
     5208000000    4.121914878e-02    1.120853573e-01
     5211000000    2.832717728e-03    1.314346492e-01
     5214000000   -4.712373018e-02    1.216128916e-01
     5217000000   -8.912590891e-02    1.008629277e-01
     5220000000   -1.228845641e-01    6.612182409e-02
     5223000000   -1.401106417e-01    1.865585148e-02
     5226000000   -1.417350024e-01   -3.140758350e-02
     5229000000   -1.231089681e-01   -7.954426110e-02
     5232000000   -9.041258693e-02   -1.205328628e-01
     5235000000   -4.249510169e-02   -1.474735588e-01
     5238000000    1.228096150e-02   -1.554076076e-01
     5241000000    6.759750098e-02   -1.415186226e-01
     5244000000    1.171640977e-01   -1.097380817e-01
     5247000000    1.510274559e-01   -6.169046462e-02
     5250000000    1.698037386e-01   -6.913942751e-03
     5253000000    1.615114063e-01    5.427434668e-02
     5256000000    1.349154413e-01    1.099099964e-01
     5259000000    8.967293799e-02    1.513091773e-01
     5262000000    2.932991274e-02    1.726259589e-01
     5265000000   -3.371912241e-02    1.778857708e-01
     5268000000   -9.828785062e-02    1.628232151e-01
     5271000000   -1.464813501e-01    1.141503230e-01
     5274000000   -1.844064146e-01    5.691362917e-02
     5277000000   -1.913888752e-01   -1.057015639e-02
     5280000000   -1.684021503e-01   -7.306287438e-02
     5283000000   -1.436222196e-01   -1.492760479e-01
     5286000000   -8.043288440e-02   -1.801487505e-01
     5289000000   -1.323239319e-02   -2.027062029e-01
     5292000000    6.180842966e-02   -1.990353316e-01
     5295000000    1.296888441e-01   -1.662561595e-01
     5298000000    1.785289794e-01   -1.083305627e-01
     5301000000    2.087402642e-01   -4.022608697e-02
     5304000000    2.147924900e-01    3.967326507e-02
     5307000000    1.916955411e-01    1.148540080e-01
     5310000000    1.416012049e-01    1.714187264e-01
     5313000000    6.935571134e-02    2.164125293e-01
     5316000000   -9.616618976e-03    2.259464562e-01
     5319000000   -8.953900635e-02    2.104180157e-01
     5322000000   -1.584473699e-01    1.677357256e-01
     5325000000   -2.119293958e-01    1.028287634e-01
     5328000000   -2.344232798e-01    2.116877958e-02
     5331000000   -2.222630531e-01   -5.666084215e-02
     5334000000   -1.915384680e-01   -1.418903321e-01
     5337000000   -1.296268106e-01   -2.031036019e-01
     5340000000   -4.949731007e-02   -2.356965691e-01
     5343000000    3.981560096e-02   -2.425990850e-01
     5346000000    1.255017668e-01   -2.149934024e-01
     5349000000    1.924067885e-01   -1.612330228e-01
     5352000000    2.311837375e-01   -8.417532593e-02
     5355000000    2.522717714e-01    4.970128648e-03
     5358000000    2.349732220e-01    9.473288804e-02
     5361000000    1.801874340e-01    1.627841741e-01
     5364000000    1.057271436e-01    2.422517836e-01
     5367000000    1.859584078e-02    2.487869710e-01
     5370000000   -5.836858228e-02    2.357356995e-01
     5373000000   -1.491245776e-01    1.994443536e-01
     5376000000   -2.503753901e-01    1.239871383e-01
     5379000000   -2.510959208e-01    5.531439930e-02
     5382000000   -2.621967196e-01   -4.860273376e-02
     5385000000   -2.297826558e-01   -1.375109702e-01
     5388000000   -1.591303200e-01   -2.175842375e-01
     5391000000   -6.103659049e-02   -2.808975279e-01
     5394000000   -1.165332855e-03   -2.581016123e-01
     5397000000    1.404088587e-01   -2.509630919e-01
     5400000000    1.931215376e-01   -1.873708069e-01
     5403000000    2.556263804e-01   -1.061263308e-01
     5406000000    2.757771015e-01   -1.621456072e-02
     5409000000    2.655951977e-01    9.531335533e-02
     5412000000    2.179652601e-01    1.821188927e-01
     5415000000    1.379647404e-01    2.505941093e-01
     5418000000    3.234251216e-02    2.866716683e-01
     5421000000   -5.384171009e-02    2.767497897e-01
     5424000000   -1.722406298e-01    2.373445779e-01
     5427000000   -2.428843379e-01    1.633753330e-01
     5430000000   -2.806764245e-01    7.280127704e-02
     5433000000   -2.905562520e-01   -3.136759624e-02
     5436000000   -2.630694211e-01   -1.358874440e-01
     5439000000   -1.964313388e-01   -2.263306081e-01
     5442000000   -1.100637093e-01   -2.754675448e-01
     5445000000    9.851247072e-03   -3.051932454e-01
     5448000000    1.066317707e-01   -2.850623131e-01
     5451000000    2.030261308e-01   -2.276907563e-01
     5454000000    2.699069679e-01   -1.384608597e-01
     5457000000    3.014346063e-01   -3.948838636e-02
     5460000000    2.955419123e-01    7.700555027e-02
     5463000000    2.521985173e-01    1.717901677e-01
     5466000000    1.658841819e-01    2.612361312e-01
     5469000000    7.794183493e-02    2.970467806e-01
     5472000000   -4.919215664e-02    3.059100509e-01
     5475000000   -1.328211427e-01    2.759631872e-01
     5478000000   -2.357838154e-01    1.988404542e-01
     5481000000   -2.887938619e-01    1.026779637e-01
     5484000000   -3.071708977e-01   -4.448563326e-03
     5487000000   -2.811708152e-01   -1.326666474e-01
     5490000000   -2.291872799e-01   -2.103005499e-01
     5493000000   -1.280786097e-01   -2.838088572e-01
     5496000000   -2.959989756e-02   -3.094174564e-01
     5499000000    7.223947346e-02   -3.030792475e-01
     5502000000    2.027168423e-01   -2.377934754e-01
     5505000000    2.618303001e-01   -1.724750549e-01
     5508000000    3.120448291e-01   -4.717826098e-02
     5511000000    3.107999563e-01    5.964242294e-02
     5514000000    2.613387704e-01    1.758129299e-01
     5517000000    1.995154619e-01    2.458448410e-01
     5520000000    7.380848378e-02    3.092703819e-01
     5523000000   -1.337015443e-02    3.206479251e-01
     5526000000   -1.479118913e-01    2.836647332e-01
     5529000000   -2.180195451e-01    2.375486791e-01
     5532000000   -3.008972108e-01    1.112991720e-01
     5535000000   -3.195351660e-01    1.674157009e-02
     5538000000   -3.045795262e-01   -9.526858479e-02
     5541000000   -2.387675643e-01   -2.124829888e-01
     5544000000   -1.483199447e-01   -2.826114297e-01
     5547000000   -3.913729638e-02   -3.198454678e-01
     5550000000    6.177045777e-02   -3.232869506e-01
     5553000000    1.768771112e-01   -2.756759822e-01
     5556000000    2.727063000e-01   -1.789038181e-01
     5559000000    3.163789809e-01   -8.286173642e-02
     5562000000    3.254266083e-01    3.615335748e-02
     5565000000    2.934711874e-01    1.496263444e-01
     5568000000    2.193670124e-01    2.427341938e-01
     5571000000    1.188604087e-01    3.060149252e-01
     5574000000    1.391198137e-03    3.281433880e-01
     5577000000   -1.089151502e-01    3.112977743e-01
     5580000000   -2.235232294e-01    2.389710397e-01
     5583000000   -2.911427319e-01    1.536132991e-01
     5586000000   -3.222070634e-01    3.159608692e-02
     5589000000   -3.293688297e-01   -6.850483268e-02
     5592000000   -2.574316561e-01   -1.984637231e-01
     5595000000   -1.805735677e-01   -2.748919427e-01
     5598000000   -8.950417489e-02   -3.282306194e-01
     5601000000    4.533443972e-02   -3.274883032e-01
     5604000000    1.585760862e-01   -2.869348228e-01
     5607000000    2.477687448e-01   -2.246611565e-01
     5610000000    3.082338274e-01   -1.136490479e-01
     5613000000    3.355249763e-01   -6.247743033e-03
     5616000000    3.117203712e-01    1.174908131e-01
     5619000000    2.451786101e-01    2.226908803e-01
     5622000000    1.489457637e-01    2.935984433e-01
     5625000000    3.899355233e-02    3.288618922e-01
     5628000000   -8.377704024e-02    3.231433332e-01
     5631000000   -1.919198036e-01    2.682221532e-01
     5634000000   -2.758536041e-01    1.914858520e-01
     5637000000   -3.278443217e-01    8.387113363e-02
     5640000000   -3.176211715e-01   -5.503708124e-02
     5643000000   -3.104981780e-01   -1.495597363e-01
     5646000000   -2.092171609e-01   -2.492949665e-01
     5649000000   -1.205776557e-01   -3.136693239e-01
     5652000000    6.980185863e-03   -3.270982206e-01
     5655000000    1.115072593e-01   -3.257172704e-01
     5658000000    2.202589810e-01   -2.377207279e-01
     5661000000    2.964578569e-01   -1.629818231e-01
     5664000000    3.223865926e-01   -3.311467171e-02
     5667000000    3.235991299e-01    7.612752169e-02
     5670000000    2.579093874e-01    1.884186566e-01
     5673000000    1.776307076e-01    2.665706575e-01
     5676000000    8.750882000e-02    3.244977295e-01
     5679000000   -3.744598851e-02    3.285731375e-01
     5682000000   -1.524982154e-01    2.902281582e-01
     5685000000   -2.452799082e-01    2.224343121e-01
     5688000000   -3.044774830e-01    1.197133362e-01
     5691000000   -3.191623986e-01   -1.255807001e-03
     5694000000   -3.046607077e-01   -1.138381809e-01
     5697000000   -2.430721372e-01   -2.104703933e-01
     5700000000   -1.514710635e-01   -2.817808688e-01
     5703000000   -4.066037014e-02   -3.180108368e-01
     5706000000    7.465932518e-02   -3.203921616e-01
     5709000000    1.797416210e-01   -2.513081729e-01
     5712000000    2.656479776e-01   -1.806207746e-01
     5715000000    3.047793508e-01   -6.996265054e-02
     5718000000    3.258549571e-01    4.152240232e-02
     5721000000    2.853420675e-01    1.531058997e-01
     5724000000    2.071536183e-01    2.408160418e-01
     5727000000    1.067416593e-01    2.974392474e-01
     5730000000   -4.313152749e-03    3.242385387e-01
     5733000000   -1.187799126e-01    3.009465337e-01
     5736000000   -2.179248780e-01    2.380709946e-01
     5739000000   -2.883270383e-01    1.472258419e-01
     5742000000   -3.235043585e-01    3.623587266e-02
     5745000000   -3.057111800e-01   -8.021780849e-02
     5748000000   -2.655182183e-01   -1.886653751e-01
     5751000000   -1.750809997e-01   -2.677383423e-01
     5754000000   -7.281178981e-02   -3.155720234e-01
     5757000000    4.635225609e-02   -3.199206293e-01
     5760000000    1.564719081e-01   -2.839222252e-01
     5763000000    2.493205965e-01   -2.141462415e-01
     5766000000    3.087794781e-01   -1.119035333e-01
     5769000000    3.272379041e-01    5.952932872e-03
     5772000000    3.114037216e-01    1.250016540e-01
     5775000000    2.453568131e-01    2.248389572e-01
     5778000000    1.494683474e-01    2.825827897e-01
     5781000000    4.010970145e-02    3.290462196e-01
     5784000000   -8.075568825e-02    3.182800710e-01
     5787000000   -1.851626635e-01    2.712765932e-01
     5790000000   -2.697195411e-01    1.865793914e-01
     5793000000   -3.184190691e-01    7.913356274e-02
     5796000000   -3.280212581e-01   -4.070185125e-02
     5799000000   -2.899529934e-01   -1.522415876e-01
     5802000000   -2.174150646e-01   -2.398531288e-01
     5805000000   -1.175611466e-01   -3.160551488e-01
     5808000000   -2.910454758e-03   -3.305879235e-01
     5811000000    1.118744016e-01   -3.085564077e-01
     5814000000    2.204638124e-01   -2.534698546e-01
     5817000000    2.929043174e-01   -1.582583040e-01
     5820000000    3.280465603e-01   -4.549779743e-02
     5823000000    3.246386647e-01    7.148437202e-02
     5826000000    2.767785788e-01    1.845333576e-01
     5829000000    1.962681711e-01    2.652479410e-01
     5832000000    8.912410587e-02    3.173161745e-01
     5835000000   -2.974110283e-02    3.292467892e-01
     5838000000   -1.470340341e-01    2.967292666e-01
     5841000000   -2.389331013e-01    2.282749116e-01
     5844000000   -3.040384650e-01    1.299328804e-01
     5847000000   -3.304873109e-01    1.366055105e-02
     5850000000   -3.119073510e-01   -1.039495617e-01
     5853000000   -2.552184463e-01   -2.044356763e-01
     5856000000   -1.654841453e-01   -2.819346488e-01
     5859000000   -5.531176180e-02   -3.221004009e-01
     5862000000    6.047051027e-02   -3.211559057e-01
     5865000000    1.723061800e-01   -2.766044736e-01
     5868000000    2.599551976e-01   -1.958629340e-01
     5871000000    3.129134774e-01   -9.502189606e-02
     5874000000    3.252225518e-01    2.279174142e-02
     5877000000    2.965866923e-01    1.351593137e-01
     5880000000    2.307531387e-01    2.304642648e-01
     5883000000    1.351217031e-01    2.963156700e-01
     5886000000    1.655398495e-02    3.234918416e-01
     5889000000   -9.789724648e-02    3.097886443e-01
     5892000000   -1.990035921e-01    2.560409307e-01
     5895000000   -2.760213614e-01    1.574955583e-01
     5898000000   -3.215745389e-01    6.320244074e-02
     5901000000   -3.167598844e-01   -5.955569446e-02
     5904000000   -2.828452885e-01   -1.679082215e-01
     5907000000   -1.994268298e-01   -2.562378943e-01
     5910000000   -9.655998647e-02   -3.082675636e-01
     5913000000    1.788650081e-02   -3.261798620e-01
     5916000000    1.265566796e-01   -3.035877943e-01
     5919000000    2.266162038e-01   -2.244935483e-01
     5922000000    2.920137346e-01   -1.333407760e-01
     5925000000    3.243527412e-01   -2.516592667e-02
     5928000000    3.108743727e-01    9.187698364e-02
     5931000000    2.568149567e-01    1.939699650e-01
     5934000000    1.725954562e-01    2.766141593e-01
     5937000000    5.985284224e-02    3.140784204e-01
     5940000000   -5.250209942e-02    3.217178583e-01
     5943000000   -1.649832875e-01    2.696484923e-01
     5946000000   -2.518533170e-01    2.040415406e-01
     5949000000   -3.089931309e-01    1.021361202e-01
     5952000000   -3.194731474e-01   -1.716647111e-02
     5955000000   -3.028334677e-01   -1.263579726e-01
     5958000000   -2.241237313e-01   -2.217448205e-01
     5961000000   -1.302396357e-01   -2.843102217e-01
     5964000000   -2.508630231e-02   -3.288283646e-01
     5967000000    9.163437039e-02   -2.980904579e-01
     5970000000    1.971588582e-01   -2.518111467e-01
     5973000000    2.772893906e-01   -1.689418107e-01
     5976000000    3.147197664e-01   -5.310101807e-02
     5979000000    3.122135699e-01    6.117318943e-02
     5982000000    2.675156295e-01    1.657050550e-01
     5985000000    1.990200430e-01    2.623642981e-01
     5988000000    9.254831821e-02    3.148768544e-01
     5991000000   -2.338925190e-02    3.279738426e-01
     5994000000   -1.394167840e-01    3.009242117e-01
     5997000000   -2.349254936e-01    2.313012034e-01
     6000000000   -3.009708822e-01    1.356834173e-01
