! NanoVNA-App
! Date: 2026-05-22 15:35:03
! Start: 2.3GHz Stop: 2.6GHz Points: 401
! S-Parameter data: F S11
# Hz S RI R 50
!     Frequency           S11_Real           S11_Imag
     2300000000   -2.976501286e-01   -3.737682849e-02
     2300750000   -2.925021648e-01   -6.342245638e-02
     2301500000   -2.847296298e-01   -8.974946290e-02
     2302250000   -2.744620144e-01   -1.146146357e-01
     2303000000   -2.618037760e-01   -1.385363191e-01
     2303750000   -2.476625741e-01   -1.601685882e-01
     2304500000   -2.313601971e-01   -1.814907342e-01
     2305250000   -2.139032781e-01   -2.005714476e-01
     2306000000   -1.937378347e-01   -2.182402611e-01
     2306750000   -1.732887328e-01   -2.332254946e-01
     2307500000   -1.505422741e-01   -2.474291772e-01
     2308250000   -1.280916780e-01   -2.586943507e-01
     2309000000   -1.032446623e-01   -2.678220570e-01
     2309750000   -7.877993584e-02   -2.750532627e-01
     2310500000   -5.437806621e-02   -2.795742154e-01
     2311250000   -2.794169262e-02   -2.821071744e-01
     2312000000   -2.800891874e-03   -2.825588882e-01
     2312750000    2.162998356e-02   -2.800089717e-01
     2313500000    4.698054865e-02   -2.756109536e-01
     2314250000    7.039110363e-02   -2.693142295e-01
     2315000000    9.374435246e-02   -2.602193356e-01
     2315750000    1.162341386e-01   -2.498525977e-01
     2316500000    1.373855919e-01   -2.374525070e-01
     2317250000    1.567516327e-01   -2.230437696e-01
     2318000000    1.755132526e-01   -2.069889009e-01
     2318750000    1.929561049e-01   -1.888127029e-01
     2319500000    2.070812136e-01   -1.704794765e-01
     2320250000    2.202631086e-01   -1.503828615e-01
     2321000000    2.314067036e-01   -1.290845126e-01
     2321750000    2.402731180e-01   -1.072287336e-01
     2322500000    2.473258227e-01   -8.445451409e-02
     2323250000    2.524996400e-01   -6.205401197e-02
     2324000000    2.555133700e-01   -3.823980317e-02
     2324750000    2.556592226e-01   -1.597823389e-02
     2325500000    2.543427348e-01    7.778229658e-03
     2326250000    2.514627576e-01    3.201026842e-02
     2327000000    2.455241382e-01    5.337763205e-02
     2327750000    2.384974658e-01    7.581764460e-02
     2328500000    2.295843810e-01    9.558515251e-02
     2329250000    2.173999846e-01    1.165534854e-01
     2330000000    2.053071856e-01    1.340923905e-01
     2330750000    1.910040081e-01    1.520238668e-01
     2331500000    1.752666980e-01    1.681375802e-01
     2332250000    1.582854241e-01    1.822842658e-01
     2333000000    1.401007622e-01    1.951261759e-01
     2333750000    1.215408891e-01    2.052591741e-01
     2334500000    1.016973704e-01    2.144428045e-01
     2335250000    8.091331273e-02    2.214682698e-01
     2336000000    6.007617339e-02    2.267851979e-01
     2336750000    3.907011449e-02    2.302561104e-01
     2337500000    1.780857705e-02    2.311550081e-01
     2338250000   -3.636551555e-03    2.306281775e-01
     2339000000   -2.446544729e-02    2.285248190e-01
     2339750000   -4.472884536e-02    2.237803787e-01
     2340500000   -6.455440074e-02    2.175010294e-01
     2341250000   -8.420999348e-02    2.097421139e-01
     2342000000   -1.007934287e-01    1.997779757e-01
     2342750000   -1.193663329e-01    1.893696338e-01
     2343500000   -1.346769184e-01    1.761336774e-01
     2344250000   -1.497619599e-01    1.625559181e-01
     2345000000   -1.623329818e-01    1.477585733e-01
     2345750000   -1.740992069e-01    1.313274801e-01
     2346500000   -1.838370711e-01    1.145825610e-01
     2347250000   -1.923881322e-01    9.642765671e-02
     2348000000   -1.985137463e-01    7.836005837e-02
     2348750000   -2.046777308e-01    5.917999893e-02
     2349500000   -2.063423693e-01    4.060927778e-02
     2350250000   -2.084432095e-01    2.068991400e-02
     2351000000   -2.081491053e-01    2.123949118e-03
     2351750000   -2.058465779e-01   -1.680424623e-02
     2352500000   -2.029936314e-01   -3.550552204e-02
     2353250000   -1.964731514e-01   -5.371957645e-02
     2354000000   -1.891243011e-01   -7.130312175e-02
     2354750000   -1.813733131e-01   -8.817820996e-02
     2355500000   -1.708304286e-01   -1.037925482e-01
     2356250000   -1.598099023e-01   -1.185698360e-01
     2357000000   -1.477160752e-01   -1.319232136e-01
     2357750000   -1.337509155e-01   -1.450154781e-01
     2358500000   -1.192300990e-01   -1.551130563e-01
     2359250000   -1.042120606e-01   -1.650608033e-01
     2360000000   -8.812247217e-02   -1.725677252e-01
     2360750000   -7.156891376e-02   -1.798884571e-01
     2361500000   -5.548885837e-02   -1.849812865e-01
     2362250000   -3.818590194e-02   -1.876395047e-01
     2363000000   -2.091912366e-02   -1.897305548e-01
     2363750000   -3.998346627e-03   -1.905304939e-01
     2364500000    1.211863384e-02   -1.876625121e-01
     2365250000    2.878400683e-02   -1.850443035e-01
     2366000000    4.454289004e-02   -1.804022491e-01
     2366750000    6.033987179e-02   -1.744375974e-01
     2367500000    7.477829605e-02   -1.669507474e-01
     2368250000    8.821407706e-02   -1.579381227e-01
     2369000000    1.010455340e-01   -1.482647359e-01
     2369750000    1.130043790e-01   -1.370534748e-01
     2370500000    1.242480204e-01   -1.252025068e-01
     2371250000    1.328866482e-01   -1.114906669e-01
     2372000000    1.415730268e-01   -9.846883267e-02
     2372750000    1.485703737e-01   -8.339103311e-02
     2373500000    1.547585726e-01   -6.843291968e-02
     2374250000    1.585322618e-01   -5.373777077e-02
     2375000000    1.612188220e-01   -3.777838498e-02
     2375750000    1.634761691e-01   -2.271640860e-02
     2376500000    1.630588025e-01   -7.329878397e-03
     2377250000    1.615871042e-01    8.282332681e-03
     2378000000    1.602558941e-01    2.336029336e-02
     2378750000    1.545278579e-01    3.743382543e-02
     2379500000    1.500770748e-01    5.197777599e-02
     2380250000    1.443772614e-01    6.567172706e-02
     2381000000    1.355016530e-01    7.726250589e-02
     2381750000    1.274890304e-01    8.956721425e-02
     2382500000    1.182007864e-01    1.003898308e-01
     2383250000    1.073926538e-01    1.103562415e-01
     2384000000    9.596711397e-02    1.184108108e-01
     2384750000    8.444814384e-02    1.256268770e-01
     2385500000    7.198371738e-02    1.332071871e-01
     2386250000    5.903958157e-02    1.370773613e-01
     2387000000    4.601007700e-02    1.413352489e-01
     2387750000    3.226089850e-02    1.434198916e-01
     2388500000    1.847204939e-02    1.450456083e-01
     2389250000    5.378903821e-03    1.453972310e-01
     2390000000   -8.346113376e-03    1.436859518e-01
     2390750000   -2.192521654e-02    1.413345635e-01
     2391500000   -3.504773974e-02    1.390721053e-01
     2392250000   -4.655144736e-02    1.336796880e-01
     2393000000   -5.903116986e-02    1.280687749e-01
     2393750000   -6.965902448e-02    1.212723777e-01
     2394500000   -8.031991124e-02    1.139483452e-01
     2395250000   -8.973398805e-02    1.056817099e-01
     2396000000   -9.848842770e-02    9.615589678e-02
     2396750000   -1.070249528e-01    8.711854368e-02
     2397500000   -1.130401492e-01    7.660828531e-02
     2398250000   -1.187305450e-01    6.596242636e-02
     2399000000   -1.232701689e-01    5.496766418e-02
     2399750000   -1.269733906e-01    4.360258579e-02
     2400500000   -1.286157668e-01    3.207762912e-02
     2401250000   -1.296358556e-01    2.101690881e-02
     2402000000   -1.308663785e-01    9.806788526e-03
     2402750000   -1.298657209e-01   -1.509962487e-03
     2403500000   -1.272748113e-01   -1.191881485e-02
     2404250000   -1.252434552e-01   -2.252122387e-02
     2405000000   -1.208180785e-01   -3.290446103e-02
     2405750000   -1.153782979e-01   -4.210864380e-02
     2406500000   -1.086451933e-01   -5.133826286e-02
     2407250000   -1.027252674e-01   -5.952813849e-02
     2408000000   -9.616407752e-02   -6.794197112e-02
     2408750000   -8.661068976e-02   -7.349605858e-02
     2409500000   -7.925752550e-02   -8.067831397e-02
     2410250000   -6.939935684e-02   -8.511303365e-02
     2411000000   -6.055527180e-02   -9.039689600e-02
     2411750000   -4.984479398e-02   -9.293975681e-02
     2412500000   -4.000405967e-02   -9.613233805e-02
     2413250000   -2.992272936e-02   -9.678565711e-02
     2414000000   -1.979312673e-02   -9.833534807e-02
     2414750000   -9.495423175e-03   -9.715799242e-02
     2415500000   -1.387606026e-04   -9.633854032e-02
     2416250000    9.651715867e-03   -9.479723126e-02
     2417000000    1.934995688e-02   -9.197311848e-02
     2417750000    2.814848162e-02   -8.846928179e-02
     2418500000    3.644074500e-02   -8.416825533e-02
     2419250000    4.406325892e-02   -7.942869514e-02
     2420000000    5.128577352e-02   -7.328683138e-02
     2420750000    5.753808096e-02   -6.703288108e-02
     2421500000    6.349270046e-02   -6.091524288e-02
     2422250000    6.844512373e-02   -5.327333882e-02
     2423000000    7.318301499e-02   -4.610643536e-02
     2423750000    7.638278604e-02   -3.807214648e-02
     2424500000    7.981339097e-02   -3.079767153e-02
     2425250000    8.083949983e-02   -2.234257571e-02
     2426000000    8.232361078e-02   -1.441495027e-02
     2426750000    8.268596977e-02   -6.305365358e-03
     2427500000    8.266636729e-02    1.570425113e-03
     2428250000    8.158276975e-02    9.756482206e-03
     2429000000    7.887929678e-02    1.650705002e-02
     2429750000    7.753611356e-02    2.444412373e-02
     2430500000    7.319067419e-02    3.051948920e-02
     2431250000    7.017281651e-02    3.713175282e-02
     2432000000    6.469605118e-02    4.282894731e-02
     2432750000    6.067110226e-02    4.833359644e-02
     2433500000    5.469001457e-02    5.237664655e-02
     2434250000    4.922419786e-02    5.648150668e-02
     2435000000    4.382856563e-02    6.086178124e-02
     2435750000    3.677039966e-02    6.276730448e-02
     2436500000    3.089427948e-02    6.602726132e-02
     2437250000    2.429028973e-02    6.776325405e-02
     2438000000    1.804913767e-02    6.920439005e-02
     2438750000    1.197600551e-02    6.930050254e-02
     2439500000    5.417497829e-03    6.802053750e-02
     2440250000   -1.642521238e-04    6.847015768e-02
     2441000000   -6.049977615e-03    6.564951688e-02
     2441750000   -1.100682467e-02    6.461988389e-02
     2442500000   -1.628183201e-02    6.185969710e-02
     2443250000   -2.056726441e-02    5.925850198e-02
     2444000000   -2.572018653e-02    5.613818020e-02
     2444750000   -2.883699723e-02    5.055693537e-02
     2445500000   -3.231617063e-02    4.702186957e-02
     2446250000   -3.527573496e-02    4.248023778e-02
     2447000000   -3.780832887e-02    3.757400066e-02
     2447750000   -3.952348977e-02    3.233618289e-02
     2448500000   -4.096646607e-02    2.741541341e-02
     2449250000   -4.231820256e-02    2.198454179e-02
     2450000000   -4.256375134e-02    1.677579433e-02
     2450750000   -4.243548587e-02    1.120064873e-02
     2451500000   -4.121278226e-02    6.245698780e-03
     2452250000   -4.027230665e-02    1.398942200e-03
     2453000000   -3.969243914e-02   -2.957417630e-03
     2453750000   -3.728854656e-02   -7.912102155e-03
     2454500000   -3.517042100e-02   -1.200310234e-02
     2455250000   -3.249489143e-02   -1.557909977e-02
     2456000000   -3.023763001e-02   -1.856694929e-02
     2456750000   -2.500952594e-02   -2.086778730e-02
     2457500000   -2.223555744e-02   -2.372790687e-02
     2458250000   -1.987820119e-02   -2.565666847e-02
     2459000000   -1.560072321e-02   -2.649360523e-02
     2459750000   -1.248371601e-02   -2.773895115e-02
     2460500000   -7.914371789e-03   -2.685139328e-02
     2461250000   -4.431756679e-03   -2.723319829e-02
     2462000000   -1.384011703e-03   -2.709241398e-02
     2462750000    2.084646840e-03   -2.611510642e-02
     2463500000    4.838402383e-03   -2.539616637e-02
     2464250000    8.686162531e-03   -2.155871317e-02
     2465000000    1.088888012e-02   -2.020531334e-02
     2465750000    1.354011521e-02   -1.888514310e-02
     2466500000    1.549399458e-02   -1.470929198e-02
     2467250000    1.725367829e-02   -1.277200785e-02
     2468000000    1.859451830e-02   -8.625794202e-03
     2468750000    1.946352422e-02   -4.726227373e-03
     2469500000    2.053169347e-02   -1.658728695e-03
     2470250000    2.056232281e-02    3.094950924e-03
     2471000000    2.054280415e-02    5.000724457e-03
     2471750000    2.021508478e-02    8.524443023e-03
     2472500000    1.843572594e-02    1.371167507e-02
     2473250000    1.786636934e-02    1.554803830e-02
     2474000000    1.580851898e-02    1.872418262e-02
     2474750000    1.298629306e-02    2.120941877e-02
     2475500000    1.079491060e-02    2.384775691e-02
     2476250000    6.765929051e-03    2.616538107e-02
     2477000000    5.647617392e-03    2.710430510e-02
     2477750000    1.511235838e-03    2.858120576e-02
     2478500000   -2.251764294e-03    2.954579890e-02
     2479250000   -5.798334721e-03    3.053920344e-02
     2480000000   -9.868731722e-03    3.037748300e-02
     2480750000   -1.324096881e-02    2.976835519e-02
     2481500000   -1.717482880e-02    2.897909470e-02
     2482250000   -2.126811072e-02    2.749943174e-02
     2483000000   -2.452900074e-02    2.626518533e-02
     2483750000   -2.763891034e-02    2.373792417e-02
     2484500000   -3.094359115e-02    2.084712312e-02
     2485250000   -3.445859998e-02    1.770876534e-02
     2486000000   -3.590309247e-02    1.496116351e-02
     2486750000   -3.895523399e-02    1.047840621e-02
     2487500000   -4.047081247e-02    6.261519622e-03
     2488250000   -4.142966121e-02    2.446810715e-03
     2489000000   -4.282157123e-02   -3.425165080e-03
     2489750000   -4.344121739e-02   -8.627790026e-03
     2490500000   -4.356291518e-02   -1.436256245e-02
     2491250000   -4.266477004e-02   -1.738736220e-02
     2492000000   -4.188568890e-02   -2.353706956e-02
     2492750000   -4.024127871e-02   -2.971223183e-02
     2493500000   -3.828690201e-02   -3.459670767e-02
     2494250000   -3.572027758e-02   -3.856525198e-02
     2495000000   -3.254089504e-02   -4.465213791e-02
     2495750000   -2.931912430e-02   -4.793694615e-02
     2496500000   -2.555182390e-02   -5.207194015e-02
     2497250000   -2.066314779e-02   -5.652568862e-02
     2498000000   -1.619469561e-02   -5.918842182e-02
     2498750000   -1.140716113e-02   -6.144826859e-02
     2499500000   -5.804508924e-03   -6.426311284e-02
     2500250000   -1.015263188e-04   -6.603880972e-02
     2501000000    6.210458931e-03   -6.674525887e-02
     2501750000    1.129981689e-02   -6.696178764e-02
     2502500000    1.859604381e-02   -6.701402366e-02
     2503250000    2.438628301e-02   -6.635496765e-02
     2504000000    3.105372563e-02   -6.496827304e-02
     2504750000    3.715297207e-02   -6.289512664e-02
     2505500000    4.393013194e-02   -6.009001285e-02
     2506250000    4.822117090e-02   -5.728767812e-02
     2507000000    5.436605588e-02   -5.275425687e-02
     2507750000    6.061435863e-02   -4.812098667e-02
     2508500000    6.460662931e-02   -4.337669536e-02
     2509250000    6.927341223e-02   -3.754424676e-02
     2510000000    7.290853560e-02   -3.192745894e-02
     2510750000    7.593243569e-02   -2.481838502e-02
     2511500000    7.858563215e-02   -1.859239303e-02
     2512250000    8.092872798e-02   -1.160608977e-02
     2513000000    8.193056285e-02   -4.040000495e-03
     2513750000    8.225208521e-02    3.297287971e-03
     2514500000    8.245869726e-02    1.129737217e-02
     2515250000    8.130568266e-02    1.853393577e-02
     2516000000    7.975745946e-02    2.629564516e-02
     2516750000    7.679753006e-02    3.398657590e-02
     2517500000    7.332895696e-02    4.182546213e-02
     2518250000    6.913100928e-02    4.954930395e-02
     2519000000    6.464903057e-02    5.637651309e-02
     2519750000    5.928856879e-02    6.319061667e-02
     2520500000    5.329823494e-02    6.944076717e-02
     2521250000    4.662549496e-02    7.552513480e-02
     2522000000    3.965763748e-02    8.039151132e-02
     2522750000    3.166088834e-02    8.528180420e-02
     2523500000    2.347001061e-02    8.918175846e-02
     2524250000    1.499167085e-02    9.150315821e-02
     2525000000    6.022366695e-03    9.404616058e-02
     2525750000   -3.203210887e-03    9.552200139e-02
     2526500000   -1.218797825e-02    9.605712444e-02
     2527250000   -2.227048390e-02    9.585527331e-02
     2528000000   -3.143953905e-02    9.445471317e-02
     2528750000   -4.098534584e-02    9.244071692e-02
     2529500000   -5.075285211e-02    8.985403925e-02
     2530250000   -5.962867662e-02    8.614275604e-02
     2531000000   -6.866901368e-02    8.160725236e-02
     2531750000   -7.687401026e-02    7.656566054e-02
     2532500000   -8.491185308e-02    7.055314630e-02
     2533250000   -9.200813621e-02    6.381861120e-02
     2534000000   -9.888881445e-02    5.609762296e-02
     2534750000   -1.047405973e-01    4.834750295e-02
     2535500000   -1.097912192e-01    3.925748542e-02
     2536250000   -1.138763800e-01    3.027234413e-02
     2537000000   -1.172805056e-01    2.063737623e-02
     2537750000   -1.198982447e-01    1.058410015e-02
     2538500000   -1.210655719e-01    1.963849354e-04
     2539250000   -1.213144287e-01   -1.010214351e-02
     2540000000   -1.211354882e-01   -2.107362263e-02
     2540750000   -1.194299012e-01   -3.212226555e-02
     2541500000   -1.170837656e-01   -4.222118482e-02
     2542250000   -1.136769205e-01   -5.325226486e-02
     2543000000   -1.094027162e-01   -6.349626184e-02
     2543750000   -1.045710668e-01   -7.325859368e-02
     2544500000   -9.821616858e-02   -8.236078918e-02
     2545250000   -9.146463871e-02   -9.150340408e-02
     2546000000   -8.332231641e-02   -9.964895993e-02
     2546750000   -7.423122227e-02   -1.076844484e-01
     2547500000   -6.567716599e-02   -1.140406057e-01
     2548250000   -5.535052344e-02   -1.198521182e-01
     2549000000   -4.474796355e-02   -1.250675768e-01
     2549750000   -3.439136595e-02   -1.286899149e-01
     2550500000   -2.263066731e-02   -1.314309686e-01
     2551250000   -1.079957001e-02   -1.333828866e-01
     2552000000    2.491664200e-04   -1.341825724e-01
     2552750000    1.216006745e-02   -1.334318966e-01
     2553500000    2.467064187e-02   -1.321274340e-01
     2554250000    3.610836715e-02   -1.291339099e-01
     2555000000    4.770305753e-02   -1.258798689e-01
     2555750000    5.966332555e-02   -1.209306866e-01
     2556500000    7.043728977e-02   -1.145944446e-01
     2557250000    8.043274283e-02   -1.084812433e-01
     2558000000    9.079846740e-02   -1.000572294e-01
     2558750000    9.958215058e-02   -9.131778032e-02
     2559500000    1.083211750e-01   -8.159784228e-02
     2560250000    1.160656884e-01   -7.108008862e-02
     2561000000    1.226574630e-01   -6.003687158e-02
     2561750000    1.282384396e-01   -4.800410196e-02
     2562500000    1.330105066e-01   -3.578284383e-02
     2563250000    1.364193708e-01   -2.308814414e-02
     2564000000    1.391459554e-01   -9.835069999e-03
     2564750000    1.408419162e-01    2.540461253e-03
     2565500000    1.408718526e-01    1.673070714e-02
     2566250000    1.394602358e-01    2.976974286e-02
     2567000000    1.370834261e-01    4.298423231e-02
     2567750000    1.338209212e-01    5.562712997e-02
     2568500000    1.292644590e-01    6.848567724e-02
     2569250000    1.231622696e-01    8.079592139e-02
     2570000000    1.161213592e-01    9.287814796e-02
     2570750000    1.086464599e-01    1.032434851e-01
     2571500000    1.000151113e-01    1.133943722e-01
     2572250000    9.090898186e-02    1.231549084e-01
     2573000000    8.026866615e-02    1.318277568e-01
     2573750000    6.881327182e-02    1.393299252e-01
     2574500000    5.687829852e-02    1.455591768e-01
     2575250000    4.398624226e-02    1.510351896e-01
     2576000000    3.094078414e-02    1.549988091e-01
     2576750000    1.752892509e-02    1.575560421e-01
     2577500000    4.515762907e-03    1.587660462e-01
     2578250000   -9.555651806e-03    1.595942378e-01
     2579000000   -2.356615290e-02    1.579074413e-01
     2579750000   -3.689587489e-02    1.552843899e-01
     2580500000   -5.011503026e-02    1.519784331e-01
     2581250000   -6.430794299e-02    1.466038078e-01
     2582000000   -7.690309733e-02    1.407118142e-01
     2582750000   -8.868125826e-02    1.337591410e-01
     2583500000   -1.011312157e-01    1.255351603e-01
     2584250000   -1.118778512e-01    1.159448177e-01
     2585000000   -1.221331432e-01    1.056426018e-01
     2585750000   -1.308287382e-01    9.410890192e-02
     2586500000   -1.395484954e-01    8.261425793e-02
     2587250000   -1.460784078e-01    6.966003776e-02
     2588000000   -1.519823819e-01    5.587434024e-02
     2588750000   -1.571825743e-01    4.235890135e-02
     2589500000   -1.593760997e-01    2.762343921e-02
     2590250000   -1.621046364e-01    1.359727141e-02
     2591000000   -1.622550339e-01   -1.813698211e-03
     2591750000   -1.619764864e-01   -1.567157358e-02
     2592500000   -1.603113562e-01   -2.990484238e-02
     2593250000   -1.565125734e-01   -4.375408217e-02
     2594000000   -1.513350308e-01   -5.852896348e-02
     2594750000   -1.448202878e-01   -7.166619599e-02
     2595500000   -1.373159140e-01   -8.477026224e-02
     2596250000   -1.286435574e-01   -9.745845199e-02
     2597000000   -1.194762215e-01   -1.087956578e-01
     2597750000   -1.077601314e-01   -1.190210730e-01
     2598500000   -9.604664147e-02   -1.293395609e-01
     2599250000   -8.384945244e-02   -1.378237754e-01
     2600000000   -7.086358964e-02   -1.453214288e-01
