! NanoVNA-App
! Date: 2026-05-22 15:35:48
! Start: 2.3GHz Stop: 2.6GHz Points: 401
! S-Parameter data: F S11
# Hz S RI R 50
!     Frequency           S11_Real           S11_Imag
     2300000000   -2.884790301e-01   -3.827664629e-02
     2300750000   -2.822162807e-01   -6.350257993e-02
     2301500000   -2.741676867e-01   -8.932201564e-02
     2302250000   -2.637068331e-01   -1.130824387e-01
     2303000000   -2.506528795e-01   -1.373913586e-01
     2303750000   -2.370033860e-01   -1.579982191e-01
     2304500000   -2.202779055e-01   -1.784681678e-01
     2305250000   -2.024504840e-01   -1.968225837e-01
     2306000000   -1.832978129e-01   -2.126384228e-01
     2306750000   -1.623987108e-01   -2.281009704e-01
     2307500000   -1.401303858e-01   -2.409470826e-01
     2308250000   -1.180841550e-01   -2.516117394e-01
     2309000000   -9.346947074e-02   -2.603772879e-01
     2309750000   -6.938742846e-02   -2.664708495e-01
     2310500000   -4.490692541e-02   -2.705735564e-01
     2311250000   -1.935059950e-02   -2.724795341e-01
     2312000000    4.358966369e-03   -2.721075416e-01
     2312750000    2.916388772e-02   -2.694361210e-01
     2313500000    5.369434878e-02   -2.643637955e-01
     2314250000    7.626147568e-02   -2.574173510e-01
     2315000000    9.922874719e-02   -2.483222783e-01
     2315750000    1.211237311e-01   -2.372550219e-01
     2316500000    1.408939809e-01   -2.244654298e-01
     2317250000    1.601158082e-01   -2.100703418e-01
     2318000000    1.781109720e-01   -1.937191933e-01
     2318750000    1.935758591e-01   -1.760944426e-01
     2319500000    2.078463137e-01   -1.575496048e-01
     2320250000    2.198859602e-01   -1.371873319e-01
     2321000000    2.306012660e-01   -1.160158440e-01
     2321750000    2.380230576e-01   -9.443935752e-02
     2322500000    2.444696426e-01   -7.217073441e-02
     2323250000    2.479160279e-01   -4.999428242e-02
     2324000000    2.502559423e-01   -2.641034685e-02
     2324750000    2.495502681e-01   -4.374528304e-03
     2325500000    2.473871708e-01    1.935186796e-02
     2326250000    2.426238209e-01    4.128386453e-02
     2327000000    2.366456389e-01    6.301248819e-02
     2327750000    2.279047519e-01    8.362458646e-02
     2328500000    2.191771418e-01    1.040768027e-01
     2329250000    2.058500797e-01    1.226850525e-01
     2330000000    1.932514459e-01    1.407028437e-01
     2330750000    1.782544404e-01    1.565709859e-01
     2331500000    1.620631218e-01    1.710945815e-01
     2332250000    1.453306973e-01    1.845458150e-01
     2333000000    1.265103519e-01    1.960955709e-01
     2333750000    1.076388061e-01    2.055192292e-01
     2334500000    8.776593953e-02    2.132566273e-01
     2335250000    6.711529940e-02    2.198532522e-01
     2336000000    4.721688107e-02    2.233957350e-01
     2336750000    2.645705640e-02    2.261420935e-01
     2337500000    5.525145214e-03    2.263054550e-01
     2338250000   -1.582070440e-02    2.247602791e-01
     2339000000   -3.545732051e-02    2.211444229e-01
     2339750000   -5.509342626e-02    2.160884291e-01
     2340500000   -7.447482646e-02    2.086720467e-01
     2341250000   -9.184025228e-02    1.993131489e-01
     2342000000   -1.095901504e-01    1.901345253e-01
     2342750000   -1.258082837e-01    1.777632385e-01
     2343500000   -1.407002956e-01    1.644332111e-01
     2344250000   -1.540661007e-01    1.504591256e-01
     2345000000   -1.660276055e-01    1.349941790e-01
     2345750000   -1.767725796e-01    1.186529621e-01
     2346500000   -1.865929663e-01    1.019909456e-01
     2347250000   -1.928721964e-01    8.376920223e-02
     2348000000   -1.992914379e-01    6.569833308e-02
     2348750000   -2.034467161e-01    4.663130268e-02
     2349500000   -2.047733068e-01    2.844306454e-02
     2350250000   -2.056510448e-01    9.215112776e-03
     2351000000   -2.044151276e-01   -8.880695328e-03
     2351750000   -2.009017020e-01   -2.697964571e-02
     2352500000   -1.980169863e-01   -4.539399594e-02
     2353250000   -1.902450621e-01   -6.219903752e-02
     2354000000   -1.836206615e-01   -7.981791347e-02
     2354750000   -1.735157371e-01   -9.451876581e-02
     2355500000   -1.635457128e-01   -1.102442965e-01
     2356250000   -1.520321965e-01   -1.238736957e-01
     2357000000   -1.396111250e-01   -1.354280412e-01
     2357750000   -1.252715737e-01   -1.475741863e-01
     2358500000   -1.101043001e-01   -1.565973610e-01
     2359250000   -9.554903954e-02   -1.653798223e-01
     2360000000   -7.943134010e-02   -1.713777483e-01
     2360750000   -6.323468685e-02   -1.770849079e-01
     2361500000   -4.709441960e-02   -1.808727980e-01
     2362250000   -3.024444729e-02   -1.827184707e-01
     2363000000   -1.333883218e-02   -1.832422465e-01
     2363750000    3.272595117e-03   -1.819589287e-01
     2364500000    1.918065175e-02   -1.791059226e-01
     2365250000    3.555373475e-02   -1.752480268e-01
     2366000000    5.058804899e-02   -1.700943261e-01
     2366750000    6.525643915e-02   -1.625656188e-01
     2367500000    7.961113751e-02   -1.541911513e-01
     2368250000    9.237071127e-02   -1.451112032e-01
     2369000000    1.041059569e-01   -1.342339069e-01
     2369750000    1.155352816e-01   -1.223758161e-01
     2370500000    1.251634210e-01   -1.093435362e-01
     2371250000    1.342810094e-01   -9.611327201e-02
     2372000000    1.419486851e-01   -8.292452246e-02
     2372750000    1.480275989e-01   -6.769449264e-02
     2373500000    1.531105340e-01   -5.322080106e-02
     2374250000    1.556644291e-01   -3.788722306e-02
     2375000000    1.582479775e-01   -2.272587642e-02
     2375750000    1.589260101e-01   -7.870716974e-03
     2376500000    1.577964276e-01    7.042466663e-03
     2377250000    1.557252854e-01    2.186820656e-02
     2378000000    1.512196064e-01    3.615033254e-02
     2378750000    1.467428803e-01    4.995020851e-02
     2379500000    1.415343732e-01    6.375100464e-02
     2380250000    1.329807192e-01    7.502427697e-02
     2381000000    1.255553961e-01    8.753595501e-02
     2381750000    1.161552295e-01    9.796047956e-02
     2382500000    1.054534912e-01    1.069943830e-01
     2383250000    9.468867630e-02    1.171201393e-01
     2384000000    8.287803084e-02    1.240035221e-01
     2384750000    7.061700523e-02    1.294279695e-01
     2385500000    5.840675160e-02    1.359710097e-01
     2386250000    4.502744600e-02    1.390271038e-01
     2387000000    3.123764694e-02    1.408881843e-01
     2387750000    1.798494160e-02    1.439446211e-01
     2388500000    4.415018018e-03    1.428383738e-01
     2389250000   -8.701491170e-03    1.419553906e-01
     2390000000   -2.150843292e-02    1.395341605e-01
     2390750000   -3.512188420e-02    1.361693442e-01
     2391500000   -4.710102454e-02    1.325342506e-01
     2392250000   -5.832318589e-02    1.263150275e-01
     2393000000   -6.972824782e-02    1.199007183e-01
     2393750000   -8.014275134e-02    1.125040576e-01
     2394500000   -9.003483504e-02    1.048206091e-01
     2395250000   -9.766639024e-02    9.520407021e-02
     2396000000   -1.056427583e-01    8.605259657e-02
     2396750000   -1.122483909e-01    7.579678297e-02
     2397500000   -1.171258688e-01    6.515242904e-02
     2398250000   -1.217348054e-01    5.458337069e-02
     2399000000   -1.254169643e-01    4.338651896e-02
     2399750000   -1.267482489e-01    3.183711693e-02
     2400500000   -1.272356957e-01    2.078978904e-02
     2401250000   -1.273321956e-01    9.405224584e-03
     2402000000   -1.264574528e-01   -8.099104161e-04
     2402750000   -1.242265776e-01   -1.252082549e-02
     2403500000   -1.196395904e-01   -2.262999676e-02
     2404250000   -1.160838977e-01   -3.218508139e-02
     2405000000   -1.104945093e-01   -4.202930257e-02
     2405750000   -1.036549211e-01   -5.073017254e-02
     2406500000   -9.629901499e-02   -5.890518427e-02
     2407250000   -8.882851899e-02   -6.619718671e-02
     2408000000   -7.995859534e-02   -7.240781933e-02
     2408750000   -7.128860801e-02   -7.859753072e-02
     2409500000   -6.161498651e-02   -8.311315626e-02
     2410250000   -5.207350105e-02   -8.732411265e-02
     2411000000   -4.174760729e-02   -9.011574090e-02
     2411750000   -3.178956360e-02   -9.275133908e-02
     2412500000   -2.172455378e-02   -9.363976121e-02
     2413250000   -1.188062131e-02   -9.402784705e-02
     2414000000   -1.685305499e-03   -9.264602512e-02
     2414750000    7.967601530e-03   -9.109079838e-02
     2415500000    1.718659885e-02   -8.894462138e-02
     2416250000    2.616926655e-02   -8.519402891e-02
     2417000000    3.472050279e-02   -8.110574633e-02
     2417750000    4.298149049e-02   -7.574146241e-02
     2418500000    5.021522194e-02   -7.003310323e-02
     2419250000    5.661097914e-02   -6.313747913e-02
     2420000000    6.269790977e-02   -5.599287152e-02
     2420750000    6.821491569e-02   -4.933501408e-02
     2421500000    7.246375084e-02   -4.193593934e-02
     2422250000    7.616463304e-02   -3.309386224e-02
     2423000000    7.894966751e-02   -2.473072149e-02
     2423750000    8.095034957e-02   -1.664502360e-02
     2424500000    8.255871385e-02   -9.048294276e-03
     2425250000    8.231854439e-02   -5.088589969e-04
     2426000000    8.195233345e-02    7.801527623e-03
     2426750000    8.108364791e-02    1.595699415e-02
     2427500000    7.891219109e-02    2.364085987e-02
     2428250000    7.566040009e-02    3.066052869e-02
     2429000000    7.161072642e-02    3.764351830e-02
     2429750000    6.774880737e-02    4.402232543e-02
     2430500000    6.323235482e-02    4.978755116e-02
     2431250000    5.780749023e-02    5.513744056e-02
     2432000000    5.189044774e-02    5.998913199e-02
     2432750000    4.538961500e-02    6.341314316e-02
     2433500000    3.881919757e-02    6.707792729e-02
     2434250000    3.151645139e-02    6.918549538e-02
     2435000000    2.390739135e-02    7.085140795e-02
     2435750000    1.686464623e-02    7.231196016e-02
     2436500000    1.046070177e-02    7.374993712e-02
     2437250000    2.870064927e-03    7.265114039e-02
     2438000000   -4.289268982e-03    7.179034501e-02
     2438750000   -1.077320427e-02    6.990286708e-02
     2439500000   -1.754741184e-02    6.722909957e-02
     2440250000   -2.382099815e-02    6.434488297e-02
     2441000000   -2.999168076e-02    6.180699915e-02
     2441750000   -3.475904837e-02    5.655224994e-02
     2442500000   -4.006765783e-02    5.339617655e-02
     2443250000   -4.441261292e-02    4.755625874e-02
     2444000000   -4.865391180e-02    4.246431589e-02
     2444750000   -5.118892714e-02    3.638130799e-02
     2445500000   -5.429656804e-02    3.065755963e-02
     2446250000   -5.554298311e-02    2.427102067e-02
     2447000000   -5.679449812e-02    1.778948493e-02
     2447750000   -5.751598254e-02    1.125764474e-02
     2448500000   -5.701749399e-02    4.799012095e-03
     2449250000   -5.609323457e-02   -1.969277393e-03
     2450000000   -5.494322255e-02   -7.939265110e-03
     2450750000   -5.254016817e-02   -1.388846897e-02
     2451500000   -4.966808110e-02   -1.960770041e-02
     2452250000   -4.616208375e-02   -2.517052554e-02
     2453000000   -4.240528867e-02   -3.069776297e-02
     2453750000   -3.775718808e-02   -3.485548496e-02
     2454500000   -3.356798366e-02   -3.910426423e-02
     2455250000   -2.873500995e-02   -4.287554324e-02
     2456000000   -2.297524735e-02   -4.547085986e-02
     2456750000   -1.658856682e-02   -4.780996218e-02
     2457500000   -1.180505753e-02   -5.012604222e-02
     2458250000   -5.178751890e-03   -5.059196800e-02
     2459000000    5.868363660e-04   -5.077235028e-02
     2459750000    5.255352706e-03   -5.185516551e-02
     2460500000    1.287995279e-02   -4.963742942e-02
     2461250000    1.784423180e-02   -4.852315411e-02
     2462000000    2.360375598e-02   -4.641006142e-02
     2462750000    2.854929492e-02   -4.440480843e-02
     2463500000    3.392183781e-02   -4.019458964e-02
     2464250000    3.861635551e-02   -3.570006788e-02
     2465000000    4.251591861e-02   -3.282415122e-02
     2465750000    4.616595060e-02   -2.714953013e-02
     2466500000    4.963166639e-02   -2.265331335e-02
     2467250000    5.187788606e-02   -1.529591344e-02
     2468000000    5.413152650e-02   -1.088513527e-02
     2468750000    5.556383356e-02   -5.162993912e-03
     2469500000    5.639164150e-02    1.059568720e-03
     2470250000    5.664414912e-02    7.731416728e-03
     2471000000    5.610856786e-02    1.439392008e-02
     2471750000    5.526937917e-02    1.954310760e-02
     2472500000    5.390664935e-02    2.501621842e-02
     2473250000    5.131513998e-02    3.171226010e-02
     2474000000    4.894406721e-02    3.627811000e-02
     2474750000    4.516180977e-02    4.164676741e-02
     2475500000    4.155440629e-02    4.646053538e-02
     2476250000    3.755284846e-02    5.051772669e-02
     2477000000    3.240772337e-02    5.395356566e-02
     2477750000    2.621394955e-02    5.763581395e-02
     2478500000    1.993683912e-02    6.011448428e-02
     2479250000    1.609104313e-02    6.242087856e-02
     2480000000    9.192597121e-03    6.352754682e-02
     2480750000    2.402146813e-03    6.469354779e-02
     2481500000   -3.705677809e-03    6.461166590e-02
     2482250000   -1.024796627e-02    6.432863325e-02
     2483000000   -1.659713686e-02    6.251794100e-02
     2483750000   -2.258873358e-02    6.099203601e-02
     2484500000   -2.878760360e-02    5.847933516e-02
     2485250000   -3.451296687e-02    5.514158309e-02
     2486000000   -3.984375298e-02    5.074439943e-02
     2486750000   -4.571602121e-02    4.616931453e-02
     2487500000   -4.951646551e-02    4.148275033e-02
     2488250000   -5.423738062e-02    3.603320569e-02
     2489000000   -5.816008523e-02    2.942121774e-02
     2489750000   -6.147656962e-02    2.265302092e-02
     2490500000   -6.339312345e-02    1.586109586e-02
     2491250000   -6.540176272e-02    8.501697332e-03
     2492000000   -6.692820042e-02    1.714201644e-03
     2492750000   -6.729584187e-02   -5.722356029e-03
     2493500000   -6.731294841e-02   -1.339555904e-02
     2494250000   -6.640047580e-02   -2.079207823e-02
     2495000000   -6.490876526e-02   -2.814037167e-02
     2495750000   -6.257129461e-02   -3.538611531e-02
     2496500000   -5.998373777e-02   -4.240071774e-02
     2497250000   -5.633401498e-02   -4.892250896e-02
     2498000000   -5.240454897e-02   -5.432102084e-02
     2498750000   -4.764795303e-02   -6.011036038e-02
     2499500000   -4.249029979e-02   -6.478533894e-02
     2500250000   -3.668502346e-02   -6.947787851e-02
     2501000000   -3.006223589e-02   -7.338812947e-02
     2501750000   -2.349629998e-02   -7.635635138e-02
     2502500000   -1.643909886e-02   -7.900544256e-02
     2503250000   -9.145925753e-03   -8.075167239e-02
     2504000000   -1.625666628e-03   -8.186705410e-02
     2504750000    6.318818778e-03   -8.165468276e-02
     2505500000    1.374855638e-02   -8.111105114e-02
     2506250000    2.111711167e-02   -7.985354960e-02
     2507000000    2.869670466e-02   -7.741015404e-02
     2507750000    3.594442084e-02   -7.470553368e-02
     2508500000    4.364302009e-02   -7.046453655e-02
     2509250000    4.973249882e-02   -6.676222384e-02
     2510000000    5.629980564e-02   -6.095176563e-02
     2510750000    6.218281388e-02   -5.527101830e-02
     2511500000    6.778426468e-02   -4.898976535e-02
     2512250000    7.261460274e-02   -4.230272397e-02
     2513000000    7.694528252e-02   -3.446292877e-02
     2513750000    8.007927984e-02   -2.682651021e-02
     2514500000    8.302603662e-02   -1.885345019e-02
     2515250000    8.491122723e-02   -1.115136966e-02
     2516000000    8.575944602e-02   -1.377941109e-03
     2516750000    8.557600528e-02    6.592083257e-03
     2517500000    8.470737934e-02    1.631538384e-02
     2518250000    8.363166451e-02    2.459864318e-02
     2519000000    8.038058877e-02    3.378753737e-02
     2519750000    7.734438032e-02    4.187264666e-02
     2520500000    7.375413924e-02    5.043584108e-02
     2521250000    6.862728298e-02    5.818318948e-02
     2522000000    6.326861680e-02    6.516388804e-02
     2522750000    5.662603304e-02    7.222401351e-02
     2523500000    5.014691874e-02    7.790075243e-02
     2524250000    4.261913523e-02    8.349607885e-02
     2525000000    3.379095718e-02    8.804178238e-02
     2525750000    2.543275617e-02    9.277217090e-02
     2526500000    1.601429284e-02    9.539742768e-02
     2527250000    5.857544951e-03    9.823835641e-02
     2528000000   -3.142502159e-03    9.935860336e-02
     2528750000   -1.315373462e-02    1.004577130e-01
     2529500000   -2.328407951e-02    9.990323335e-02
     2530250000   -3.356305137e-02    9.888441116e-02
     2531000000   -4.325096682e-02    9.665912390e-02
     2531750000   -5.288581178e-02    9.376510233e-02
     2532500000   -6.221929938e-02    9.034872055e-02
     2533250000   -7.107823342e-02    8.532766998e-02
     2534000000   -8.038669825e-02    7.942416519e-02
     2534750000   -8.783937246e-02    7.328770310e-02
     2535500000   -9.470038116e-02    6.630515307e-02
     2536250000   -1.016735509e-01    5.796604976e-02
     2537000000   -1.067855358e-01    4.963493347e-02
     2537750000   -1.113832518e-01    4.040598869e-02
     2538500000   -1.158784330e-01    3.058466315e-02
     2539250000   -1.184329540e-01    2.061929554e-02
     2540000000   -1.208035052e-01    1.024077740e-02
     2540750000   -1.214319170e-01   -9.126086952e-04
     2541500000   -1.218344122e-01   -1.128501724e-02
     2542250000   -1.206636131e-01   -2.262262814e-02
     2543000000   -1.185104325e-01   -3.335393965e-02
     2543750000   -1.160441339e-01   -4.381726310e-02
     2544500000   -1.119523644e-01   -5.456759036e-02
     2545250000   -1.070077419e-01   -6.468018144e-02
     2546000000   -1.011803150e-01   -7.431445271e-02
     2546750000   -9.389534593e-02   -8.419910073e-02
     2547500000   -8.664156497e-02   -9.210137278e-02
     2548250000   -7.802782208e-02   -1.003298759e-01
     2549000000   -6.860265136e-02   -1.071981415e-01
     2549750000   -5.886411294e-02   -1.134813800e-01
     2550500000   -4.830706492e-02   -1.184485704e-01
     2551250000   -3.738530725e-02   -1.230543405e-01
     2552000000   -2.579101175e-02   -1.262311935e-01
     2552750000   -1.462781895e-02   -1.283476502e-01
     2553500000   -2.156994073e-03   -1.290677488e-01
     2554250000    9.769182652e-03   -1.295909137e-01
     2555000000    2.204044722e-02   -1.278915107e-01
     2555750000    3.425221890e-02   -1.260346174e-01
     2556500000    4.638815671e-02   -1.218753606e-01
     2557250000    5.657638237e-02   -1.184662208e-01
     2558000000    6.845510751e-02   -1.123004705e-01
     2558750000    7.878179848e-02   -1.057944149e-01
     2559500000    8.918067813e-02   -9.759312868e-02
     2560250000    9.836182743e-02   -8.896059543e-02
     2561000000    1.067127734e-01   -7.961349934e-02
     2561750000    1.148965880e-01   -6.870911270e-02
     2562500000    1.214798167e-01   -5.827229843e-02
     2563250000    1.269776970e-01   -4.620912671e-02
     2564000000    1.324909627e-01   -3.401139751e-02
     2564750000    1.358505785e-01   -2.187265642e-02
     2565500000    1.390101016e-01   -8.805957623e-03
     2566250000    1.396921575e-01    4.295637831e-03
     2567000000    1.397236735e-01    1.793405600e-02
     2567750000    1.387713999e-01    3.104707599e-02
     2568500000    1.367415041e-01    4.413399473e-02
     2569250000    1.334335208e-01    5.685042217e-02
     2570000000    1.286504418e-01    7.001826167e-02
     2570750000    1.230230480e-01    8.142099530e-02
     2571500000    1.161562949e-01    9.332753718e-02
     2572250000    1.083953306e-01    1.044325083e-01
     2573000000    9.962497652e-02    1.143921092e-01
     2573750000    8.959671110e-02    1.235791743e-01
     2574500000    7.929306477e-02    1.321438402e-01
     2575250000    6.764492393e-02    1.389537752e-01
     2576000000    5.549300462e-02    1.455184221e-01
     2576750000    4.327781126e-02    1.509208381e-01
     2577500000    3.024899587e-02    1.541578025e-01
     2578250000    1.664822921e-02    1.570196897e-01
     2579000000    2.477701288e-03    1.578119844e-01
     2579750000   -1.114001125e-02    1.581269205e-01
     2580500000   -2.510775998e-02    1.568050534e-01
     2581250000   -3.940378875e-02    1.542926878e-01
     2582000000   -5.291112885e-02    1.501935273e-01
     2582750000   -6.626956910e-02    1.453406960e-01
     2583500000   -7.952491194e-02    1.389665455e-01
     2584250000   -9.187334776e-02    1.318603456e-01
     2585000000   -1.035009995e-01    1.230434775e-01
     2585750000   -1.146757156e-01    1.139378250e-01
     2586500000   -1.242551878e-01    1.026582867e-01
     2587250000   -1.336331069e-01    9.161134809e-02
     2588000000   -1.417207867e-01    7.947365940e-02
     2588750000   -1.488014907e-01    6.645017117e-02
     2589500000   -1.539430320e-01    5.289557949e-02
     2590250000   -1.579326540e-01    3.914759308e-02
     2591000000   -1.616173685e-01    2.430571429e-02
     2591750000   -1.637640744e-01    1.026102621e-02
     2592500000   -1.629690379e-01   -4.509238061e-03
     2593250000   -1.628855318e-01   -1.853543334e-02
     2594000000   -1.600444615e-01   -3.426998109e-02
     2594750000   -1.560621262e-01   -4.846648127e-02
     2595500000   -1.508324295e-01   -6.261217594e-02
     2596250000   -1.441227049e-01   -7.594981790e-02
     2597000000   -1.367813498e-01   -8.889352530e-02
     2597750000   -1.274602562e-01   -1.018862426e-01
     2598500000   -1.171045229e-01   -1.134601906e-01
     2599250000   -1.073057503e-01   -1.246916056e-01
     2600000000   -9.488607198e-02   -1.337759048e-01
