! NanoVNA-App
! Date: 2026-05-22 18:51:30
! Start: 4.8GHz Stop: 6GHz Points: 401
! S-Parameter data: F S11
# Hz S RI R 50
!     Frequency           S11_Real           S11_Imag
     4800000000   -7.110475898e-01    5.806311369e-01
     4803000000   -8.776755929e-01    2.769615352e-01
     4806000000   -9.168558121e-01   -5.569402128e-02
     4809000000   -8.302598596e-01   -3.852077723e-01
     4812000000   -6.323848963e-01   -6.676556468e-01
     4815000000   -3.432606757e-01   -8.517076969e-01
     4818000000   -7.940951735e-03   -9.206833839e-01
     4821000000    3.203289509e-01   -8.608484864e-01
     4824000000    6.151537895e-01   -6.797409058e-01
     4827000000    8.207226396e-01   -4.112666547e-01
     4830000000    9.127087593e-01   -8.723188192e-02
     4833000000    8.794481754e-01    2.611264288e-01
     4836000000    7.258152962e-01    5.625422597e-01
     4839000000    4.718903601e-01    7.877027988e-01
     4842000000    1.512025446e-01    9.043004513e-01
     4845000000   -1.859144866e-01    8.988155723e-01
     4848000000   -5.084568262e-01    7.656922936e-01
     4851000000   -7.501149774e-01    5.247761011e-01
     4854000000   -8.890938163e-01    2.210369408e-01
     4857000000   -9.082237482e-01   -1.183653772e-01
     4860000000   -8.002945185e-01   -4.428279102e-01
     4863000000   -5.873548985e-01   -7.046453953e-01
     4866000000   -2.876344919e-01   -8.669186831e-01
     4869000000    5.360072851e-02   -9.150782824e-01
     4872000000    3.776338995e-01   -8.326121569e-01
     4875000000    6.502775550e-01   -6.401595473e-01
     4878000000    8.390669823e-01   -3.666955531e-01
     4881000000    9.136047959e-01   -2.096687444e-02
     4884000000    8.577218056e-01    3.070695698e-01
     4887000000    6.948321462e-01    5.921443701e-01
     4890000000    4.129747152e-01    8.152452111e-01
     4893000000    9.301399440e-02    9.060268998e-01
     4896000000   -2.383183539e-01    8.804326057e-01
     4899000000   -5.406038165e-01    7.314050794e-01
     4902000000   -7.713301778e-01    4.845557809e-01
     4905000000   -8.953709602e-01    1.700283587e-01
     4908000000   -8.946217895e-01   -1.681628823e-01
     4911000000   -7.707167864e-01   -4.831992388e-01
     4914000000   -5.424705744e-01   -7.284535170e-01
     4917000000   -2.397833914e-01   -8.745564222e-01
     4920000000    1.065403000e-01   -9.014589190e-01
     4923000000    4.189083278e-01   -8.051547408e-01
     4926000000    6.880672574e-01   -5.943185091e-01
     4929000000    8.516798019e-01   -3.100450337e-01
     4932000000    9.060164094e-01    3.664755449e-02
     4935000000    8.365125656e-01    3.454218209e-01
     4938000000    6.435929537e-01    6.350260377e-01
     4941000000    3.885538876e-01    8.181800842e-01
     4944000000    3.290652111e-02    9.048063159e-01
     4947000000   -2.648441195e-01    8.593205214e-01
     4950000000   -5.872884393e-01    6.922531724e-01
     4953000000   -7.934189439e-01    4.355990887e-01
     4956000000   -8.916729689e-01    1.230746284e-01
     4959000000   -8.735218048e-01   -2.170247138e-01
     4962000000   -7.358281612e-01   -5.196919441e-01
     4965000000   -4.987136722e-01   -7.501483560e-01
     4968000000   -1.968038529e-01   -8.773823380e-01
     4971000000    1.445749998e-01   -8.869277835e-01
     4974000000    4.506708384e-01   -7.747380137e-01
     4977000000    7.046023607e-01   -5.536520481e-01
     4980000000    8.596074581e-01   -2.577246130e-01
     4983000000    8.941828012e-01    6.746051461e-02
     4986000000    8.060672879e-01    3.897019923e-01
     4989000000    6.077790856e-01    6.570006013e-01
     4992000000    3.270080090e-01    8.336848021e-01
     4995000000    1.606664853e-03    8.897181153e-01
     4998000000   -3.072883189e-01    8.382008076e-01
     5001000000   -6.073355079e-01    6.593711972e-01
     5004000000   -8.027343154e-01    3.949263692e-01
     5007000000   -8.832495809e-01    6.783190370e-02
     5010000000   -8.547544479e-01   -2.454839498e-01
     5013000000   -6.981120110e-01   -5.510603189e-01
     5016000000   -4.570054114e-01   -7.618756294e-01
     5019000000   -1.477950215e-01   -8.744410872e-01
     5022000000    1.754270494e-01   -8.687579632e-01
     5025000000    4.838504493e-01   -7.402449250e-01
     5028000000    7.183650136e-01   -5.182742476e-01
     5031000000    8.534477949e-01   -2.180751860e-01
     5034000000    8.771270514e-01    1.040272787e-01
     5037000000    7.745732665e-01    4.205366075e-01
     5040000000    5.708661675e-01    6.741974354e-01
     5043000000    2.844865918e-01    8.319403529e-01
     5046000000   -2.713363990e-02    8.800284266e-01
     5049000000   -3.475870192e-01    8.060273528e-01
     5052000000   -6.186670661e-01    6.193150878e-01
     5055000000   -8.005770445e-01    3.516005278e-01
     5058000000   -8.765972853e-01    4.241499305e-02
     5061000000   -8.232598901e-01   -2.848756313e-01
     5064000000   -6.693671942e-01   -5.602276921e-01
     5067000000   -4.204062223e-01   -7.630237341e-01
     5070000000   -1.151210070e-01   -8.635669351e-01
     5073000000    2.009917349e-01   -8.466355205e-01
     5076000000    4.990091622e-01   -7.130879760e-01
     5079000000    7.243330479e-01   -4.782233834e-01
     5082000000    8.440835476e-01   -1.875015944e-01
     5085000000    8.563815355e-01    1.289879382e-01
     5088000000    7.479172349e-01    4.320475459e-01
     5091000000    5.383086205e-01    6.717059612e-01
     5094000000    2.588133216e-01    8.222619891e-01
     5097000000   -6.493803859e-02    8.585566282e-01
     5100000000   -3.637140095e-01    7.807658315e-01
     5103000000   -6.241840720e-01    5.855062008e-01
     5106000000   -7.892561555e-01    3.292611241e-01
     5109000000   -8.529883027e-01    6.707269698e-03
     5112000000   -8.052453995e-01   -2.897195220e-01
     5115000000   -6.327936649e-01   -5.673520565e-01
     5118000000   -3.931085467e-01   -7.536790967e-01
     5121000000   -8.341981471e-02   -8.431805372e-01
     5124000000    2.209708840e-01   -8.232592940e-01
     5127000000    5.057846904e-01   -6.828146577e-01
     5130000000    7.145653367e-01   -4.577608705e-01
     5133000000    8.283061981e-01   -1.635144204e-01
     5136000000    8.303372860e-01    1.424078345e-01
     5139000000    7.235189676e-01    4.396126866e-01
     5142000000    5.131511688e-01    6.658169031e-01
     5145000000    2.314659506e-01    8.063423634e-01
     5148000000   -6.786986440e-02    8.395570517e-01
     5151000000   -3.705260456e-01    7.512826920e-01
     5154000000   -6.150144935e-01    5.632537007e-01
     5157000000   -7.788484097e-01    3.038294911e-01
     5160000000   -8.313881159e-01   -6.260336377e-04
     5163000000   -7.791426182e-01   -2.927265465e-01
     5166000000   -6.205410957e-01   -5.560480952e-01
     5169000000   -3.664110303e-01   -7.379011512e-01
     5172000000   -8.415169269e-02   -8.264204860e-01
     5175000000    2.228838801e-01   -7.990220785e-01
     5178000000    4.988574982e-01   -6.599509716e-01
     5181000000    6.990472078e-01   -4.359048009e-01
     5184000000    8.052538633e-01   -1.592515707e-01
     5187000000    8.092088699e-01    1.468882114e-01
     5190000000    7.002460361e-01    4.314052165e-01
     5193000000    4.958083034e-01    6.463019848e-01
     5196000000    2.347708046e-01    7.804583907e-01
     5199000000   -7.652785629e-02    8.094676733e-01
     5202000000   -3.546966910e-01    7.309650183e-01
     5205000000   -5.934445858e-01    5.544444919e-01
     5208000000   -7.516005635e-01    2.977279127e-01
     5211000000   -8.091753125e-01    7.584838662e-03
     5214000000   -7.553191185e-01   -2.851744294e-01
     5217000000   -5.980149508e-01   -5.364779234e-01
     5220000000   -3.666572571e-01   -7.151030898e-01
     5223000000   -8.244711906e-02   -7.994955182e-01
     5226000000    2.099343985e-01   -7.743914127e-01
     5229000000    4.735492170e-01   -6.445806026e-01
     5232000000    6.746858358e-01   -4.315945804e-01
     5235000000    7.802988887e-01   -1.586364359e-01
     5238000000    7.842964530e-01    1.335058957e-01
     5241000000    6.827933192e-01    4.051015079e-01
     5244000000    4.885339141e-01    6.253384352e-01
     5247000000    2.298278362e-01    7.561307549e-01
     5250000000   -5.741291493e-02    7.869621515e-01
     5253000000   -3.365850449e-01    7.135817409e-01
     5256000000   -5.677943826e-01    5.420522094e-01
     5259000000   -7.236148119e-01    3.022045791e-01
     5262000000   -7.834161520e-01    1.366658974e-02
     5265000000   -7.351785302e-01   -2.672374547e-01
     5268000000   -5.904516578e-01   -5.078068376e-01
     5271000000   -3.642234206e-01   -6.898673177e-01
     5274000000   -9.234472364e-02   -7.727721334e-01
     5277000000    1.876014918e-01   -7.520929575e-01
     5280000000    4.459401965e-01   -6.323397160e-01
     5283000000    6.441527605e-01   -4.308241308e-01
     5286000000    7.525227070e-01   -1.644445211e-01
     5289000000    7.609624863e-01    1.143045649e-01
     5292000000    6.680789590e-01    3.796468973e-01
     5295000000    4.849972129e-01    5.951075554e-01
     5298000000    2.374864817e-01    7.284344435e-01
     5301000000   -3.844984993e-02    7.636366487e-01
     5304000000   -3.109188974e-01    6.977249384e-01
     5307000000   -5.406579375e-01    5.380384326e-01
     5310000000   -6.958515644e-01    3.063704669e-01
     5313000000   -7.583486438e-01    3.607909754e-02
     5316000000   -7.193104029e-01   -2.410114259e-01
     5319000000   -5.842237473e-01   -4.824662507e-01
     5322000000   -3.720987737e-01   -6.579499245e-01
     5325000000   -1.125440076e-01   -7.456201911e-01
     5328000000    1.640830785e-01   -7.352346778e-01
     5331000000    4.183183014e-01   -6.254049540e-01
     5334000000    6.137005091e-01   -4.330653548e-01
     5337000000    7.261450291e-01   -1.828058958e-01
     5340000000    7.426251173e-01    8.807481825e-02
     5343000000    6.584547758e-01    3.494705558e-01
     5346000000    4.882630110e-01    5.620858073e-01
     5349000000    2.538302243e-01    6.982319951e-01
     5352000000   -1.460584812e-02    7.416467667e-01
     5355000000   -2.770778835e-01    6.849805713e-01
     5358000000   -5.027114153e-01    5.401897430e-01
     5361000000   -6.660615206e-01    3.168080151e-01
     5364000000   -7.357867360e-01    5.870270729e-02
     5367000000   -7.052989006e-01   -2.008061856e-01
     5370000000   -5.838789344e-01   -4.420929253e-01
     5373000000   -3.852002621e-01   -6.233435273e-01
     5376000000   -1.401381046e-01   -7.145889997e-01
     5379000000    1.354882419e-01   -7.164375782e-01
     5382000000    3.798177838e-01   -6.222964525e-01
     5385000000    5.710892677e-01   -4.450584948e-01
     5388000000    6.935202479e-01   -2.073079348e-01
     5391000000    7.194366455e-01    5.522165820e-02
     5394000000    6.503226757e-01    3.079007268e-01
     5397000000    4.940514565e-01    5.225915313e-01
     5400000000    2.748179436e-01    6.667035818e-01
     5403000000    2.060309611e-02    7.150434852e-01
     5406000000   -2.398447543e-01    6.756334305e-01
     5409000000   -4.648725688e-01    5.430299640e-01
     5412000000   -6.292982697e-01    3.393330872e-01
     5415000000   -7.058002949e-01    9.205882251e-02
     5418000000   -6.912695765e-01   -1.679650396e-01
     5421000000   -5.838754773e-01   -4.043754339e-01
     5424000000   -4.024664462e-01   -5.738921762e-01
     5427000000   -1.640984863e-01   -6.883389950e-01
     5430000000    9.333968163e-02   -6.977341175e-01
     5433000000    3.345348835e-01   -6.152253151e-01
     5436000000    5.305093527e-01   -4.537557662e-01
     5439000000    6.620057225e-01   -2.293974310e-01
     5442000000    6.973242164e-01    2.168927714e-02
     5445000000    6.415272355e-01    2.696591914e-01
     5448000000    5.040399432e-01    4.688915014e-01
     5451000000    2.941907346e-01    6.357901692e-01
     5454000000    5.495170131e-02    6.868374944e-01
     5457000000   -1.970113963e-01    6.592895985e-01
     5460000000   -4.240733981e-01    5.462659001e-01
     5463000000   -5.874618888e-01    3.585517108e-01
     5466000000   -6.779364944e-01    1.219446436e-01
     5469000000   -6.756867170e-01   -1.301202327e-01
     5472000000   -5.841044188e-01   -3.659348190e-01
     5475000000   -4.142020047e-01   -5.520510674e-01
     5478000000   -1.903627962e-01   -6.604555845e-01
     5481000000    5.580638349e-02   -6.817947030e-01
     5484000000    3.006545007e-01   -6.133836508e-01
     5487000000    4.816651940e-01   -4.698407948e-01
     5490000000    6.376783848e-01   -2.541366220e-01
     5493000000    6.872327328e-01   -8.313092403e-03
     5496000000    6.394010782e-01    2.235500813e-01
     5499000000    5.137910843e-01    4.342692494e-01
     5502000000    3.175473809e-01    6.089590788e-01
     5505000000    9.283413738e-02    6.654102802e-01
     5508000000   -1.629614532e-01    6.597829461e-01
     5511000000   -3.881076574e-01    5.583798885e-01
     5514000000   -5.560967922e-01    3.835001886e-01
     5517000000   -6.570576429e-01    1.561205834e-01
     5520000000   -6.684688330e-01   -8.957754076e-02
     5523000000   -5.945754051e-01   -3.310606182e-01
     5526000000   -4.399793744e-01   -5.040114522e-01
     5529000000   -2.200666964e-01   -6.403617859e-01
     5532000000    1.883175224e-02   -6.719042063e-01
     5535000000    2.562838197e-01   -6.201755404e-01
     5538000000    4.504032433e-01   -4.893542230e-01
     5541000000    6.122963428e-01   -2.846927643e-01
     5544000000    6.739125252e-01   -4.501999915e-02
     5547000000    6.394183040e-01    1.920695007e-01
     5550000000    5.294465423e-01    3.943814337e-01
     5553000000    3.484749794e-01    5.636249185e-01
     5556000000    1.121407673e-01    6.590533853e-01
     5559000000   -1.114867851e-01    6.489835382e-01
     5562000000   -3.473994732e-01    5.619743466e-01
     5565000000   -5.176243186e-01    4.046129286e-01
     5568000000   -6.306170821e-01    1.858854294e-01
     5571000000   -6.570622325e-01   -5.525238067e-02
     5574000000   -5.933026671e-01   -2.909398377e-01
     5577000000   -4.465018809e-01   -4.845061898e-01
     5580000000   -2.484346628e-01   -6.057618856e-01
     5583000000   -2.207809873e-02   -6.536327600e-01
     5586000000    2.367516309e-01   -6.199637651e-01
     5589000000    4.201858640e-01   -4.978618324e-01
     5592000000    5.863545537e-01   -3.039407432e-01
     5595000000    6.560871005e-01   -7.671519369e-02
     5598000000    6.375463009e-01    1.579856724e-01
     5601000000    5.338499546e-01    4.024864435e-01
     5604000000    3.639645576e-01    5.437997580e-01
     5607000000    1.416699141e-01    6.444372535e-01
     5610000000   -9.417019784e-02    6.464340091e-01
     5613000000   -3.220702112e-01    5.684931874e-01
     5616000000   -5.057112575e-01    4.143837094e-01
     5619000000   -6.152936816e-01    2.095307112e-01
     5622000000   -6.510307789e-01   -3.282607719e-02
     5625000000   -5.936734080e-01   -2.788482606e-01
     5628000000   -4.577634037e-01   -4.702616632e-01
     5631000000   -2.626507282e-01   -6.018061638e-01
     5634000000   -3.418666124e-02   -6.513948441e-01
     5637000000    2.124434710e-01   -6.199244261e-01
     5640000000    4.058315754e-01   -5.089375973e-01
     5643000000    5.676518083e-01   -3.257685602e-01
     5646000000    6.542228460e-01   -8.150462806e-02
     5649000000    6.405401826e-01    1.524074376e-01
     5652000000    5.505905151e-01    3.482731879e-01
     5655000000    3.692795038e-01    5.442145467e-01
     5658000000    1.464198530e-01    6.423592567e-01
     5661000000   -6.870755553e-02    6.486337185e-01
     5664000000   -3.163607121e-01    5.736838579e-01
     5667000000   -4.940864146e-01    4.300898612e-01
     5670000000   -6.163849235e-01    2.232151628e-01
     5673000000   -6.592016816e-01   -3.242867440e-02
     5676000000   -6.060814857e-01   -2.527091205e-01
     5679000000   -4.734219313e-01   -4.572802186e-01
     5682000000   -2.735174298e-01   -5.992038846e-01
     5685000000   -5.732460693e-02   -6.516349316e-01
     5688000000    2.100431323e-01   -6.303923726e-01
     5691000000    3.914676905e-01   -5.237630606e-01
     5694000000    5.711809993e-01   -3.355408907e-01
     5697000000    6.569304466e-01   -9.710305929e-02
     5700000000    6.491770744e-01    1.237512827e-01
     5703000000    5.564489365e-01    3.552894592e-01
     5706000000    3.849454522e-01    5.433915257e-01
     5709000000    1.784498245e-01    6.347447038e-01
     5712000000   -7.750668377e-02    6.553509235e-01
     5715000000   -3.073914647e-01    5.831542611e-01
     5718000000   -4.936437309e-01    4.362972677e-01
     5721000000   -6.229010224e-01    2.172818631e-01
     5724000000   -6.611101627e-01    1.451493357e-03
     5727000000   -6.088879108e-01   -2.522488236e-01
     5730000000   -4.831176698e-01   -4.474378526e-01
     5733000000   -2.744937539e-01   -6.029014587e-01
     5736000000   -7.242757082e-02   -6.521314979e-01
     5739000000    1.796063036e-01   -6.342576742e-01
     5742000000    3.980761468e-01   -5.209274888e-01
     5745000000    5.645358562e-01   -3.379505873e-01
     5748000000    6.435238123e-01   -1.206301749e-01
     5751000000    6.419265270e-01    1.190060526e-01
     5754000000    5.449700952e-01    3.651911318e-01
     5757000000    4.113938510e-01    5.078651309e-01
     5760000000    1.600896865e-01    6.373864412e-01
     5763000000   -6.433758140e-02    6.560055017e-01
     5766000000   -3.043982685e-01    5.792521834e-01
     5769000000   -4.599695504e-01    4.620821774e-01
     5772000000   -6.077195406e-01    2.369779497e-01
     5775000000   -6.498385072e-01   -2.145740576e-02
     5778000000   -6.063938737e-01   -2.506220043e-01
     5781000000   -4.675186872e-01   -4.541734159e-01
     5784000000   -2.948346734e-01   -5.799641609e-01
     5787000000   -5.372644961e-02   -6.493168473e-01
     5790000000    1.773982346e-01   -6.279968619e-01
     5793000000    3.964614868e-01   -5.173498988e-01
     5796000000    5.578297973e-01   -3.391115665e-01
     5799000000    6.404357553e-01   -1.071370542e-01
     5802000000    6.398362517e-01    1.294625998e-01
     5805000000    5.556586981e-01    3.457279801e-01
     5808000000    3.690528572e-01    5.325173736e-01
     5811000000    1.751510054e-01    6.282278895e-01
     5814000000   -7.542074472e-02    6.450645924e-01
     5817000000   -3.016644418e-01    5.702029467e-01
     5820000000   -4.918513298e-01    4.162766039e-01
     5823000000   -6.013336182e-01    2.411422282e-01
     5826000000   -6.435509920e-01   -9.245826863e-03
     5829000000   -5.968506932e-01   -2.411766499e-01
     5832000000   -4.629430771e-01   -4.423707724e-01
     5835000000   -2.780634165e-01   -5.828395486e-01
     5838000000   -4.399698973e-02   -6.448432207e-01
     5841000000    2.005738169e-01   -6.082759500e-01
     5844000000    4.017449319e-01   -4.988081157e-01
     5847000000    5.567297339e-01   -3.231648207e-01
     5850000000    6.353976727e-01   -8.428697288e-02
     5853000000    6.268801093e-01    1.337100416e-01
     5856000000    5.242649317e-01    3.621180058e-01
     5859000000    3.632037342e-01    5.230575800e-01
     5862000000    1.458551884e-01    6.231797338e-01
     5865000000   -9.238455445e-02    6.301048994e-01
     5868000000   -3.118923903e-01    5.594374537e-01
     5871000000   -4.966666698e-01    3.907795250e-01
     5874000000   -6.047828197e-01    2.157097310e-01
     5877000000   -6.407544017e-01   -2.448270656e-02
     5880000000   -5.740172267e-01   -2.745583355e-01
     5883000000   -4.415474236e-01   -4.551864564e-01
     5886000000   -2.592639625e-01   -5.869693160e-01
     5889000000   -7.391675841e-03   -6.364173889e-01
     5892000000    2.190747857e-01   -5.938595533e-01
     5895000000    3.980669379e-01   -5.057858825e-01
     5898000000    5.690003037e-01   -2.685714364e-01
     5901000000    6.332856417e-01   -9.379945695e-02
     5904000000    6.143687367e-01    1.643229425e-01
     5907000000    5.190443397e-01    3.736673594e-01
     5910000000    3.517608643e-01    5.276660323e-01
     5913000000    1.226878166e-01    6.236526966e-01
     5916000000   -1.109582856e-01    6.180877686e-01
     5919000000   -3.396787941e-01    5.344490409e-01
     5922000000   -4.971534610e-01    4.001824558e-01
     5925000000   -6.067053080e-01    1.685729623e-01
     5928000000   -6.259416938e-01   -5.841223150e-02
     5931000000   -5.623332262e-01   -2.795115709e-01
     5934000000   -4.213369787e-01   -4.649412036e-01
     5937000000   -2.121310234e-01   -5.906751752e-01
     5940000000    1.079905592e-02   -6.236615777e-01
     5943000000    2.245616019e-01   -5.962226391e-01
     5946000000    4.276890159e-01   -4.635240436e-01
     5949000000    5.664265752e-01   -2.631382346e-01
     5952000000    6.297670603e-01   -5.607819930e-02
     5955000000    5.944526196e-01    1.868498027e-01
     5958000000    5.094889402e-01    3.815433383e-01
     5961000000    3.334057629e-01    5.408735871e-01
     5964000000    8.162920922e-02    6.127443910e-01
     5967000000   -1.181183383e-01    6.188962460e-01
     5970000000   -3.555908799e-01    5.077722669e-01
     5973000000   -5.055926442e-01    3.549039066e-01
     5976000000   -6.085696816e-01    1.463809311e-01
     5979000000   -6.228256226e-01   -7.736332715e-02
     5982000000   -5.450059175e-01   -3.019014597e-01
     5985000000   -3.930071592e-01   -4.810892045e-01
     5988000000   -1.901268810e-01   -5.888385177e-01
     5991000000    3.987615556e-02   -6.151722670e-01
     5994000000    2.572282553e-01   -5.569927096e-01
     5997000000    4.451693296e-01   -4.247348011e-01
     6000000000    5.647345781e-01   -2.383555919e-01
