! NanoVNA-App
! Date: 2026-05-22 18:52:32
! Start: 4.8GHz Stop: 6GHz Points: 401
! S-Parameter data: F S11
# Hz S RI R 50
!     Frequency           S11_Real           S11_Imag
     4800000000   -7.709499598e-01    5.138584375e-01
     4803000000   -9.051955342e-01    1.961115599e-01
     4806000000   -9.116076231e-01   -1.435759664e-01
     4809000000   -7.902887464e-01   -4.778755307e-01
     4812000000   -5.718899965e-01   -7.265629172e-01
     4815000000   -2.571185231e-01   -8.878390193e-01
     4818000000    8.067949861e-02   -9.215939045e-01
     4821000000    4.162178040e-01   -8.256558180e-01
     4824000000    6.839260459e-01   -6.184912324e-01
     4827000000    8.650584817e-01   -3.278271556e-01
     4830000000    9.237094522e-01    1.615651697e-02
     4833000000    8.548897505e-01    3.433384895e-01
     4836000000    6.673798561e-01    6.373910308e-01
     4839000000    3.899263442e-01    8.378141522e-01
     4842000000    5.202644691e-02    9.226949811e-01
     4845000000   -2.777768672e-01    8.785563707e-01
     4848000000   -5.919268131e-01    7.104509473e-01
     4851000000   -8.065198660e-01    4.495872855e-01
     4854000000   -9.142929912e-01    1.222014725e-01
     4857000000   -8.958948255e-01   -2.198122442e-01
     4860000000   -7.605908513e-01   -5.177491903e-01
     4863000000   -5.082079768e-01   -7.682695985e-01
     4866000000   -1.798834652e-01   -9.055619240e-01
     4869000000    1.391330659e-01   -9.105415940e-01
     4872000000    4.615122080e-01   -7.970805764e-01
     4875000000    7.269753218e-01   -5.645574927e-01
     4878000000    8.789664507e-01   -2.726374269e-01
     4881000000    9.149030447e-01    9.383810312e-02
     4884000000    8.294345737e-01    3.950060606e-01
     4887000000    6.178057790e-01    6.830427647e-01
     4890000000    3.257501423e-01    8.629176021e-01
     4893000000   -1.126144640e-02    9.185101390e-01
     4896000000   -3.402032554e-01    8.528400064e-01
     4899000000   -6.236091852e-01    6.732330918e-01
     4902000000   -8.291527033e-01    3.933689296e-01
     4905000000   -9.157835245e-01    5.800044164e-02
     4908000000   -8.760917187e-01   -2.714130878e-01
     4911000000   -7.142875791e-01   -5.737683773e-01
     4914000000   -4.524758458e-01   -7.994616628e-01
     4917000000   -1.360231340e-01   -9.033039808e-01
     4920000000    1.906922162e-01   -8.962941170e-01
     4923000000    5.294035077e-01   -7.478932142e-01
     4926000000    7.606976628e-01   -5.138346553e-01
     4929000000    8.909998536e-01   -2.058037817e-01
     4932000000    9.022419453e-01    1.466988921e-01
     4935000000    7.988258004e-01    4.446036816e-01
     4938000000    5.654127002e-01    7.170125842e-01
     4941000000    2.699917853e-01    8.731225729e-01
     4944000000   -5.325735733e-02    9.147397876e-01
     4947000000   -3.946848512e-01    8.202501535e-01
     4950000000   -6.679058075e-01    6.275194287e-01
     4953000000   -8.595391512e-01    3.209694922e-01
     4956000000   -9.121977091e-01    7.655251306e-03
     4959000000   -8.497788906e-01   -3.308406174e-01
     4962000000   -6.710265279e-01   -6.162343025e-01
     4965000000   -4.010319412e-01   -8.173112273e-01
     4968000000   -7.635512948e-02   -9.082776904e-01
     4971000000    2.589310706e-01   -8.751182556e-01
     4974000000    5.578005314e-01   -7.198947072e-01
     4977000000    7.877800465e-01   -4.600270987e-01
     4980000000    8.982223272e-01   -1.438133121e-01
     4983000000    8.863102198e-01    2.005331069e-01
     4986000000    7.591674328e-01    5.023568273e-01
     4989000000    5.203166008e-01    7.453954220e-01
     4992000000    2.174405754e-01    8.820974231e-01
     4995000000   -1.356412619e-01    8.942821622e-01
     4998000000   -4.385551214e-01    7.925820351e-01
     5001000000   -7.003592849e-01    5.834456682e-01
     5004000000   -8.648386002e-01    2.811012864e-01
     5007000000   -9.026448131e-01   -3.926584125e-02
     5010000000   -8.212700486e-01   -3.756000996e-01
     5013000000   -6.314190030e-01   -6.476629972e-01
     5016000000   -3.537383676e-01   -8.323917389e-01
     5019000000   -2.229448967e-02   -9.046915174e-01
     5022000000    3.032073379e-01   -8.495242000e-01
     5025000000    5.956314802e-01   -6.771266460e-01
     5028000000    8.005498648e-01   -4.114858806e-01
     5031000000    8.927413821e-01   -9.694925696e-02
     5034000000    8.677594662e-01    2.401653677e-01
     5037000000    7.282366753e-01    5.325993896e-01
     5040000000    4.685634971e-01    7.697021961e-01
     5043000000    1.684921682e-01    8.828437328e-01
     5046000000   -1.673331559e-01    8.840984106e-01
     5049000000   -4.739379585e-01    7.620278597e-01
     5052000000   -7.200794816e-01    5.329333544e-01
     5055000000   -8.613269925e-01    2.385375798e-01
     5058000000   -8.925645351e-01   -9.922710806e-02
     5061000000   -7.924694419e-01   -4.110126495e-01
     5064000000   -5.876595378e-01   -6.732535362e-01
     5067000000   -3.071962595e-01   -8.382139206e-01
     5070000000    2.173011564e-02   -8.914167285e-01
     5073000000    3.425342739e-01   -8.205959797e-01
     5076000000    6.157497764e-01   -6.442220211e-01
     5079000000    8.092517853e-01   -3.705792427e-01
     5082000000    8.855525851e-01   -5.576175079e-02
     5085000000    8.420796990e-01    2.759317756e-01
     5088000000    6.887583733e-01    5.568604469e-01
     5091000000    4.313154817e-01    7.709751725e-01
     5094000000    1.287168264e-01    8.758881688e-01
     5097000000   -2.013994753e-01    8.622109890e-01
     5100000000   -5.020220280e-01    7.266360521e-01
     5103000000   -7.275279164e-01    5.022167563e-01
     5106000000   -8.546583056e-01    1.985539198e-01
     5109000000   -8.682721853e-01   -1.292519122e-01
     5112000000   -7.727057338e-01   -4.220796824e-01
     5115000000   -5.523117185e-01   -6.791399717e-01
     5118000000   -2.574939728e-01   -8.320581317e-01
     5121000000    5.338836089e-02   -8.721460700e-01
     5124000000    3.662247360e-01   -7.945417166e-01
     5127000000    6.255666018e-01   -6.129296422e-01
     5130000000    8.044685125e-01   -3.325825036e-01
     5133000000    8.690039515e-01   -2.310954407e-02
     5136000000    8.162445426e-01    2.906713486e-01
     5139000000    6.545504332e-01    5.744997859e-01
     5142000000    4.011796713e-01    7.654389143e-01
     5145000000    9.189855307e-02    8.608760238e-01
     5148000000   -2.242789567e-01    8.361244798e-01
     5151000000   -5.118151307e-01    6.890091300e-01
     5154000000   -7.250840068e-01    4.651827812e-01
     5157000000   -8.444292545e-01    1.699863970e-01
     5160000000   -8.451811671e-01   -1.481896639e-01
     5163000000   -7.329517007e-01   -4.393696487e-01
     5166000000   -5.219292045e-01   -6.798233986e-01
     5169000000   -2.446349412e-01   -8.183473349e-01
     5172000000    6.839140505e-02   -8.520584106e-01
     5175000000    3.745207191e-01   -7.665677071e-01
     5178000000    6.295400858e-01   -5.749465823e-01
     5181000000    7.909658551e-01   -3.175066411e-01
     5184000000    8.447773457e-01   -3.136596410e-03
     5187000000    7.953905463e-01    2.974253297e-01
     5190000000    6.206535101e-01    5.733810663e-01
     5193000000    3.876688182e-01    7.519206405e-01
     5196000000    8.053490520e-02    8.361373544e-01
     5199000000   -2.315303683e-01    8.104630113e-01
     5202000000   -5.050173998e-01    6.677159667e-01
     5205000000   -7.110787630e-01    4.393845499e-01
     5208000000   -8.218085766e-01    1.580325365e-01
     5211000000   -8.211041689e-01   -1.529723108e-01
     5214000000   -7.094758749e-01   -4.391268790e-01
     5217000000   -5.010203719e-01   -6.646072865e-01
     5220000000   -2.310461551e-01   -8.007851243e-01
     5223000000    7.694044709e-02   -8.281317949e-01
     5226000000    3.715802431e-01   -7.393779755e-01
     5229000000    6.122429371e-01   -5.575841665e-01
     5232000000    7.728384137e-01   -2.984675169e-01
     5235000000    8.256334066e-01   -2.985291649e-03
     5238000000    7.689760327e-01    2.964740694e-01
     5241000000    6.045622826e-01    5.522943735e-01
     5244000000    3.709011078e-01    7.343639731e-01
     5247000000    7.845371217e-02    8.167314529e-01
     5250000000   -2.210398763e-01    7.867898941e-01
     5253000000   -4.893580675e-01    6.530522108e-01
     5256000000   -6.881486773e-01    4.313908815e-01
     5259000000   -7.984471917e-01    1.581783444e-01
     5262000000   -8.004931808e-01   -1.502225995e-01
     5265000000   -6.922673583e-01   -4.249478877e-01
     5268000000   -4.934270680e-01   -6.396344900e-01
     5271000000   -2.273150086e-01   -7.759627104e-01
     5274000000    6.922230124e-02   -8.031433821e-01
     5277000000    3.513472080e-01   -7.202528715e-01
     5280000000    5.859769583e-01   -5.501189828e-01
     5283000000    7.435736656e-01   -2.920843363e-01
     5286000000    8.015952706e-01   -8.672143333e-03
     5289000000    7.471356392e-01    2.777526975e-01
     5292000000    5.951811075e-01    5.283280611e-01
     5295000000    3.636135459e-01    7.082955837e-01
     5298000000    8.428205550e-02    7.895252705e-01
     5301000000   -2.014334053e-01    7.672444582e-01
     5304000000   -4.652131498e-01    6.394858956e-01
     5307000000   -6.643602848e-01    4.271280169e-01
     5310000000   -7.709444761e-01    1.592342257e-01
     5313000000   -7.754888535e-01   -1.291269809e-01
     5316000000   -6.755481362e-01   -4.015090168e-01
     5319000000   -4.849760234e-01   -6.168554425e-01
     5322000000   -2.316004187e-01   -7.467490435e-01
     5325000000    5.104821548e-02   -7.779392004e-01
     5328000000    3.295853436e-01   -7.071889639e-01
     5331000000    5.615381598e-01   -5.402317047e-01
     5334000000    7.167716622e-01   -3.023510873e-01
     5337000000    7.746946812e-01   -2.466454543e-02
     5340000000    7.300684452e-01    2.550701201e-01
     5343000000    5.875486732e-01    5.013532639e-01
     5346000000    3.687572181e-01    6.774706244e-01
     5349000000    9.956368804e-02    7.618356347e-01
     5352000000   -1.816579103e-01    7.446528077e-01
     5355000000   -4.340042174e-01    6.289690137e-01
     5358000000   -6.336171627e-01    4.274534285e-01
     5361000000   -7.455011010e-01    1.673592478e-01
     5364000000   -7.539476752e-01   -1.061568409e-01
     5367000000   -6.641584039e-01   -3.704877794e-01
     5370000000   -4.870013893e-01   -5.821750760e-01
     5373000000   -2.496633977e-01   -7.147794366e-01
     5376000000    2.889120393e-02   -7.564694881e-01
     5379000000    3.051207066e-01   -6.909189224e-01
     5382000000    5.239086151e-01   -5.380987525e-01
     5385000000    6.805037260e-01   -3.140645027e-01
     5388000000    7.461802363e-01   -4.971064627e-02
     5391000000    7.123852372e-01    2.245986760e-01
     5394000000    5.841747522e-01    4.617660046e-01
     5397000000    3.762971163e-01    6.444109082e-01
     5400000000    1.212057844e-01    7.346394062e-01
     5403000000   -1.440544128e-01    7.259008884e-01
     5406000000   -3.973560035e-01    6.232667565e-01
     5409000000   -5.956493020e-01    4.380313158e-01
     5412000000   -7.126914263e-01    1.937352419e-01
     5415000000   -7.321530581e-01   -7.334996760e-02
     5418000000   -6.576629281e-01   -3.328642547e-01
     5421000000   -4.935860932e-01   -5.421075821e-01
     5424000000   -2.655499279e-01   -6.828603745e-01
     5427000000   -4.008921329e-03   -7.323143482e-01
     5430000000    2.538299263e-01   -6.803950071e-01
     5433000000    4.826400280e-01   -5.415515900e-01
     5436000000    6.451073885e-01   -3.324202299e-01
     5439000000    7.228854895e-01   -7.439200580e-02
     5442000000    6.989430785e-01    1.854752749e-01
     5445000000    5.844644904e-01    4.232324660e-01
     5448000000    3.958609402e-01    6.015046239e-01
     5451000000    1.570727378e-01    6.979216933e-01
     5454000000   -1.097489819e-01    7.088351250e-01
     5457000000   -3.534082472e-01    6.210320592e-01
     5460000000   -5.509015918e-01    4.519463181e-01
     5463000000   -6.739044189e-01    2.264951617e-01
     5466000000   -7.111887336e-01   -3.380713239e-02
     5469000000   -6.470265388e-01   -2.796526253e-01
     5472000000   -5.027167201e-01   -4.974796772e-01
     5475000000   -2.914218605e-01   -6.444604397e-01
     5478000000   -4.505680129e-02   -7.006208301e-01
     5481000000    2.174248993e-01   -6.742939353e-01
     5484000000    4.391992986e-01   -5.471400619e-01
     5487000000    5.920099616e-01   -3.600805402e-01
     5490000000    6.954513788e-01   -1.096718907e-01
     5493000000    6.845858693e-01    1.402886957e-01
     5496000000    5.886129737e-01    3.686178625e-01
     5499000000    4.139357209e-01    5.606532693e-01
     5502000000    1.900072396e-01    6.624130011e-01
     5505000000   -6.275790930e-02    6.878344417e-01
     5508000000   -3.070936799e-01    6.194168925e-01
     5511000000   -5.044773221e-01    4.677985609e-01
     5514000000   -6.361703873e-01    2.577243447e-01
     5517000000   -6.821807027e-01    1.282297168e-02
     5520000000   -6.433145404e-01   -2.412004173e-01
     5523000000   -5.144668818e-01   -4.407838881e-01
     5526000000   -3.185635507e-01   -6.050531268e-01
     5529000000   -7.865362614e-02   -6.790639162e-01
     5532000000    1.655286700e-01   -6.568612456e-01
     5535000000    3.884263635e-01   -5.544937849e-01
     5538000000    5.462479591e-01   -3.830654621e-01
     5541000000    6.626147628e-01   -1.472655982e-01
     5544000000    6.652449369e-01    9.076471627e-02
     5547000000    5.903134346e-01    3.411567509e-01
     5550000000    4.319045842e-01    5.075218678e-01
     5553000000    2.184680700e-01    6.341838837e-01
     5556000000   -2.610564791e-02    6.720365286e-01
     5559000000   -2.655443847e-01    6.162844300e-01
     5562000000   -4.535808265e-01    4.805110693e-01
     5565000000   -5.953401923e-01    2.855480909e-01
     5568000000   -6.663871408e-01    4.128329456e-02
     5571000000   -6.333954334e-01   -1.931472421e-01
     5574000000   -5.226172805e-01   -4.022817612e-01
     5577000000   -3.412362337e-01   -5.642184019e-01
     5580000000   -1.155678034e-01   -6.512883902e-01
     5583000000    1.244002357e-01   -6.474344730e-01
     5586000000    3.485106528e-01   -5.608211756e-01
     5589000000    5.290573835e-01   -3.965932429e-01
     5592000000    6.288644075e-01   -1.843176633e-01
     5595000000    6.502063274e-01    4.283466935e-02
     5598000000    5.932272077e-01    2.935098410e-01
     5601000000    4.457935095e-01    4.868160784e-01
     5604000000    2.520115376e-01    6.021574736e-01
     5607000000    2.399504185e-02    6.506803036e-01
     5610000000   -2.262585908e-01    6.173636913e-01
     5613000000   -4.207060635e-01    4.960871637e-01
     5616000000   -5.744065046e-01    3.105652630e-01
     5619000000   -6.446745992e-01    8.526429534e-02
     5622000000   -6.343649626e-01   -1.653330475e-01
     5625000000   -5.324555039e-01   -3.752070367e-01
     5628000000   -3.719359636e-01   -5.247079730e-01
     5631000000   -1.401563883e-01   -6.385030150e-01
     5634000000    7.908862829e-02   -6.379358768e-01
     5637000000    3.193530142e-01   -5.651710629e-01
     5640000000    4.796690047e-01   -4.227171242e-01
     5643000000    6.028860807e-01   -2.166215181e-01
     5646000000    6.477854848e-01    2.841461077e-02
     5649000000    5.934094191e-01    2.545168400e-01
     5652000000    4.635055065e-01    4.472312629e-01
     5655000000    2.881006896e-01    5.600897074e-01
     5658000000    3.595725447e-02    6.429597139e-01
     5661000000   -1.631412804e-01    6.091738343e-01
     5664000000   -4.039489627e-01    5.013796091e-01
     5667000000   -5.405008793e-01    3.324036002e-01
     5670000000   -6.264291406e-01    1.078208163e-01
     5673000000   -6.223866343e-01   -1.300117522e-01
     5676000000   -5.320962667e-01   -3.483765125e-01
     5679000000   -3.774358034e-01   -5.069228411e-01
     5682000000   -1.693350226e-01   -6.111336350e-01
     5685000000    6.100188568e-02   -6.277669668e-01
     5688000000    2.969636917e-01   -5.648319125e-01
     5691000000    4.516464174e-01   -4.330316186e-01
     5694000000    5.926521420e-01   -2.207175493e-01
     5697000000    6.301207542e-01   -2.490507904e-03
     5700000000    5.902687907e-01    2.189775705e-01
     5703000000    4.638440013e-01    4.279607534e-01
     5706000000    2.797279656e-01    5.684202909e-01
     5709000000    5.603539944e-02    6.297982335e-01
     5712000000   -1.691169888e-01    6.033037901e-01
     5715000000   -3.783203363e-01    5.047963858e-01
     5718000000   -5.246275663e-01    3.412975371e-01
     5721000000   -6.169101000e-01    1.210392788e-01
     5724000000   -6.193642616e-01   -1.274268329e-01
     5727000000   -5.418533087e-01   -3.214414418e-01
     5730000000   -3.850114048e-01   -4.951373041e-01
     5733000000   -1.754381210e-01   -6.046757102e-01
     5736000000    4.403089732e-02   -6.271665096e-01
     5739000000    2.709890306e-01   -5.640195012e-01
     5742000000    4.695715010e-01   -4.213979244e-01
     5745000000    5.765873194e-01   -2.372124195e-01
     5748000000    6.212170124e-01   -2.428237721e-02
     5751000000    5.910617709e-01    2.104734331e-01
     5754000000    4.643327892e-01    4.226920009e-01
     5757000000    2.819791436e-01    5.590623021e-01
     5760000000    8.918309212e-02    6.163332462e-01
     5763000000   -1.572032869e-01    6.036586165e-01
     5766000000   -3.605221808e-01    5.065405369e-01
     5769000000   -5.198916197e-01    3.438793421e-01
     5772000000   -6.034132838e-01    1.508044899e-01
     5775000000   -6.133104563e-01   -1.078056693e-01
     5778000000   -5.376338363e-01   -3.117286861e-01
     5781000000   -3.862418532e-01   -4.824978709e-01
     5784000000   -1.851812750e-01   -5.910167694e-01
     5787000000    3.619634733e-02   -6.179022193e-01
     5790000000    2.585050166e-01   -5.601459146e-01
     5793000000    4.512190819e-01   -4.229076207e-01
     5796000000    5.656266212e-01   -2.490900010e-01
     5799000000    6.193169951e-01   -2.623315668e-03
     5802000000    5.808814764e-01    2.045655400e-01
     5805000000    4.735690653e-01    3.964279592e-01
     5808000000    2.938689291e-01    5.385758877e-01
     5811000000    6.347033381e-02    6.141756177e-01
     5814000000   -1.571126580e-01    5.926466584e-01
     5817000000   -3.531324863e-01    5.027388334e-01
     5820000000   -5.210945606e-01    3.217430711e-01
     5823000000   -5.989399552e-01    1.357099116e-01
     5826000000   -6.051926017e-01   -9.234123677e-02
     5829000000   -5.197744966e-01   -3.191327155e-01
     5832000000   -3.730647862e-01   -4.785446525e-01
     5835000000   -2.017953843e-01   -5.789597631e-01
     5838000000    4.412165284e-02   -6.079214215e-01
     5841000000    2.481897920e-01   -5.544073582e-01
     5844000000    4.395315349e-01   -4.181288779e-01
     5847000000    5.599623919e-01   -2.352210730e-01
     5850000000    6.058687568e-01   -1.354160067e-02
     5853000000    5.691397786e-01    2.080500573e-01
     5856000000    4.553226233e-01    3.943462968e-01
     5859000000    2.833800614e-01    5.327811241e-01
     5862000000    7.020866126e-02    5.978510380e-01
     5865000000   -1.554410160e-01    5.774381161e-01
     5868000000   -3.484695852e-01    4.896516204e-01
     5871000000   -5.047768354e-01    3.223496377e-01
     5874000000   -5.876661539e-01    1.168478951e-01
     5877000000   -5.890994072e-01   -1.042286083e-01
     5880000000   -5.259261727e-01   -2.968073189e-01
     5883000000   -3.531106412e-01   -4.775501788e-01
     5886000000   -1.429845691e-01   -5.752064586e-01
     5889000000    4.447416961e-02   -6.002177596e-01
     5892000000    2.702440023e-01   -5.250151753e-01
     5895000000    4.350112975e-01   -4.050923884e-01
     5898000000    5.564499497e-01   -2.009244859e-01
     5901000000    5.917447805e-01   -5.633170251e-03
     5904000000    5.601907969e-01    2.042562366e-01
     5907000000    4.548749626e-01    3.901235461e-01
     5910000000    2.391084433e-01    5.323826075e-01
     5913000000    4.243217409e-02    5.879181623e-01
     5916000000   -1.594362259e-01    5.703659654e-01
     5919000000   -3.584688008e-01    4.774134457e-01
     5922000000   -5.088772774e-01    2.892534733e-01
     5925000000   -5.787985325e-01    9.577773511e-02
     5928000000   -5.714890361e-01   -1.198371127e-01
     5931000000   -4.892277420e-01   -3.189327717e-01
     5934000000   -3.454957008e-01   -4.772560298e-01
     5937000000   -1.505170166e-01   -5.690163970e-01
     5940000000    7.793787122e-02   -5.714741349e-01
     5943000000    2.857414186e-01   -5.105943680e-01
     5946000000    4.486716390e-01   -3.686512411e-01
     5949000000    5.520365834e-01   -2.033802569e-01
     5952000000    5.825305581e-01    2.668707632e-02
     5955000000    5.266242027e-01    2.364345044e-01
     5958000000    4.131453335e-01    4.133454859e-01
     5961000000    2.534627616e-01    5.344037414e-01
     5964000000    1.583656110e-02    5.789374709e-01
     5967000000   -1.914788485e-01    5.487474203e-01
     5970000000   -3.846033216e-01    4.386265576e-01
     5973000000   -5.084001422e-01    2.782557011e-01
     5976000000   -5.836874843e-01    8.129816502e-02
     5979000000   -5.506640077e-01   -1.633268446e-01
     5982000000   -4.772559404e-01   -3.371411562e-01
     5985000000   -3.129886389e-01   -4.882647991e-01
     5988000000   -1.130334958e-01   -5.664064288e-01
     5991000000    1.036147028e-01   -5.687994361e-01
     5994000000    3.009529710e-01   -4.926891029e-01
     5997000000    4.593026936e-01   -3.457815945e-01
     6000000000    5.501561165e-01   -1.564536244e-01
