! NanoVNA-App
! Date: 2026-05-23 02:35:55
! Start: 2.3GHz Stop: 2.6GHz Points: 401
! S-Parameter data: F S11
# Hz S RI R 50
!     Frequency           S11_Real           S11_Imag
     2300000000   -4.136576951e-01    1.486049891e-01
     2300750000   -4.209731519e-01    1.351135969e-01
     2301500000   -4.269432724e-01    1.217647567e-01
     2302250000   -4.341306388e-01    1.047738045e-01
     2303000000   -4.409782588e-01    8.607541770e-02
     2303750000   -4.442252219e-01    7.247062773e-02
     2304500000   -4.482989311e-01    5.482220650e-02
     2305250000   -4.518972933e-01    3.700265661e-02
     2306000000   -4.548117220e-01    1.724036224e-02
     2306750000   -4.552222192e-01    2.245620090e-05
     2307500000   -4.548603892e-01   -1.794025674e-02
     2308250000   -4.547900259e-01   -3.761907294e-02
     2309000000   -4.517351389e-01   -5.355545878e-02
     2309750000   -4.482945502e-01   -7.316775620e-02
     2310500000   -4.451809824e-01   -9.349121898e-02
     2311250000   -4.386671484e-01   -1.106470153e-01
     2312000000   -4.329199791e-01   -1.279145628e-01
     2312750000   -4.256314635e-01   -1.473974884e-01
     2313500000   -4.172572196e-01   -1.628233790e-01
     2314250000   -4.096843302e-01   -1.786546260e-01
     2315000000   -3.985369205e-01   -1.957235336e-01
     2315750000   -3.878483176e-01   -2.120204568e-01
     2316500000   -3.780310452e-01   -2.228695154e-01
     2317250000   -3.650539815e-01   -2.392671853e-01
     2318000000   -3.526654840e-01   -2.503181398e-01
     2318750000   -3.394311070e-01   -2.659609914e-01
     2319500000   -3.265198469e-01   -2.743391395e-01
     2320250000   -3.137500882e-01   -2.838621736e-01
     2321000000   -2.991275787e-01   -2.938993871e-01
     2321750000   -2.866106033e-01   -2.997315824e-01
     2322500000   -2.710619569e-01   -3.093312681e-01
     2323250000   -2.570229769e-01   -3.153588176e-01
     2324000000   -2.441927344e-01   -3.195972443e-01
     2324750000   -2.297362983e-01   -3.249260485e-01
     2325500000   -2.160897553e-01   -3.275688589e-01
     2326250000   -2.031152397e-01   -3.292337954e-01
     2327000000   -1.942276657e-01   -3.288533092e-01
     2327750000   -1.770449728e-01   -3.342351317e-01
     2328500000   -1.702448279e-01   -3.311066329e-01
     2329250000   -1.565727592e-01   -3.320240676e-01
     2330000000   -1.419991553e-01   -3.326035738e-01
     2330750000   -1.348385662e-01   -3.292453885e-01
     2331500000   -1.251235902e-01   -3.270912170e-01
     2332250000   -1.198792234e-01   -3.237741292e-01
     2333000000   -1.130004972e-01   -3.205809593e-01
     2333750000   -1.007832140e-01   -3.183166087e-01
     2334500000   -9.527836740e-02   -3.147188723e-01
     2335250000   -9.362636507e-02   -3.107368350e-01
     2336000000   -8.689581603e-02   -3.075939715e-01
     2336750000   -8.399787545e-02   -3.034002781e-01
     2337500000   -7.906277478e-02   -3.008093536e-01
     2338250000   -7.691256702e-02   -2.967570424e-01
     2339000000   -7.495180517e-02   -2.945569456e-01
     2339750000   -7.241784036e-02   -2.916412950e-01
     2340500000   -7.068753988e-02   -2.894589901e-01
     2341250000   -7.082776725e-02   -2.877169549e-01
     2342000000   -7.137231529e-02   -2.865269184e-01
     2342750000   -7.054414600e-02   -2.855282128e-01
     2343500000   -6.989620626e-02   -2.849493623e-01
     2344250000   -7.062091678e-02   -2.857199311e-01
     2345000000   -7.195998728e-02   -2.860075533e-01
     2345750000   -7.238042355e-02   -2.872959971e-01
     2346500000   -7.155123353e-02   -2.894155681e-01
     2347250000   -7.285399735e-02   -2.924936116e-01
     2348000000   -7.236784697e-02   -2.954672575e-01
     2348750000   -6.947941333e-02   -2.989219427e-01
     2349500000   -6.870543212e-02   -3.025320768e-01
     2350250000   -6.817896664e-02   -3.080377877e-01
     2351000000   -6.574518979e-02   -3.127180636e-01
     2351750000   -6.316445768e-02   -3.174897134e-01
     2352500000   -6.032479182e-02   -3.233048916e-01
     2353250000   -5.607106537e-02   -3.299930692e-01
     2354000000   -5.228642374e-02   -3.363446593e-01
     2354750000   -4.517170414e-02   -3.428263962e-01
     2355500000   -3.916995227e-02   -3.499510884e-01
     2356250000   -3.162850440e-02   -3.561598063e-01
     2357000000   -2.463044971e-02   -3.626743257e-01
     2357750000   -1.478390396e-02   -3.693231642e-01
     2358500000   -5.732298829e-03   -3.755027652e-01
     2359250000    5.633600056e-03   -3.820578456e-01
     2360000000    1.506559737e-02   -3.879523575e-01
     2360750000    2.811223269e-02   -3.930412531e-01
     2361500000    4.322595894e-02   -3.982185423e-01
     2362250000    5.441696942e-02   -4.023805261e-01
     2363000000    6.949789077e-02   -4.059175551e-01
     2363750000    8.470784128e-02   -4.088988900e-01
     2364500000    9.950134903e-02   -4.112238586e-01
     2365250000    1.161567941e-01   -4.128313065e-01
     2366000000    1.318288296e-01   -4.135944247e-01
     2366750000    1.489682645e-01   -4.129915237e-01
     2367500000    1.659699380e-01   -4.110549688e-01
     2368250000    1.835804731e-01   -4.088959098e-01
     2369000000    2.007970065e-01   -4.052740633e-01
     2369750000    2.184582502e-01   -4.007538259e-01
     2370500000    2.360558957e-01   -3.941194117e-01
     2371250000    2.538423836e-01   -3.866497874e-01
     2372000000    2.695909441e-01   -3.804233372e-01
     2372750000    2.874179780e-01   -3.698368073e-01
     2373500000    3.023499846e-01   -3.603197634e-01
     2374250000    3.190932274e-01   -3.497195244e-01
     2375000000    3.373619318e-01   -3.349308968e-01
     2375750000    3.494647741e-01   -3.239750266e-01
     2376500000    3.642793000e-01   -3.093655109e-01
     2377250000    3.778152466e-01   -2.945103049e-01
     2378000000    3.887368739e-01   -2.807920575e-01
     2378750000    4.016140997e-01   -2.636813521e-01
     2379500000    4.125435054e-01   -2.467430830e-01
     2380250000    4.203132391e-01   -2.319048196e-01
     2381000000    4.316831231e-01   -2.109075934e-01
     2381750000    4.371863902e-01   -1.952033937e-01
     2382500000    4.447466433e-01   -1.762984395e-01
     2383250000    4.528284669e-01   -1.537578553e-01
     2384000000    4.528847039e-01   -1.415757388e-01
     2384750000    4.586346447e-01   -1.205249503e-01
     2385500000    4.624836445e-01   -9.722632915e-02
     2386250000    4.608860314e-01   -8.526401967e-02
     2387000000    4.622847140e-01   -6.516169757e-02
     2387750000    4.620959163e-01   -4.437544569e-02
     2388500000    4.568048716e-01   -3.822206706e-02
     2389250000    4.567119479e-01   -1.386933122e-02
     2390000000    4.532273114e-01    5.466578063e-03
     2390750000    4.488270581e-01    1.442367490e-02
     2391500000    4.432768822e-01    3.605686501e-02
     2392250000    4.372023046e-01    4.185949638e-02
     2393000000    4.309275448e-01    6.345854700e-02
     2393750000    4.236554503e-01    7.557771355e-02
     2394500000    4.173716009e-01    7.965330780e-02
     2395250000    4.091251791e-01    9.343242645e-02
     2396000000    4.008214176e-01    1.031323522e-01
     2396750000    3.933009207e-01    1.142861396e-01
     2397500000    3.864941299e-01    1.173641160e-01
     2398250000    3.770929277e-01    1.266606152e-01
     2399000000    3.698163629e-01    1.323030442e-01
     2399750000    3.612731397e-01    1.387436390e-01
     2400500000    3.547054529e-01    1.420349330e-01
     2401250000    3.457460999e-01    1.481374502e-01
     2402000000    3.394791484e-01    1.489330232e-01
     2402750000    3.348788619e-01    1.482683569e-01
     2403500000    3.249768019e-01    1.541165262e-01
     2404250000    3.204604387e-01    1.538184583e-01
     2405000000    3.163154125e-01    1.533152312e-01
     2405750000    3.099427223e-01    1.552835703e-01
     2406500000    3.076671064e-01    1.531288326e-01
     2407250000    3.035119772e-01    1.523120701e-01
     2408000000    3.010302484e-01    1.511794329e-01
     2408750000    2.978966236e-01    1.503522545e-01
     2409500000    2.955805361e-01    1.502991766e-01
     2410250000    2.945854664e-01    1.490290165e-01
     2411000000    2.935842872e-01    1.483790874e-01
     2411750000    2.940970957e-01    1.476174146e-01
     2412500000    2.921679020e-01    1.487307400e-01
     2413250000    2.952619195e-01    1.472687274e-01
     2414000000    2.947480977e-01    1.489822119e-01
     2414750000    2.969512641e-01    1.499291360e-01
     2415500000    2.991998196e-01    1.519997567e-01
     2416250000    3.006093502e-01    1.542407572e-01
     2417000000    3.040481210e-01    1.567467749e-01
     2417750000    3.057022989e-01    1.611509174e-01
     2418500000    3.086069226e-01    1.656139791e-01
     2419250000    3.115355074e-01    1.709677577e-01
     2420000000    3.133834302e-01    1.772470921e-01
     2420750000    3.160270751e-01    1.835865974e-01
     2421500000    3.186821043e-01    1.902235448e-01
     2422250000    3.208295107e-01    1.987612993e-01
     2423000000    3.224751353e-01    2.072488219e-01
     2423750000    3.236278892e-01    2.165392637e-01
     2424500000    3.239236772e-01    2.266846448e-01
     2425250000    3.242018819e-01    2.374342531e-01
     2426000000    3.231744170e-01    2.483246773e-01
     2426750000    3.219119310e-01    2.604033053e-01
     2427500000    3.196215332e-01    2.719625235e-01
     2428250000    3.166077733e-01    2.845277488e-01
     2429000000    3.124009967e-01    2.974523306e-01
     2429750000    3.081092834e-01    3.100712597e-01
     2430500000    3.017506599e-01    3.240255117e-01
     2431250000    2.949560583e-01    3.387136161e-01
     2432000000    2.874691188e-01    3.510507047e-01
     2432750000    2.794496417e-01    3.634041250e-01
     2433500000    2.697067857e-01    3.767348230e-01
     2434250000    2.581229508e-01    3.914735019e-01
     2435000000    2.488267869e-01    4.012523592e-01
     2435750000    2.346082330e-01    4.154621363e-01
     2436500000    2.200147063e-01    4.275541306e-01
     2437250000    2.081523240e-01    4.349967837e-01
     2438000000    1.903224438e-01    4.488565028e-01
     2438750000    1.770480722e-01    4.561152458e-01
     2439500000    1.544760019e-01    4.680480063e-01
     2440250000    1.459121853e-01    4.688389599e-01
     2441000000    1.238115057e-01    4.797471166e-01
     2441750000    1.023499370e-01    4.879866242e-01
     2442500000    8.503200859e-02    4.916135073e-01
     2443250000    6.675941497e-02    4.940525591e-01
     2444000000    4.614601657e-02    4.978028536e-01
     2444750000    2.837670594e-02    4.982880056e-01
     2445500000    1.129597425e-02    4.981321692e-01
     2446250000   -1.714662090e-02    5.005383492e-01
     2447000000   -3.237568960e-02    4.968913496e-01
     2447750000   -4.703353345e-02    4.939337671e-01
     2448500000   -7.045704871e-02    4.904212952e-01
     2449250000   -8.738365024e-02    4.850983322e-01
     2450000000   -1.083569899e-01    4.799625576e-01
     2450750000   -1.246153042e-01    4.732224345e-01
     2451500000   -1.433909535e-01    4.658210874e-01
     2452250000   -1.551433802e-01    4.574036300e-01
     2453000000   -1.727892458e-01    4.469771385e-01
     2453750000   -1.864863336e-01    4.378502667e-01
     2454500000   -1.986588836e-01    4.280400872e-01
     2455250000   -2.155796289e-01    4.149445891e-01
     2456000000   -2.271875292e-01    4.026616514e-01
     2456750000   -2.392018139e-01    3.907577991e-01
     2457500000   -2.489084154e-01    3.776420951e-01
     2458250000   -2.562125623e-01    3.669122458e-01
     2459000000   -2.652936578e-01    3.529605865e-01
     2459750000   -2.751349807e-01    3.384432793e-01
     2460500000   -2.793512344e-01    3.284736276e-01
     2461250000   -2.881892622e-01    3.131285310e-01
     2462000000   -2.900610864e-01    3.028086126e-01
     2462750000   -2.940736413e-01    2.906061411e-01
     2463500000   -2.956957519e-01    2.793421447e-01
     2464250000   -2.980847657e-01    2.667186558e-01
     2465000000   -2.986360192e-01    2.584213912e-01
     2465750000   -3.010826707e-01    2.441712171e-01
     2466500000   -3.000201881e-01    2.363693118e-01
     2467250000   -2.987557054e-01    2.283509076e-01
     2468000000   -2.984198928e-01    2.186575830e-01
     2468750000   -2.960431874e-01    2.114057541e-01
     2469500000   -2.935002744e-01    2.066540718e-01
     2470250000   -2.913748622e-01    1.981000751e-01
     2471000000   -2.885893285e-01    1.921441257e-01
     2471750000   -2.856613100e-01    1.872464567e-01
     2472500000   -2.818509936e-01    1.855940670e-01
     2473250000   -2.787667215e-01    1.856265664e-01
     2474000000   -2.766862810e-01    1.753418744e-01
     2474750000   -2.732954323e-01    1.767107397e-01
     2475500000   -2.703263760e-01    1.760470271e-01
     2476250000   -2.672980130e-01    1.762339622e-01
     2477000000   -2.654151618e-01    1.716065109e-01
     2477750000   -2.635752261e-01    1.751801521e-01
     2478500000   -2.624432445e-01    1.750803292e-01
     2479250000   -2.612205446e-01    1.751081645e-01
     2480000000   -2.605997920e-01    1.756531298e-01
     2480750000   -2.608786523e-01    1.768741310e-01
     2481500000   -2.620141506e-01    1.777850538e-01
     2482250000   -2.633306384e-01    1.790149808e-01
     2483000000   -2.652097046e-01    1.795517951e-01
     2483750000   -2.681556642e-01    1.817833930e-01
     2484500000   -2.717806399e-01    1.818699837e-01
     2485250000   -2.761123776e-01    1.820805818e-01
     2486000000   -2.803854346e-01    1.821797937e-01
     2486750000   -2.858444750e-01    1.815314740e-01
     2487500000   -2.913231254e-01    1.809845716e-01
     2488250000   -2.973981500e-01    1.801554263e-01
     2489000000   -3.040262461e-01    1.781631559e-01
     2489750000   -3.118164241e-01    1.746823490e-01
     2490500000   -3.187947571e-01    1.718460619e-01
     2491250000   -3.268241286e-01    1.685155928e-01
     2492000000   -3.343734145e-01    1.633228958e-01
     2492750000   -3.429039121e-01    1.575224251e-01
     2493500000   -3.513614833e-01    1.509656161e-01
     2494250000   -3.593639433e-01    1.434111297e-01
     2495000000   -3.673143983e-01    1.343815625e-01
     2495750000   -3.761098683e-01    1.242693588e-01
     2496500000   -3.833775222e-01    1.147392690e-01
     2497250000   -3.901464343e-01    1.051024869e-01
     2498000000   -3.976368904e-01    9.355421364e-02
     2498750000   -4.062564671e-01    7.789234817e-02
     2499500000   -4.115970433e-01    6.642398983e-02
     2500250000   -4.161856472e-01    5.207528174e-02
     2501000000   -4.211544693e-01    3.863134608e-02
     2501750000   -4.269654155e-01    2.032863908e-02
     2502500000   -4.299082458e-01    5.628018174e-03
     2503250000   -4.311564863e-01   -1.023871638e-02
     2504000000   -4.319018722e-01   -2.183353528e-02
     2504750000   -4.337023199e-01   -4.607728124e-02
     2505500000   -4.317964315e-01   -5.635412410e-02
     2506250000   -4.320184588e-01   -7.628545910e-02
     2507000000   -4.282916188e-01   -9.612208605e-02
     2507750000   -4.258813560e-01   -1.137895510e-01
     2508500000   -4.217650592e-01   -1.275441796e-01
     2509250000   -4.153309464e-01   -1.467242241e-01
     2510000000   -4.098730683e-01   -1.589511633e-01
     2510750000   -4.026456177e-01   -1.725692302e-01
     2511500000   -3.930189610e-01   -1.970752031e-01
     2512250000   -3.840931654e-01   -2.093272358e-01
     2513000000   -3.754062653e-01   -2.196832746e-01
     2513750000   -3.637441099e-01   -2.361047417e-01
     2514500000   -3.521395326e-01   -2.476828545e-01
     2515250000   -3.393360078e-01   -2.611158788e-01
     2516000000   -3.232946098e-01   -2.768612206e-01
     2516750000   -3.123386204e-01   -2.841286063e-01
     2517500000   -2.998610735e-01   -2.918758094e-01
     2518250000   -2.833194137e-01   -3.034008145e-01
     2519000000   -2.710731030e-01   -3.072115481e-01
     2519750000   -2.553523183e-01   -3.160279989e-01
     2520500000   -2.408132106e-01   -3.221503496e-01
     2521250000   -2.274875194e-01   -3.255417347e-01
     2522000000   -2.108815759e-01   -3.294483423e-01
     2522750000   -1.970444024e-01   -3.316128850e-01
     2523500000   -1.815164834e-01   -3.333493173e-01
     2524250000   -1.659787595e-01   -3.342599869e-01
     2525000000   -1.552112699e-01   -3.328918815e-01
     2525750000   -1.401418597e-01   -3.322263062e-01
     2526500000   -1.265548915e-01   -3.299927711e-01
     2527250000   -1.137628034e-01   -3.278619647e-01
     2528000000   -1.034319624e-01   -3.227850497e-01
     2528750000   -8.994664997e-02   -3.190938234e-01
     2529500000   -8.100360632e-02   -3.127521276e-01
     2530250000   -7.182516903e-02   -3.071717620e-01
     2531000000   -6.107292324e-02   -3.010511100e-01
     2531750000   -5.014936626e-02   -2.950765491e-01
     2532500000   -4.601880163e-02   -2.884125412e-01
     2533250000   -3.745606169e-02   -2.818353772e-01
     2534000000   -3.131308034e-02   -2.742168903e-01
     2534750000   -2.635113522e-02   -2.672978342e-01
     2535500000   -1.990881190e-02   -2.597869635e-01
     2536250000   -1.861862279e-02   -2.539045513e-01
     2537000000   -1.381842420e-02   -2.477702945e-01
     2537750000   -1.091570593e-02   -2.411700636e-01
     2538500000   -9.884099476e-03   -2.355165631e-01
     2539250000   -8.791938424e-03   -2.301401496e-01
     2540000000   -7.635241374e-03   -2.248500139e-01
     2540750000   -7.646918762e-03   -2.206137180e-01
     2541500000   -7.525141817e-03   -2.162988037e-01
     2542250000   -7.900887169e-03   -2.135055661e-01
     2543000000   -8.615671657e-03   -2.114864737e-01
     2543750000   -1.006085984e-02   -2.089811563e-01
     2544500000   -1.122744288e-02   -2.075386643e-01
     2545250000   -1.224497240e-02   -2.069070935e-01
     2546000000   -1.353534404e-02   -2.072946578e-01
     2546750000   -1.459759288e-02   -2.083542496e-01
     2547500000   -1.549958531e-02   -2.093575001e-01
     2548250000   -1.611003466e-02   -2.117539644e-01
     2549000000   -1.733249240e-02   -2.144564688e-01
     2549750000   -1.676957123e-02   -2.179534286e-01
     2550500000   -1.712417789e-02   -2.215015441e-01
     2551250000   -1.657266542e-02   -2.257243693e-01
     2552000000   -1.599034667e-02   -2.304169387e-01
     2552750000   -1.382201910e-02   -2.354729474e-01
     2553500000   -1.123979036e-02   -2.409723699e-01
     2554250000   -7.621223107e-03   -2.463043183e-01
     2555000000   -3.987328149e-03   -2.527930439e-01
     2555750000    1.824915875e-03   -2.583709657e-01
     2556500000    6.464055739e-03   -2.638664842e-01
     2557250000    1.245311555e-02   -2.710728049e-01
     2558000000    1.980132610e-02   -2.765109837e-01
     2558750000    2.811130881e-02   -2.823852897e-01
     2559500000    3.735480458e-02   -2.876963615e-01
     2560250000    4.514203593e-02   -2.924569547e-01
     2561000000    5.780598521e-02   -2.982251346e-01
     2561750000    6.790228933e-02   -3.009684980e-01
     2562500000    7.921653241e-02   -3.050906360e-01
     2563250000    9.159263223e-02   -3.076659143e-01
     2564000000    1.007959694e-01   -3.093728423e-01
     2564750000    1.186741218e-01   -3.118365109e-01
     2565500000    1.304326355e-01   -3.110014796e-01
     2566250000    1.419290155e-01   -3.102515042e-01
     2567000000    1.581570059e-01   -3.088887334e-01
     2567750000    1.737806350e-01   -3.066464961e-01
     2568500000    1.879979819e-01   -3.033507168e-01
     2569250000    1.977663487e-01   -2.984965146e-01
     2570000000    2.185129523e-01   -2.924655378e-01
     2570750000    2.309766561e-01   -2.855563760e-01
     2571500000    2.450235188e-01   -2.793700397e-01
     2572250000    2.587141991e-01   -2.705654204e-01
     2573000000    2.732346356e-01   -2.602893412e-01
     2573750000    2.848198116e-01   -2.512251437e-01
     2574500000    2.999867201e-01   -2.382455319e-01
     2575250000    3.111002743e-01   -2.274793237e-01
     2576000000    3.239102364e-01   -2.147671133e-01
     2576750000    3.350421786e-01   -1.992087960e-01
     2577500000    3.424930871e-01   -1.863300502e-01
     2578250000    3.541173041e-01   -1.697734147e-01
     2579000000    3.622198403e-01   -1.556769907e-01
     2579750000    3.679717481e-01   -1.414267123e-01
     2580500000    3.756369650e-01   -1.246967390e-01
     2581250000    3.809883893e-01   -1.072516814e-01
     2582000000    3.844146729e-01   -9.264245629e-02
     2582750000    3.897332847e-01   -7.338856161e-02
     2583500000    3.920047879e-01   -5.722603574e-02
     2584250000    3.943381310e-01   -3.715248778e-02
     2585000000    3.940889537e-01   -2.555945143e-02
     2585750000    3.947143555e-01   -6.455975119e-03
     2586500000    3.936870694e-01    9.347751737e-03
     2587250000    3.912655711e-01    2.550667338e-02
     2588000000    3.865335286e-01    3.753519058e-02
     2588750000    3.828576505e-01    5.567483231e-02
     2589500000    3.790286183e-01    6.918589026e-02
     2590250000    3.734810650e-01    8.373989165e-02
     2591000000    3.694390357e-01    8.978840709e-02
     2591750000    3.593315184e-01    1.096684709e-01
     2592500000    3.533441424e-01    1.145134568e-01
     2593250000    3.459035456e-01    1.266878992e-01
     2594000000    3.378066719e-01    1.352494955e-01
     2594750000    3.264348805e-01    1.473871917e-01
     2595500000    3.198310137e-01    1.519737691e-01
     2596250000    3.149871230e-01    1.545830071e-01
     2597000000    3.028718233e-01    1.650596857e-01
     2597750000    2.923817635e-01    1.716264039e-01
     2598500000    2.841835916e-01    1.743119061e-01
     2599250000    2.757873535e-01    1.776259840e-01
     2600000000    2.682506740e-01    1.791474521e-01
