! NanoVNA-App
! Date: 2026-05-22 19:57:15
! Start: 4.8GHz Stop: 6GHz Points: 401
! S-Parameter data: F S11
# Hz S RI R 50
!     Frequency           S11_Real           S11_Imag
     4800000000    3.627098203e-01   -1.802589595e-01
     4803000000    3.920513391e-01   -9.322975576e-02
     4806000000    3.983564377e-01   -4.217423033e-03
     4809000000    3.841627240e-01    8.227694035e-02
     4812000000    3.494472802e-01    1.613767445e-01
     4815000000    2.988055944e-01    2.246926874e-01
     4818000000    2.397216856e-01    2.736238837e-01
     4821000000    1.758343726e-01    3.032208383e-01
     4824000000    1.133725271e-01    3.130629361e-01
     4827000000    5.007478967e-02    3.166178167e-01
     4830000000    3.737481602e-04    3.020555377e-01
     4833000000   -4.230426624e-02    2.821854949e-01
     4836000000   -7.466635853e-02    2.604661882e-01
     4839000000   -1.021631658e-01    2.375149131e-01
     4842000000   -1.269166470e-01    2.169160992e-01
     4845000000   -1.405145824e-01    2.046435028e-01
     4848000000   -1.652888209e-01    1.891148537e-01
     4851000000   -1.919786334e-01    1.673411429e-01
     4854000000   -2.200102508e-01    1.500269026e-01
     4857000000   -2.497913986e-01    1.186491475e-01
     4860000000   -2.790179849e-01    8.438087255e-02
     4863000000   -3.067466319e-01    3.876337036e-02
     4866000000   -3.197292686e-01   -2.031019703e-02
     4869000000   -3.287377656e-01   -8.516305685e-02
     4872000000   -3.199666142e-01   -1.539545208e-01
     4875000000   -2.854343951e-01   -2.260203511e-01
     4878000000   -2.370325327e-01   -2.918596566e-01
     4881000000   -1.755312532e-01   -3.459445536e-01
     4884000000   -9.535221010e-02   -3.832610846e-01
     4887000000   -5.467939191e-03   -4.030310512e-01
     4890000000    8.713107556e-02   -3.975458443e-01
     4893000000    1.750422567e-01   -3.692880571e-01
     4896000000    2.555052936e-01   -3.195954859e-01
     4899000000    3.195042610e-01   -2.532705665e-01
     4902000000    3.669540286e-01   -1.723610610e-01
     4905000000    3.887231648e-01   -8.586991578e-02
     4908000000    3.906462491e-01    4.720713478e-04
     4911000000    3.736057580e-01    8.180919290e-02
     4914000000    3.340996504e-01    1.483986825e-01
     4917000000    2.896896303e-01    2.066042870e-01
     4920000000    2.326899916e-01    2.348625064e-01
     4923000000    1.792598069e-01    2.620492578e-01
     4926000000    1.209492162e-01    2.800318599e-01
     4929000000    8.019481599e-02    2.723326683e-01
     4932000000    2.820390090e-02    2.741209865e-01
     4935000000    7.428584155e-03    2.591353655e-01
     4938000000   -2.807448618e-02    2.531037033e-01
     4941000000   -5.550625920e-02    2.456109375e-01
     4944000000   -8.939248323e-02    2.343788445e-01
     4947000000   -1.116110459e-01    2.326795757e-01
     4950000000   -1.506181210e-01    2.243667245e-01
     4953000000   -1.885001808e-01    2.087182999e-01
     4956000000   -2.278635949e-01    1.866610199e-01
     4959000000   -2.695015371e-01    1.464263350e-01
     4962000000   -3.078405261e-01    1.046202928e-01
     4965000000   -3.359052539e-01    4.322626814e-02
     4968000000   -3.537339270e-01   -2.578797378e-02
     4971000000   -3.527775705e-01   -1.032069623e-01
     4974000000   -3.325292766e-01   -1.810562909e-01
     4977000000   -2.938756645e-01   -2.593681216e-01
     4980000000   -2.334552407e-01   -3.243761659e-01
     4983000000   -1.557468325e-01   -3.744558394e-01
     4986000000   -6.739864498e-02   -4.049063325e-01
     4989000000    2.803407051e-02   -4.121526182e-01
     4992000000    1.197386011e-01   -3.948894143e-01
     4995000000    2.043205649e-01   -3.563407958e-01
     4998000000    2.788673639e-01   -2.976717055e-01
     5001000000    3.363352120e-01   -2.223432660e-01
     5004000000    3.620660901e-01   -1.410520375e-01
     5007000000    3.766361773e-01   -6.156221405e-02
     5010000000    3.653332591e-01    1.571702771e-02
     5013000000    3.402575552e-01    8.730828762e-02
     5016000000    3.054494560e-01    1.436137855e-01
     5019000000    2.604089677e-01    1.822708994e-01
     5022000000    2.139479667e-01    2.112261653e-01
     5025000000    1.707403213e-01    2.288320810e-01
     5028000000    1.317617446e-01    2.375705242e-01
     5031000000    1.006737873e-01    2.394527048e-01
     5034000000    6.167272106e-02    2.453020215e-01
     5037000000    4.523795098e-02    2.463900596e-01
     5040000000    1.236690767e-02    2.513273954e-01
     5043000000   -9.194792248e-03    2.593207955e-01
     5046000000   -4.599894956e-02    2.636156976e-01
     5049000000   -8.506402373e-02    2.693890929e-01
     5052000000   -1.320476979e-01    2.693893611e-01
     5055000000   -1.833399683e-01    2.559109926e-01
     5058000000   -2.396814525e-01    2.296600044e-01
     5061000000   -2.900332510e-01    1.884494871e-01
     5064000000   -3.367486000e-01    1.322248727e-01
     5067000000   -3.725734353e-01    6.214309856e-02
     5070000000   -3.890718520e-01   -2.015104331e-02
     5073000000   -3.853558004e-01   -1.086702570e-01
     5076000000   -3.584948182e-01   -1.968308836e-01
     5079000000   -3.090797663e-01   -2.786417902e-01
     5082000000   -2.406787425e-01   -3.459320664e-01
     5085000000   -1.554919928e-01   -3.962433636e-01
     5088000000   -6.067700684e-02   -4.213401079e-01
     5091000000    3.796558827e-02   -4.245077074e-01
     5094000000    1.301817298e-01   -3.982701600e-01
     5097000000    2.174049616e-01   -3.557293713e-01
     5100000000    2.740587294e-01   -2.916441262e-01
     5103000000    3.285839558e-01   -2.190388292e-01
     5106000000    3.535898626e-01   -1.446275562e-01
     5109000000    3.551976085e-01   -7.136535645e-02
     5112000000    3.436623514e-01   -4.855316598e-03
     5115000000    3.281076849e-01    6.704435498e-02
     5118000000    2.956027687e-01    1.088844761e-01
     5121000000    2.608332038e-01    1.415798515e-01
     5124000000    2.283255011e-01    1.644249260e-01
     5127000000    1.896375269e-01    1.919944733e-01
     5130000000    1.669339240e-01    2.001653612e-01
     5133000000    1.344509125e-01    2.178066671e-01
     5136000000    1.168136597e-01    2.280693948e-01
     5139000000    9.460728616e-02    2.467481047e-01
     5142000000    6.141525134e-02    2.611596286e-01
     5145000000    3.110577911e-02    2.815482914e-01
     5148000000   -1.145804301e-02    2.956154644e-01
     5151000000   -6.307894737e-02    3.074315488e-01
     5154000000   -1.219461560e-01    3.058239818e-01
     5157000000   -1.858884245e-01    2.914024591e-01
     5160000000   -2.499674708e-01    2.618704140e-01
     5163000000   -3.121953607e-01    2.135083675e-01
     5166000000   -3.633487225e-01    1.478540301e-01
     5169000000   -3.962486982e-01    6.674934179e-02
     5172000000   -4.126344621e-01   -2.495155856e-02
     5175000000   -4.032653570e-01   -1.186431423e-01
     5178000000   -3.694941401e-01   -2.100530267e-01
     5181000000   -3.152366281e-01   -2.926028669e-01
     5184000000   -2.400028408e-01   -3.500683308e-01
     5187000000   -1.505662948e-01   -4.055834413e-01
     5190000000   -5.878353864e-02   -4.119247496e-01
     5193000000    4.161687568e-02   -4.204066992e-01
     5196000000    1.294990778e-01   -3.944230676e-01
     5199000000    2.032141536e-01   -3.451922536e-01
     5202000000    2.658300698e-01   -2.865034938e-01
     5205000000    3.127750456e-01   -2.174195349e-01
     5208000000    3.244332373e-01   -1.502902210e-01
     5211000000    3.336433470e-01   -8.084845543e-02
     5214000000    3.249571025e-01   -2.394337766e-02
     5217000000    3.067775071e-01    3.168057650e-02
     5220000000    2.809856236e-01    7.345073670e-02
     5223000000    2.540738583e-01    1.067999229e-01
     5226000000    2.320661992e-01    1.287837476e-01
     5229000000    2.074925005e-01    1.531098634e-01
     5232000000    1.895459890e-01    1.692262441e-01
     5235000000    1.691551059e-01    1.881187856e-01
     5238000000    1.499402821e-01    2.110785842e-01
     5241000000    1.318923533e-01    2.377770394e-01
     5244000000    1.001170874e-01    2.647907436e-01
     5247000000    6.195275486e-02    2.902963459e-01
     5250000000    1.509070210e-02    3.114533424e-01
     5253000000   -4.199970141e-02    3.237942457e-01
     5256000000   -1.084344760e-01    3.247726262e-01
     5259000000   -1.803067327e-01    3.077518344e-01
     5262000000   -2.528252602e-01    2.756565511e-01
     5265000000   -3.128342330e-01    2.199372053e-01
     5268000000   -3.629765511e-01    1.521546394e-01
     5271000000   -3.967336416e-01    6.671913713e-02
     5274000000   -4.092686176e-01   -2.565853857e-02
     5277000000   -3.988324702e-01   -1.193191782e-01
     5280000000   -3.644229770e-01   -2.079911381e-01
     5283000000   -3.052638173e-01   -2.754251361e-01
     5286000000   -2.326078266e-01   -3.489355147e-01
     5289000000   -1.511022896e-01   -3.840342760e-01
     5292000000   -5.937496200e-02   -4.030566514e-01
     5295000000    2.872753888e-02   -3.973019123e-01
     5298000000    1.146560907e-01   -3.730973601e-01
     5301000000    1.739495844e-01   -3.337429464e-01
     5304000000    2.300540656e-01   -2.793826461e-01
     5307000000    2.653973401e-01   -2.225230932e-01
     5310000000    2.923491001e-01   -1.563987136e-01
     5313000000    2.985607684e-01   -9.936721623e-02
     5316000000    2.954156101e-01   -4.009500518e-02
     5319000000    2.853125632e-01   -4.341495223e-03
     5322000000    2.650020421e-01    3.528998792e-02
     5325000000    2.474988103e-01    6.410314143e-02
     5328000000    2.321427166e-01    8.738849312e-02
     5331000000    2.251568735e-01    1.097240299e-01
     5334000000    2.142392844e-01    1.352246851e-01
     5337000000    1.991336793e-01    1.611434519e-01
     5340000000    1.845376790e-01    1.928073019e-01
     5343000000    1.625714600e-01    2.280434668e-01
     5346000000    1.332727522e-01    2.629040182e-01
     5349000000    8.915184438e-02    2.975728214e-01
     5352000000    3.876290098e-02    3.260581791e-01
     5355000000   -2.929754369e-02    3.355655968e-01
     5358000000   -1.006750688e-01    3.416394293e-01
     5361000000   -1.791057140e-01    3.282751143e-01
     5364000000   -2.517002225e-01    2.929771245e-01
     5367000000   -3.234086335e-01    2.381304204e-01
     5370000000   -3.584541380e-01    1.581869870e-01
     5373000000   -3.996357918e-01    7.832274586e-02
     5376000000   -4.087283313e-01   -1.392368507e-02
     5379000000   -4.029068947e-01   -1.171527132e-01
     5382000000   -3.761644959e-01   -2.111244202e-01
     5385000000   -3.212662637e-01   -2.581389546e-01
     5388000000   -2.423281819e-01   -3.444361687e-01
     5391000000   -1.607387066e-01   -3.799343407e-01
     5394000000   -8.352098614e-02   -3.897945881e-01
     5397000000    1.954750624e-03   -3.852998912e-01
     5400000000    7.561955601e-02   -3.669988215e-01
     5403000000    1.522092074e-01   -3.282247782e-01
     5406000000    1.905797720e-01   -2.881698906e-01
     5409000000    2.323993295e-01   -2.308296710e-01
     5412000000    2.529461384e-01   -1.876802593e-01
     5415000000    2.684520781e-01   -1.267879754e-01
     5418000000    2.682069540e-01   -8.361455798e-02
     5421000000    2.620988488e-01   -4.395535961e-02
     5424000000    2.655408084e-01   -1.856336743e-02
     5427000000    2.474215627e-01    1.625729725e-02
     5430000000    2.500781417e-01    4.428456724e-02
     5433000000    2.482670397e-01    7.536902279e-02
     5436000000    2.457116395e-01    1.126724631e-01
     5439000000    2.350367457e-01    1.454724669e-01
     5442000000    2.161517441e-01    1.936458945e-01
     5445000000    1.950686425e-01    2.352695912e-01
     5448000000    1.575686187e-01    2.775384784e-01
     5451000000    1.046984196e-01    3.135225475e-01
     5454000000    4.276999459e-02    3.492489457e-01
     5457000000   -3.071871027e-02    3.586343229e-01
     5460000000   -1.100804359e-01    3.586196005e-01
     5463000000   -1.957196593e-01    3.384805024e-01
     5466000000   -2.641026974e-01    2.941958904e-01
     5469000000   -3.277488947e-01    2.302304357e-01
     5472000000   -3.920601904e-01    1.464387774e-01
     5475000000   -4.062244892e-01    6.559564173e-02
     5478000000   -4.143502414e-01   -3.167389333e-02
     5481000000   -3.942530751e-01   -1.277538985e-01
     5484000000   -3.563715219e-01   -2.022353709e-01
     5487000000   -2.893467247e-01   -2.911409736e-01
     5490000000   -2.135301828e-01   -3.380010724e-01
     5493000000   -1.377434582e-01   -3.585437536e-01
     5496000000   -6.527321786e-02   -3.645579815e-01
     5499000000    2.015462518e-02   -3.550035059e-01
     5502000000    7.279887795e-02   -3.315634131e-01
     5505000000    1.328931153e-01   -2.880985439e-01
     5508000000    1.768571734e-01   -2.407242656e-01
     5511000000    1.968252659e-01   -2.035920471e-01
     5514000000    2.108872682e-01   -1.571175456e-01
     5517000000    2.147829086e-01   -1.237745062e-01
     5520000000    2.183221877e-01   -9.267006069e-02
     5523000000    2.120432109e-01   -6.686234474e-02
     5526000000    2.235777676e-01   -4.649978504e-02
     5529000000    2.277740687e-01   -2.267282829e-02
     5532000000    2.359578758e-01    2.709981985e-03
     5535000000    2.438094765e-01    3.152909502e-02
     5538000000    2.505101264e-01    6.611149013e-02
     5541000000    2.563847303e-01    1.100393087e-01
     5544000000    2.466557175e-01    1.609295756e-01
     5547000000    2.270217538e-01    2.198688686e-01
     5550000000    1.844436526e-01    2.609159350e-01
     5553000000    1.335213482e-01    3.314196765e-01
     5556000000    6.452922523e-02    3.577156365e-01
     5559000000   -1.220965851e-02    3.751100004e-01
     5562000000   -1.051376835e-01    3.776927888e-01
     5565000000   -1.926659793e-01    3.528672159e-01
     5568000000   -2.658072710e-01    3.056885600e-01
     5571000000   -3.449146450e-01    2.342687547e-01
     5574000000   -3.931445181e-01    1.522635221e-01
     5577000000   -4.193193018e-01    5.543031543e-02
     5580000000   -4.170564413e-01   -3.886479884e-02
     5583000000   -3.945904970e-01   -1.209025830e-01
     5586000000   -3.449648619e-01   -2.128627598e-01
     5589000000   -2.838751674e-01   -2.716551423e-01
     5592000000   -2.073348016e-01   -3.189655244e-01
     5595000000   -1.320810318e-01   -3.398068547e-01
     5598000000   -6.522007287e-02   -3.451395929e-01
     5601000000    1.149697229e-02   -3.285693526e-01
     5604000000    6.791892648e-02   -2.982023656e-01
     5607000000    1.066725254e-01   -2.720790207e-01
     5610000000    1.390521079e-01   -2.252414078e-01
     5613000000    1.595681459e-01   -1.989693344e-01
     5616000000    1.731240749e-01   -1.691675931e-01
     5619000000    1.777095646e-01   -1.398200095e-01
     5622000000    1.824435592e-01   -1.203702912e-01
     5625000000    1.928396672e-01   -1.038825065e-01
     5628000000    2.075947225e-01   -8.334025741e-02
     5631000000    2.252874821e-01   -7.345797867e-02
     5634000000    2.407393754e-01   -3.966748342e-02
     5637000000    2.632192075e-01   -3.563513048e-03
     5640000000    2.820595205e-01    4.059727862e-02
     5643000000    2.826150656e-01    9.223097563e-02
     5646000000    2.788782120e-01    1.600100398e-01
     5649000000    2.532486022e-01    2.238260359e-01
     5652000000    2.130522430e-01    2.873193622e-01
     5655000000    1.539123356e-01    3.338762820e-01
     5658000000    5.894228816e-02    3.875894845e-01
     5661000000    1.096231514e-03    3.903301954e-01
     5664000000   -1.350604445e-01    3.904233575e-01
     5667000000   -1.785894483e-01    3.656169772e-01
     5670000000   -2.960765660e-01    2.993055880e-01
     5673000000   -3.458235562e-01    2.332024425e-01
     5676000000   -3.930670023e-01    1.386939585e-01
     5679000000   -4.070041776e-01    5.212851614e-02
     5682000000   -3.975795209e-01   -5.029175431e-02
     5685000000   -3.702559173e-01   -1.263623387e-01
     5688000000   -3.126482666e-01   -2.037298381e-01
     5691000000   -2.601302266e-01   -2.510493398e-01
     5694000000   -1.849569529e-01   -2.879925668e-01
     5697000000   -1.067513824e-01   -2.953166962e-01
     5700000000   -6.200096756e-02   -3.015868366e-01
     5703000000    3.922760952e-03   -2.702315748e-01
     5706000000    4.201382026e-02   -2.521084845e-01
     5709000000    7.226481289e-02   -2.331476808e-01
     5712000000    8.327092975e-02   -1.936477125e-01
     5715000000    9.732928872e-02   -1.798809618e-01
     5718000000    1.081496030e-01   -1.654772311e-01
     5721000000    1.202445924e-01   -1.550483257e-01
     5724000000    1.323461086e-01   -1.530897617e-01
     5727000000    1.550504416e-01   -1.489176601e-01
     5730000000    1.844274104e-01   -1.378582269e-01
     5733000000    2.185655087e-01   -1.197007671e-01
     5736000000    2.527610660e-01   -8.746703714e-02
     5739000000    2.926614285e-01   -4.216142371e-02
     5742000000    3.104748428e-01    1.688684151e-02
     5745000000    3.213141859e-01    8.595804125e-02
     5748000000    3.126358986e-01    1.609738320e-01
     5751000000    2.817569971e-01    2.314729691e-01
     5754000000    2.116182894e-01    3.315129280e-01
     5757000000    1.571190953e-01    3.630758822e-01
     5760000000    6.334203482e-02    4.026789069e-01
     5763000000   -4.340258241e-02    4.151004553e-01
     5766000000   -1.522658467e-01    3.917161226e-01
     5769000000   -2.299999148e-01    3.568716347e-01
     5772000000   -3.052074909e-01    2.913067639e-01
     5775000000   -3.701321185e-01    1.863383204e-01
     5778000000   -3.977378607e-01    1.067174822e-01
     5781000000   -3.903316855e-01   -1.370737888e-02
     5784000000   -3.800774515e-01   -7.787401229e-02
     5787000000   -3.216468096e-01   -1.651176810e-01
     5790000000   -2.682277262e-01   -2.191305608e-01
     5793000000   -2.048156857e-01   -2.561599910e-01
     5796000000   -1.375342757e-01   -2.759851515e-01
     5799000000   -6.969165057e-02   -2.660751939e-01
     5802000000   -2.045778185e-02   -2.509904504e-01
     5805000000    2.148138545e-02   -2.338558584e-01
     5808000000    4.133705050e-02   -1.945191473e-01
     5811000000    5.302021652e-02   -1.695607454e-01
     5814000000    5.829313397e-02   -1.505064666e-01
     5817000000    5.454311892e-02   -1.428554207e-01
     5820000000    5.351773277e-02   -1.461318433e-01
     5823000000    6.288804859e-02   -1.422293633e-01
     5826000000    8.278899640e-02   -1.617559344e-01
     5829000000    1.121734530e-01   -1.713385433e-01
     5832000000    1.571869701e-01   -1.704300940e-01
     5835000000    1.996656954e-01   -1.540203243e-01
     5838000000    2.425978482e-01   -1.306910515e-01
     5841000000    2.936934233e-01   -7.493887842e-02
     5844000000    3.289762139e-01   -3.699383233e-03
     5847000000    3.410789073e-01    6.722982228e-02
     5850000000    3.322406113e-01    1.488807052e-01
     5853000000    2.948714793e-01    2.409276366e-01
     5856000000    2.378770411e-01    3.095281720e-01
     5859000000    1.629234403e-01    3.675943017e-01
     5862000000    6.299377233e-02    4.032254815e-01
     5865000000   -2.136965282e-02    4.135413170e-01
     5868000000   -1.273888946e-01    3.960310221e-01
     5871000000   -2.290695757e-01    3.326517642e-01
     5874000000   -2.906742096e-01    2.878094614e-01
     5877000000   -3.469842970e-01    1.986873448e-01
     5880000000   -3.724859059e-01    1.105785668e-01
     5883000000   -3.704688251e-01    1.404568274e-02
     5886000000   -3.439448476e-01   -7.320369035e-02
     5889000000   -3.133379817e-01   -1.398818046e-01
     5892000000   -2.555366457e-01   -1.941360384e-01
     5895000000   -2.054392695e-01   -2.331856787e-01
     5898000000   -1.335298121e-01   -2.368545979e-01
     5901000000   -8.063641191e-02   -2.399953306e-01
     5904000000   -3.887527809e-02   -2.217839211e-01
     5907000000   -3.089991398e-03   -2.069939822e-01
     5910000000    1.304860786e-02   -1.878668964e-01
     5913000000    3.187492117e-02   -1.711343825e-01
     5916000000    3.381453082e-02   -1.649769843e-01
     5919000000    4.393193126e-02   -1.714121103e-01
     5922000000    5.563613400e-02   -1.634179950e-01
     5925000000    7.640077919e-02   -1.755684912e-01
     5928000000    1.097979024e-01   -1.838313639e-01
     5931000000    1.461498886e-01   -1.768581867e-01
     5934000000    1.893338710e-01   -1.617395133e-01
     5937000000    2.238095403e-01   -1.414174289e-01
     5940000000    2.801873982e-01   -7.916200161e-02
     5943000000    3.057464361e-01   -3.564483300e-02
     5946000000    3.202198148e-01    5.470957235e-02
     5949000000    3.201831281e-01    1.098579988e-01
     5952000000    2.888725400e-01    1.978865862e-01
     5955000000    2.288625687e-01    2.726582587e-01
     5958000000    1.730130017e-01    3.241971135e-01
     5961000000    8.621556312e-02    3.597066402e-01
     5964000000   -8.399726823e-03    3.664438426e-01
     5967000000   -9.569992870e-02    3.544040322e-01
     5970000000   -1.798951030e-01    3.031272292e-01
     5973000000   -2.374536246e-01    2.569029629e-01
     5976000000   -2.903735042e-01    1.953883022e-01
     5979000000   -3.058510721e-01    1.044793651e-01
     5982000000   -3.129368722e-01    3.319040686e-02
     5985000000   -2.823757529e-01   -3.991823271e-02
     5988000000   -2.589367330e-01   -9.505111724e-02
     5991000000   -2.099554539e-01   -1.331021935e-01
     5994000000   -1.600182801e-01   -1.524933577e-01
     5997000000   -1.148594320e-01   -1.587631404e-01
     6000000000   -8.180711418e-02   -1.488109678e-01
