! NanoVNA-App
! Date: 2026-05-15 12:08:04
! Start: 2.3GHz Stop: 2.6GHz Points: 401
! S-Parameter data: F S11
# Hz S RI R 50
!     Frequency           S11_Real           S11_Imag
     2300000000   -5.154782534e-02    9.680406749e-02
     2300750000   -5.926871672e-02    9.819503874e-02
     2301500000   -6.459290534e-02    9.605570138e-02
     2302250000   -6.794290990e-02    9.379553050e-02
     2303000000   -7.651063055e-02    9.183253348e-02
     2303750000   -7.860264927e-02    8.801306784e-02
     2304500000   -8.216546476e-02    8.325203508e-02
     2305250000   -8.581766486e-02    7.786712795e-02
     2306000000   -8.631437272e-02    7.133088261e-02
     2306750000   -8.836965263e-02    6.507834047e-02
     2307500000   -8.888375759e-02    5.717234686e-02
     2308250000   -8.660561591e-02    4.904941842e-02
     2309000000   -8.426444978e-02    4.067602009e-02
     2309750000   -8.085408807e-02    3.158483282e-02
     2310500000   -7.783168554e-02    2.159503847e-02
     2311250000   -7.201293856e-02    1.222325116e-02
     2312000000   -6.594380736e-02    1.767238136e-03
     2312750000   -5.880146474e-02   -7.720564492e-03
     2313500000   -5.203422159e-02   -1.832205430e-02
     2314250000   -4.335591570e-02   -2.813503146e-02
     2315000000   -3.442993760e-02   -3.871021420e-02
     2315750000   -2.512338758e-02   -4.719928652e-02
     2316500000   -1.522090100e-02   -5.654619262e-02
     2317250000   -5.016582552e-03   -6.545563042e-02
     2318000000    6.092492957e-03   -7.478061318e-02
     2318750000    1.706373692e-02   -8.059836179e-02
     2319500000    2.805685066e-02   -8.803854883e-02
     2320250000    4.012293741e-02   -9.493996948e-02
     2321000000    5.125338957e-02   -9.935379028e-02
     2321750000    6.334345788e-02   -1.037412882e-01
     2322500000    7.456534356e-02   -1.065441519e-01
     2323250000    8.644472063e-02   -1.090273187e-01
     2324000000    9.839279950e-02   -1.123094186e-01
     2324750000    1.109815538e-01   -1.136960387e-01
     2325500000    1.207413450e-01   -1.132730246e-01
     2326250000    1.302283406e-01   -1.139706001e-01
     2327000000    1.395880133e-01   -1.138704196e-01
     2327750000    1.501813978e-01   -1.126341447e-01
     2328500000    1.532683671e-01   -1.125861704e-01
     2329250000    1.619337946e-01   -1.098792925e-01
     2330000000    1.660625041e-01   -1.068037078e-01
     2330750000    1.667051017e-01   -1.047316268e-01
     2331500000    1.656121165e-01   -1.006921157e-01
     2332250000    1.651220471e-01   -9.440935403e-02
     2333000000    1.636554748e-01   -8.622450382e-02
     2333750000    1.557419747e-01   -8.052553236e-02
     2334500000    1.516040713e-01   -6.928125769e-02
     2335250000    1.444751769e-01   -5.841674283e-02
     2336000000    1.355693340e-01   -4.583119974e-02
     2336750000    1.280978620e-01   -3.237338737e-02
     2337500000    1.204077229e-01   -1.705171354e-02
     2338250000    1.128106266e-01   -2.135529183e-03
     2339000000    1.042417586e-01    1.264553331e-02
     2339750000    9.627117217e-02    2.759606577e-02
     2340500000    8.982264251e-02    4.345995560e-02
     2341250000    8.238622546e-02    5.770027265e-02
     2342000000    7.551970333e-02    7.077467442e-02
     2342750000    6.894049793e-02    8.448522538e-02
     2343500000    6.136509776e-02    9.851645678e-02
     2344250000    5.502616242e-02    1.080487296e-01
     2345000000    4.870480672e-02    1.171330884e-01
     2345750000    4.246469587e-02    1.262421310e-01
     2346500000    3.581291810e-02    1.353955567e-01
     2347250000    3.157382458e-02    1.392145008e-01
     2348000000    2.712653391e-02    1.430356950e-01
     2348750000    2.018432505e-02    1.482194364e-01
     2349500000    1.659148000e-02    1.482871771e-01
     2350250000    1.193519030e-02    1.475721449e-01
     2351000000    7.133584004e-03    1.464342028e-01
     2351750000    4.361047409e-03    1.424378455e-01
     2352500000   -1.532419701e-03    1.393134445e-01
     2353250000   -2.641864587e-03    1.328523457e-01
     2354000000   -6.907740142e-03    1.275679171e-01
     2354750000   -1.189047098e-02    1.207723767e-01
     2355500000   -1.404027827e-02    1.127193421e-01
     2356250000   -1.433206163e-02    1.045223102e-01
     2357000000   -1.500043273e-02    9.539565444e-02
     2357750000   -1.719830930e-02    8.562675864e-02
     2358500000   -1.424962934e-02    7.550348341e-02
     2359250000   -1.531252917e-02    6.465914100e-02
     2360000000   -1.281516999e-02    5.400996655e-02
     2360750000   -1.061393600e-02    4.195124656e-02
     2361500000   -8.136940189e-03    2.983974665e-02
     2362250000   -4.792007618e-03    1.731740497e-02
     2363000000    2.259126632e-03    5.832566414e-03
     2363750000    5.346447229e-03   -8.289088495e-03
     2364500000    1.201641560e-02   -2.057078108e-02
     2365250000    1.870994642e-02   -3.278911486e-02
     2366000000    2.527433075e-02   -4.577657580e-02
     2366750000    3.236423433e-02   -5.745883659e-02
     2367500000    4.035184905e-02   -6.886047125e-02
     2368250000    4.839736596e-02   -8.039747924e-02
     2369000000    5.661557615e-02   -9.016378969e-02
     2369750000    6.570772827e-02   -1.002774760e-01
     2370500000    7.461079210e-02   -1.086588129e-01
     2371250000    8.371757716e-02   -1.167874485e-01
     2372000000    9.260278940e-02   -1.236926094e-01
     2372750000    9.913998842e-02   -1.289149821e-01
     2373500000    1.088374108e-01   -1.341097057e-01
     2374250000    1.171165630e-01   -1.385957599e-01
     2375000000    1.225663722e-01   -1.412492394e-01
     2375750000    1.299171448e-01   -1.428072900e-01
     2376500000    1.329750419e-01   -1.435081661e-01
     2377250000    1.390713304e-01   -1.428248733e-01
     2378000000    1.427370310e-01   -1.408687383e-01
     2378750000    1.417498291e-01   -1.386634707e-01
     2379500000    1.436990499e-01   -1.345292926e-01
     2380250000    1.464571655e-01   -1.270587742e-01
     2381000000    1.414418817e-01   -1.202730164e-01
     2381750000    1.374443173e-01   -1.121516228e-01
     2382500000    1.382565796e-01   -9.955718368e-02
     2383250000    1.342331618e-01   -8.699885011e-02
     2384000000    1.272811294e-01   -7.368155569e-02
     2384750000    1.263553798e-01   -5.651269108e-02
     2385500000    1.209738776e-01   -4.254978895e-02
     2386250000    1.210227460e-01   -2.323892713e-02
     2387000000    1.182929128e-01   -6.284297910e-03
     2387750000    1.157056317e-01    9.584486485e-03
     2388500000    1.138422862e-01    2.587193809e-02
     2389250000    1.115473062e-01    3.942492604e-02
     2390000000    1.100898460e-01    5.701602250e-02
     2390750000    1.072832271e-01    6.781091541e-02
     2391500000    1.040072441e-01    8.111476153e-02
     2392250000    1.011054292e-01    9.153530747e-02
     2393000000    9.731847793e-02    1.032784879e-01
     2393750000    9.255535901e-02    1.113486364e-01
     2394500000    8.781781048e-02    1.191358864e-01
     2395250000    8.292803913e-02    1.244504601e-01
     2396000000    7.723606378e-02    1.297763735e-01
     2396750000    7.195302844e-02    1.343857944e-01
     2397500000    6.541588157e-02    1.372047663e-01
     2398250000    6.019459292e-02    1.373689175e-01
     2399000000    5.400756374e-02    1.367924362e-01
     2399750000    4.921141267e-02    1.354286969e-01
     2400500000    4.379563406e-02    1.320285052e-01
     2401250000    3.479474410e-02    1.304095984e-01
     2402000000    3.234395385e-02    1.238197014e-01
     2402750000    2.811905928e-02    1.175696924e-01
     2403500000    2.122577280e-02    1.115753353e-01
     2404250000    1.885919459e-02    1.038224474e-01
     2405000000    1.612150110e-02    9.565318376e-02
     2405750000    1.179918274e-02    8.623816073e-02
     2406500000    1.027867105e-02    7.671204954e-02
     2407250000    7.756058592e-03    6.631524116e-02
     2408000000    8.951027878e-03    5.594529957e-02
     2408750000    7.705680560e-03    4.463530704e-02
     2409500000    7.735878229e-03    3.296470270e-02
     2410250000    1.176653802e-02    2.156212926e-02
     2411000000    1.326676272e-02    9.298036806e-03
     2411750000    1.675979421e-02   -2.122509526e-03
     2412500000    2.119548433e-02   -1.393315103e-02
     2413250000    2.546070144e-02   -2.696147934e-02
     2414000000    3.110080026e-02   -3.847021982e-02
     2414750000    3.726228699e-02   -5.021729693e-02
     2415500000    4.339896515e-02   -6.224288791e-02
     2416250000    5.012328550e-02   -7.332170010e-02
     2417000000    5.779749155e-02   -8.483274281e-02
     2417750000    6.493090093e-02   -9.467238933e-02
     2418500000    7.273299992e-02   -1.053671464e-01
     2419250000    8.079732955e-02   -1.148271114e-01
     2420000000    8.872128278e-02   -1.237494126e-01
     2420750000    9.569721669e-02   -1.321023852e-01
     2421500000    1.037224904e-01   -1.395102590e-01
     2422250000    1.091560721e-01   -1.458888650e-01
     2423000000    1.151945665e-01   -1.518854946e-01
     2423750000    1.215132028e-01   -1.561064422e-01
     2424500000    1.245351583e-01   -1.593220383e-01
     2425250000    1.287907511e-01   -1.619109213e-01
     2426000000    1.309846342e-01   -1.611005962e-01
     2426750000    1.314331591e-01   -1.604655087e-01
     2427500000    1.329295486e-01   -1.569781005e-01
     2428250000    1.293509454e-01   -1.523750871e-01
     2429000000    1.282033026e-01   -1.441082209e-01
     2429750000    1.267699003e-01   -1.349818707e-01
     2430500000    1.218881533e-01   -1.234498769e-01
     2431250000    1.212004125e-01   -1.082723215e-01
     2432000000    1.169799492e-01   -9.266708046e-02
     2432750000    1.171905100e-01   -7.424908131e-02
     2433500000    1.140306294e-01   -5.760979280e-02
     2434250000    1.159122586e-01   -3.727794439e-02
     2435000000    1.169011667e-01   -1.728278585e-02
     2435750000    1.164057329e-01   -1.184634864e-03
     2436500000    1.170457229e-01    1.613520645e-02
     2437250000    1.186299175e-01    3.447957709e-02
     2438000000    1.187638566e-01    5.097052827e-02
     2438750000    1.192854196e-01    6.677035987e-02
     2439500000    1.177185327e-01    7.878645509e-02
     2440250000    1.164592654e-01    9.601005167e-02
     2441000000    1.150472909e-01    1.034301147e-01
     2441750000    1.116058081e-01    1.202189624e-01
     2442500000    1.101807505e-01    1.259144694e-01
     2443250000    1.069209129e-01    1.349563748e-01
     2444000000    1.023023874e-01    1.432283968e-01
     2444750000    9.668531269e-02    1.518527120e-01
     2445500000    9.186600894e-02    1.575660110e-01
     2446250000    8.631132543e-02    1.626084745e-01
     2447000000    8.314226568e-02    1.637470573e-01
     2447750000    7.571099699e-02    1.678177714e-01
     2448500000    6.956195086e-02    1.677992642e-01
     2449250000    6.628463417e-02    1.663707346e-01
     2450000000    5.892799422e-02    1.638284177e-01
     2450750000    5.359122902e-02    1.629105508e-01
     2451500000    4.734661430e-02    1.595592201e-01
     2452250000    4.292593896e-02    1.536264122e-01
     2453000000    3.745450452e-02    1.474132985e-01
     2453750000    3.337864205e-02    1.403166056e-01
     2454500000    2.982454374e-02    1.322139949e-01
     2455250000    2.569760755e-02    1.232037842e-01
     2456000000    2.226268686e-02    1.136339307e-01
     2456750000    2.134484798e-02    1.034865901e-01
     2457500000    1.719376259e-02    9.192971885e-02
     2458250000    1.893284917e-02    8.082857728e-02
     2459000000    1.649497636e-02    6.834397465e-02
     2459750000    1.698757708e-02    5.642058328e-02
     2460500000    1.708998904e-02    4.273146763e-02
     2461250000    1.796416566e-02    2.932707593e-02
     2462000000    2.150426432e-02    1.698812284e-02
     2462750000    2.397998795e-02    3.829114372e-03
     2463500000    2.654766664e-02   -1.048065722e-02
     2464250000    3.038454615e-02   -2.332094125e-02
     2465000000    3.473545983e-02   -3.722817078e-02
     2465750000    3.884869441e-02   -4.837086052e-02
     2466500000    4.350075498e-02   -6.132963672e-02
     2467250000    4.930823296e-02   -7.389262319e-02
     2468000000    5.306141824e-02   -8.304920793e-02
     2468750000    5.982683226e-02   -9.472648799e-02
     2469500000    6.437661499e-02   -1.033122092e-01
     2470250000    7.134367526e-02   -1.126435995e-01
     2471000000    7.391994447e-02   -1.180402040e-01
     2471750000    8.099775016e-02   -1.250793487e-01
     2472500000    8.228258044e-02   -1.280649900e-01
     2473250000    9.016353637e-02   -1.321388036e-01
     2474000000    9.006770700e-02   -1.326730698e-01
     2474750000    9.547944367e-02   -1.320756972e-01
     2475500000    9.589340538e-02   -1.290132552e-01
     2476250000    9.839819372e-02   -1.247986034e-01
     2477000000    1.011024415e-01   -1.186214313e-01
     2477750000    1.039151996e-01   -1.092061549e-01
     2478500000    1.047614962e-01   -9.967970848e-02
     2479250000    1.081626043e-01   -8.687747270e-02
     2480000000    1.114196777e-01   -7.406022400e-02
     2480750000    1.133233234e-01   -6.031560525e-02
     2481500000    1.213400662e-01   -4.306885973e-02
     2482250000    1.255787164e-01   -2.769362926e-02
     2483000000    1.307614148e-01   -1.223266497e-02
     2483750000    1.367261857e-01    3.329353873e-03
     2484500000    1.427002400e-01    1.825094596e-02
     2485250000    1.483397782e-01    3.402535245e-02
     2486000000    1.531878710e-01    4.814681783e-02
     2486750000    1.580205262e-01    6.189510599e-02
     2487500000    1.603629440e-01    7.459593564e-02
     2488250000    1.634375453e-01    8.672681451e-02
     2489000000    1.652688831e-01    9.863317758e-02
     2489750000    1.662639976e-01    1.088964865e-01
     2490500000    1.654768139e-01    1.211046129e-01
     2491250000    1.646852940e-01    1.286803633e-01
     2492000000    1.640854627e-01    1.327770650e-01
     2492750000    1.607387215e-01    1.431757659e-01
     2493500000    1.576438695e-01    1.496417373e-01
     2494250000    1.528428197e-01    1.555830389e-01
     2495000000    1.515861303e-01    1.557873487e-01
     2495750000    1.442266703e-01    1.623071283e-01
     2496500000    1.397012621e-01    1.627583802e-01
     2497250000    1.350267529e-01    1.630432457e-01
     2498000000    1.288685948e-01    1.631272137e-01
     2498750000    1.228486374e-01    1.617230028e-01
     2499500000    1.178243011e-01    1.576299369e-01
     2500250000    1.120551005e-01    1.540224254e-01
     2501000000    1.075140685e-01    1.479211003e-01
     2501750000    1.012572721e-01    1.422024071e-01
     2502500000    9.508480877e-02    1.353533715e-01
     2503250000    9.012214839e-02    1.260837168e-01
     2504000000    8.533363789e-02    1.168854088e-01
     2504750000    8.057686687e-02    1.066251546e-01
     2505500000    7.651416957e-02    9.585873038e-02
     2506250000    7.083184272e-02    8.449950814e-02
     2507000000    6.788598746e-02    7.141990215e-02
     2507750000    6.682882458e-02    5.871624500e-02
     2508500000    6.144927442e-02    4.477428272e-02
     2509250000    5.948212743e-02    3.163560480e-02
     2510000000    5.625375360e-02    1.780893281e-02
     2510750000    5.597585440e-02    4.977938719e-03
     2511500000    5.425807461e-02   -9.539441206e-03
     2512250000    5.360923335e-02   -2.274823375e-02
     2513000000    5.304967239e-02   -3.627636284e-02
     2513750000    5.404189602e-02   -4.877236485e-02
     2514500000    5.465226248e-02   -6.072358787e-02
     2515250000    5.667355284e-02   -7.259708643e-02
     2516000000    5.841305479e-02   -8.398362249e-02
     2516750000    6.182282045e-02   -9.444799274e-02
     2517500000    6.471589953e-02   -1.042446569e-01
     2518250000    6.891089678e-02   -1.128187329e-01
     2519000000    7.181971520e-02   -1.197876483e-01
     2519750000    7.833860815e-02   -1.269531399e-01
     2520500000    8.199990541e-02   -1.317520887e-01
     2521250000    8.679862320e-02   -1.359471232e-01
     2522000000    9.327886999e-02   -1.393202841e-01
     2522750000    9.897329658e-02   -1.412458420e-01
     2523500000    1.046542749e-01   -1.418010890e-01
     2524250000    1.101885065e-01   -1.407106370e-01
     2525000000    1.150418520e-01   -1.383221298e-01
     2525750000    1.194720566e-01   -1.351302415e-01
     2526500000    1.237444729e-01   -1.298743933e-01
     2527250000    1.317555606e-01   -1.224249005e-01
     2528000000    1.366836876e-01   -1.139311492e-01
     2528750000    1.413068771e-01   -1.052423492e-01
     2529500000    1.460544467e-01   -9.550669044e-02
     2530250000    1.528984159e-01   -8.344731480e-02
     2531000000    1.584993452e-01   -7.210862637e-02
     2531750000    1.643156260e-01   -5.952750891e-02
     2532500000    1.694282442e-01   -4.752428085e-02
     2533250000    1.749925613e-01   -3.459026292e-02
     2534000000    1.796348840e-01   -2.107809484e-02
     2534750000    1.841949373e-01   -8.487565443e-03
     2535500000    1.868502796e-01    3.827739973e-03
     2536250000    1.899270564e-01    1.704761572e-02
     2537000000    1.911756396e-01    2.935505658e-02
     2537750000    1.924408823e-01    4.266717285e-02
     2538500000    1.934130937e-01    5.549522489e-02
     2539250000    1.940177232e-01    6.670717895e-02
     2540000000    1.932523400e-01    7.839652151e-02
     2540750000    1.926558763e-01    8.888638020e-02
     2541500000    1.915502846e-01    9.895495325e-02
     2542250000    1.904215813e-01    1.075102463e-01
     2543000000    1.882679313e-01    1.142876148e-01
     2543750000    1.856765896e-01    1.201598942e-01
     2544500000    1.820137203e-01    1.252970546e-01
     2545250000    1.788217872e-01    1.294029653e-01
     2546000000    1.743838042e-01    1.314727664e-01
     2546750000    1.677887738e-01    1.345179230e-01
     2547500000    1.649337560e-01    1.332622766e-01
     2548250000    1.578283310e-01    1.320696622e-01
     2549000000    1.505958587e-01    1.306708306e-01
     2549750000    1.456506401e-01    1.260695755e-01
     2550500000    1.397593170e-01    1.203894541e-01
     2551250000    1.311504692e-01    1.145405322e-01
     2552000000    1.250179261e-01    1.079214811e-01
     2552750000    1.176099628e-01    9.940062463e-02
     2553500000    1.086542979e-01    9.105348587e-02
     2554250000    1.016484350e-01    8.091568947e-02
     2555000000    9.704975784e-02    6.898709387e-02
     2555750000    8.833439648e-02    5.775948614e-02
     2556500000    8.071938157e-02    4.552167654e-02
     2557250000    7.347241044e-02    3.238388151e-02
     2558000000    6.940425187e-02    2.044086903e-02
     2558750000    6.281250715e-02    7.027572021e-03
     2559500000    5.638186261e-02   -7.469925098e-03
     2560250000    5.247254670e-02   -1.887171715e-02
     2561000000    4.645341262e-02   -3.374029696e-02
     2561750000    4.271873832e-02   -4.671642184e-02
     2562500000    3.963156417e-02   -5.937568471e-02
     2563250000    3.756196797e-02   -7.262012362e-02
     2564000000    3.520026430e-02   -8.427334577e-02
     2564750000    3.350573033e-02   -9.587159008e-02
     2565500000    3.312278911e-02   -1.071382016e-01
     2566250000    3.290150315e-02   -1.156252995e-01
     2567000000    3.304631636e-02   -1.257799417e-01
     2567750000    3.435293958e-02   -1.349423230e-01
     2568500000    3.496072441e-02   -1.408986002e-01
     2569250000    3.666952625e-02   -1.468893141e-01
     2570000000    3.746015206e-02   -1.502396911e-01
     2570750000    4.303458706e-02   -1.540010720e-01
     2571500000    4.551956430e-02   -1.554113775e-01
     2572250000    4.856784269e-02   -1.537626535e-01
     2573000000    5.304318294e-02   -1.522229016e-01
     2573750000    5.863008276e-02   -1.495823264e-01
     2574500000    6.406651437e-02   -1.434483081e-01
     2575250000    6.994606555e-02   -1.376136392e-01
     2576000000    7.696095109e-02   -1.303772628e-01
     2576750000    8.380292356e-02   -1.211684197e-01
     2577500000    9.326327592e-02   -1.119485646e-01
     2578250000    1.023344472e-01   -1.000705883e-01
     2579000000    1.118366569e-01   -8.888283372e-02
     2579750000    1.363779157e-01   -5.671982653e-03
     2580500000    1.475427896e-01    5.751848686e-03
     2581250000    1.575214118e-01    1.741073281e-02
     2582000000    1.696503311e-01    3.045432828e-02
     2582750000    1.799571514e-01    4.158364609e-02
     2583500000    1.916917711e-01    5.366428196e-02
     2584250000    2.017225176e-01    6.491323560e-02
     2585000000    2.113512456e-01    7.771749794e-02
     2585750000    2.201287597e-01    8.439209312e-02
     2586500000    2.293311357e-01    9.584698826e-02
     2587250000    2.360843718e-01    1.017232016e-01
     2588000000    2.399245948e-01    1.122857630e-01
     2588750000    2.442847043e-01    1.194398403e-01
     2589500000    2.477321476e-01    1.183579043e-01
     2590250000    2.481321394e-01    1.271413565e-01
     2591000000    2.473840714e-01    1.345927864e-01
     2591750000    2.456944436e-01    1.391578764e-01
     2592500000    2.422249913e-01    1.433871537e-01
     2593250000    2.385705858e-01    1.449480951e-01
     2594000000    2.329674512e-01    1.488151401e-01
     2594750000    2.270740271e-01    1.513854712e-01
     2595500000    2.198536098e-01    1.544499695e-01
     2596250000    2.119009644e-01    1.564404815e-01
     2597000000    2.076299191e-01    1.546292752e-01
     2597750000    1.986811757e-01    1.555447280e-01
     2598500000    1.877718419e-01    1.570805609e-01
     2599250000    1.806101799e-01    1.556563079e-01
     2600000000    1.742164344e-01    1.517406851e-01
