! NanoVNA-App
! Date: 2026-05-15 12:14:17
! Start: 2.3GHz Stop: 2.6GHz Points: 401
! S-Parameter data: F S11
# Hz S RI R 50
!     Frequency           S11_Real           S11_Imag
     2300000000   -9.222758561e-02    1.726970971e-01
     2300750000   -9.229365736e-02    1.653099358e-01
     2301500000   -9.582651407e-02    1.577271819e-01
     2302250000   -9.534571320e-02    1.484108120e-01
     2303000000   -9.746883065e-02    1.385030001e-01
     2303750000   -9.660559893e-02    1.278053969e-01
     2304500000   -9.455569834e-02    1.163335219e-01
     2305250000   -9.676546603e-02    1.049312502e-01
     2306000000   -9.542227536e-02    9.358312935e-02
     2306750000   -9.526088834e-02    8.124595881e-02
     2307500000   -9.248857200e-02    7.018816471e-02
     2308250000   -9.192474186e-02    5.832007155e-02
     2309000000   -8.889989555e-02    4.746433720e-02
     2309750000   -8.542504907e-02    3.690982610e-02
     2310500000   -8.281245828e-02    2.631317452e-02
     2311250000   -7.690884918e-02    1.766614430e-02
     2312000000   -7.307238877e-02    9.023868479e-03
     2312750000   -6.765085459e-02    1.146206283e-03
     2313500000   -6.162951142e-02   -6.730800960e-03
     2314250000   -5.602048710e-02   -1.353859529e-02
     2315000000   -4.996875674e-02   -2.064300142e-02
     2315750000   -4.197516292e-02   -2.422266081e-02
     2316500000   -3.578236699e-02   -2.933501638e-02
     2317250000   -2.932907268e-02   -3.381964937e-02
     2318000000   -2.143393084e-02   -3.556578606e-02
     2318750000   -1.487538125e-02   -3.883083910e-02
     2319500000   -8.692154661e-03   -3.905235976e-02
     2320250000   -1.822610386e-03   -3.854390606e-02
     2321000000    4.261106718e-03   -3.948159888e-02
     2321750000    1.002883352e-02   -3.710949048e-02
     2322500000    1.584304124e-02   -3.419614956e-02
     2323250000    1.970080845e-02   -2.818782628e-02
     2324000000    2.469501644e-02   -2.552493289e-02
     2324750000    2.926041000e-02   -2.065487392e-02
     2325500000    3.225577250e-02   -1.266968250e-02
     2326250000    3.422654793e-02   -4.023485351e-03
     2327000000    3.897045180e-02    1.801275648e-03
     2327750000    3.960826248e-02    1.173223648e-02
     2328500000    4.022648185e-02    2.232514694e-02
     2329250000    4.366477579e-02    3.076330386e-02
     2330000000    4.203924537e-02    4.256245866e-02
     2330750000    4.354442284e-02    5.216365308e-02
     2331500000    4.233234376e-02    6.291337311e-02
     2332250000    4.073736072e-02    7.330624759e-02
     2333000000    3.949022666e-02    8.351983875e-02
     2333750000    3.708201647e-02    9.367144853e-02
     2334500000    3.389777243e-02    1.037806347e-01
     2335250000    3.056002408e-02    1.138412207e-01
     2336000000    2.586470358e-02    1.230740920e-01
     2336750000    2.083357982e-02    1.331043690e-01
     2337500000    1.581904665e-02    1.415657550e-01
     2338250000    1.017460600e-02    1.509579867e-01
     2339000000    4.350897390e-03    1.592489034e-01
     2339750000   -1.353062340e-03    1.660305113e-01
     2340500000   -7.505962159e-03    1.731276214e-01
     2341250000   -1.345414575e-02    1.790263504e-01
     2342000000   -1.905423403e-02    1.841610819e-01
     2342750000   -2.521969751e-02    1.892340928e-01
     2343500000   -3.099782020e-02    1.926953346e-01
     2344250000   -3.624304011e-02    1.957915723e-01
     2345000000   -3.991349787e-02    1.960618645e-01
     2345750000   -4.508981854e-02    1.970024556e-01
     2346500000   -4.909428582e-02    1.959142536e-01
     2347250000   -5.199221894e-02    1.938366443e-01
     2348000000   -5.549233779e-02    1.901597679e-01
     2348750000   -5.820814520e-02    1.859220862e-01
     2349500000   -6.087461859e-02    1.801188886e-01
     2350250000   -6.138867140e-02    1.722442210e-01
     2351000000   -6.191261113e-02    1.631397456e-01
     2351750000   -6.644922495e-02    1.541852206e-01
     2352500000   -6.510907412e-02    1.437996030e-01
     2353250000   -6.570469588e-02    1.324981600e-01
     2354000000   -6.945962459e-02    1.219905540e-01
     2354750000   -6.817836314e-02    1.103826389e-01
     2355500000   -6.750493497e-02    9.757076949e-02
     2356250000   -6.935713440e-02    8.660428971e-02
     2357000000   -6.893247366e-02    7.431504875e-02
     2357750000   -6.761334836e-02    6.303150952e-02
     2358500000   -6.547957659e-02    5.170252547e-02
     2359250000   -6.418603659e-02    4.076185822e-02
     2360000000   -6.072220579e-02    3.036757372e-02
     2360750000   -5.930639431e-02    1.912908629e-02
     2361500000   -5.589661747e-02    9.837308899e-03
     2362250000   -5.334386230e-02   -4.481480573e-04
     2363000000   -4.792226106e-02   -7.664329838e-03
     2363750000   -4.470285028e-02   -1.664482057e-02
     2364500000   -4.028398171e-02   -2.411925048e-02
     2365250000   -3.591375053e-02   -3.055992909e-02
     2366000000   -3.137511015e-02   -3.674555197e-02
     2366750000   -2.696839534e-02   -4.103993624e-02
     2367500000   -2.326851711e-02   -4.499774054e-02
     2368250000   -1.815903187e-02   -4.718599841e-02
     2369000000   -1.442097221e-02   -4.897192493e-02
     2369750000   -1.018345170e-02   -4.991210625e-02
     2370500000   -5.843571853e-03   -5.006498098e-02
     2371250000   -2.290704986e-03   -4.829183966e-02
     2372000000    5.350467982e-04   -4.493622854e-02
     2372750000    3.849864472e-03   -4.067261890e-02
     2373500000    6.632369012e-03   -3.595855832e-02
     2374250000    8.382846601e-03   -2.933368273e-02
     2375000000    1.123529952e-02   -2.303599194e-02
     2375750000    1.313965395e-02   -1.526711509e-02
     2376500000    1.378030609e-02   -5.652441643e-03
     2377250000    1.515287347e-02    3.130702535e-03
     2378000000    1.558610704e-02    1.349691022e-02
     2378750000    1.608079486e-02    2.424076013e-02
     2379500000    1.652896777e-02    3.412134945e-02
     2380250000    1.491579693e-02    4.642708600e-02
     2381000000    1.285398100e-02    5.833313614e-02
     2381750000    1.272384357e-02    6.972904503e-02
     2382500000    1.112732850e-02    8.188297600e-02
     2383250000    8.027327247e-03    9.361962974e-02
     2384000000    4.768993706e-03    1.057897881e-01
     2384750000    1.704818453e-03    1.176352352e-01
     2385500000   -1.722924062e-03    1.293119788e-01
     2386250000   -4.544025753e-03    1.406980157e-01
     2387000000   -8.506136015e-03    1.515630931e-01
     2387750000   -1.187365595e-02    1.632118374e-01
     2388500000   -1.555860136e-02    1.709301025e-01
     2389250000   -1.942257024e-02    1.799587756e-01
     2390000000   -2.288897336e-02    1.880837679e-01
     2390750000   -2.629421651e-02    1.951164156e-01
     2391500000   -2.885355428e-02    1.996691674e-01
     2392250000   -3.358867392e-02    2.049828619e-01
     2393000000   -3.637459874e-02    2.077896595e-01
     2393750000   -3.856848553e-02    2.075499445e-01
     2394500000   -4.162311926e-02    2.077092230e-01
     2395250000   -4.510853440e-02    2.063679099e-01
     2396000000   -4.909019917e-02    2.027074248e-01
     2396750000   -5.218660459e-02    1.977705806e-01
     2397500000   -5.539049581e-02    1.920345128e-01
     2398250000   -5.907438323e-02    1.849607527e-01
     2399000000   -6.335856020e-02    1.769320071e-01
     2399750000   -6.891737133e-02    1.681203842e-01
     2400500000   -7.135015726e-02    1.581539065e-01
     2401250000   -7.600930333e-02    1.493127644e-01
     2402000000   -7.890013605e-02    1.381516904e-01
     2402750000   -8.250444382e-02    1.273561269e-01
     2403500000   -8.800564706e-02    1.172407269e-01
     2404250000   -8.996535093e-02    1.059050187e-01
     2405000000   -9.174000472e-02    9.464333951e-02
     2405750000   -9.244373441e-02    8.331820369e-02
     2406500000   -9.373259544e-02    7.204513252e-02
     2407250000   -9.572627395e-02    6.047024205e-02
     2408000000   -9.574673325e-02    4.944499582e-02
     2408750000   -9.555677325e-02    3.875255585e-02
     2409500000   -9.498398751e-02    2.759379521e-02
     2410250000   -9.360031784e-02    1.842510328e-02
     2411000000   -9.174080193e-02    9.454181418e-03
     2411750000   -9.034343064e-02   -2.395758056e-04
     2412500000   -8.718328923e-02   -7.344628684e-03
     2413250000   -8.550053090e-02   -1.536257006e-02
     2414000000   -8.144064248e-02   -2.007757500e-02
     2414750000   -7.869835943e-02   -2.695524506e-02
     2415500000   -7.521104068e-02   -3.104889207e-02
     2416250000   -7.078772038e-02   -3.465337306e-02
     2417000000   -6.634907424e-02   -3.464654833e-02
     2417750000   -6.195941940e-02   -3.626094386e-02
     2418500000   -5.695314333e-02   -3.661790863e-02
     2419250000   -5.133179948e-02   -3.544071317e-02
     2420000000   -4.607547820e-02   -3.265438974e-02
     2420750000   -4.033654183e-02   -2.911363356e-02
     2421500000   -3.438531607e-02   -2.550981008e-02
     2422250000   -2.841463499e-02   -2.083193883e-02
     2423000000   -2.353963628e-02   -1.469359640e-02
     2423750000   -1.742371172e-02   -8.994444273e-03
     2424500000   -1.226130780e-02   -7.074239547e-04
     2425250000   -6.881037727e-03    6.800939329e-03
     2426000000   -2.478148555e-03    1.502738055e-02
     2426750000    1.194924233e-03    2.415626496e-02
     2427500000    4.475706723e-03    3.328852355e-02
     2428250000    9.181467816e-03    4.243297502e-02
     2429000000    1.119983289e-02    5.318039656e-02
     2429750000    1.285415050e-02    6.398444623e-02
     2430500000    1.503554080e-02    7.494793832e-02
     2431250000    1.556907315e-02    8.597187698e-02
     2432000000    1.717996784e-02    9.743752331e-02
     2432750000    1.681369543e-02    1.086855754e-01
     2433500000    1.763790473e-02    1.203610674e-01
     2434250000    1.792668551e-02    1.316938400e-01
     2435000000    1.646281593e-02    1.412655115e-01
     2435750000    1.597942971e-02    1.518259943e-01
     2436500000    1.501532830e-02    1.630335897e-01
     2437250000    1.339450013e-02    1.701882035e-01
     2438000000    1.221808419e-02    1.763072163e-01
     2438750000    1.015756931e-02    1.851612180e-01
     2439500000    6.242626347e-03    1.931104213e-01
     2440250000    4.648621194e-03    1.964174807e-01
     2441000000    1.609170693e-03    2.002547979e-01
     2441750000   -1.292828703e-03    2.023644894e-01
     2442500000   -3.487988841e-03    2.029512972e-01
     2443250000   -7.210687269e-03    2.031451017e-01
     2444000000   -1.184650976e-02    2.017932534e-01
     2444750000   -1.544595603e-02    1.992527843e-01
     2445500000   -1.842173561e-02    1.937894672e-01
     2446250000   -2.375986613e-02    1.893478632e-01
     2447000000   -2.950302698e-02    1.831959188e-01
     2447750000   -3.458410874e-02    1.761040390e-01
     2448500000   -3.928837925e-02    1.676529348e-01
     2449250000   -4.614109173e-02    1.593906730e-01
     2450000000   -5.123420432e-02    1.496679634e-01
     2450750000   -5.625053495e-02    1.398518831e-01
     2451500000   -6.087296456e-02    1.293581277e-01
     2452250000   -6.602227688e-02    1.189615205e-01
     2453000000   -7.051078230e-02    1.079790369e-01
     2453750000   -7.417032868e-02    9.728094935e-02
     2454500000   -7.762984931e-02    8.525983244e-02
     2455250000   -7.988165319e-02    7.468611002e-02
     2456000000   -8.089031279e-02    6.151804328e-02
     2456750000   -8.445167542e-02    5.012826994e-02
     2457500000   -8.537516743e-02    3.872450814e-02
     2458250000   -8.584735543e-02    2.700453065e-02
     2459000000   -8.582702279e-02    1.531759184e-02
     2459750000   -8.619409800e-02    4.112198949e-03
     2460500000   -8.599205315e-02   -6.604117341e-03
     2461250000   -8.508198708e-02   -1.627194881e-02
     2462000000   -8.453380316e-02   -2.711660787e-02
     2462750000   -8.158868551e-02   -3.334312513e-02
     2463500000   -8.003116399e-02   -4.183838516e-02
     2464250000   -7.697811723e-02   -4.840913787e-02
     2465000000   -7.493496686e-02   -5.526173487e-02
     2465750000   -7.194946706e-02   -5.991850793e-02
     2466500000   -6.777193397e-02   -6.534348428e-02
     2467250000   -6.540459394e-02   -6.622973830e-02
     2468000000   -6.096259505e-02   -6.737955660e-02
     2468750000   -5.665206909e-02   -6.861601025e-02
     2469500000   -5.129078776e-02   -6.993971765e-02
     2470250000   -4.888997227e-02   -6.554544717e-02
     2471000000   -4.379903153e-02   -6.486259401e-02
     2471750000   -4.012160003e-02   -6.019343808e-02
     2472500000   -3.318640590e-02   -5.817421898e-02
     2473250000   -3.185710311e-02   -4.961403087e-02
     2474000000   -2.672813646e-02   -4.393854737e-02
     2474750000   -2.281216346e-02   -3.594313189e-02
     2475500000   -1.926535927e-02   -2.683363669e-02
     2476250000   -1.704441756e-02   -1.696394570e-02
     2477000000   -1.238668151e-02   -7.477839943e-03
     2477750000   -8.330083452e-03    3.899143310e-03
     2478500000   -5.653995089e-03    1.567483135e-02
     2479250000   -3.102459479e-03    2.805162221e-02
     2480000000   -1.789501839e-04    4.074077308e-02
     2480750000    2.869074466e-03    5.298150703e-02
     2481500000    5.668181460e-03    6.586525589e-02
     2482250000    8.639245294e-03    7.861109823e-02
     2483000000    1.066034287e-02    9.038353711e-02
     2483750000    1.318786014e-02    1.026892811e-01
     2484500000    1.595877111e-02    1.138875037e-01
     2485250000    1.751957089e-02    1.250809431e-01
     2486000000    1.924755797e-02    1.347603202e-01
     2486750000    2.040647157e-02    1.441962868e-01
     2487500000    2.141319588e-02    1.514503062e-01
     2488250000    2.274888381e-02    1.583545953e-01
     2489000000    2.258625627e-02    1.638284773e-01
     2489750000    2.278563008e-02    1.666237265e-01
     2490500000    2.206006646e-02    1.681510359e-01
     2491250000    2.050422318e-02    1.698642373e-01
     2492000000    1.697650179e-02    1.693678945e-01
     2492750000    1.377145294e-02    1.672750264e-01
     2493500000    1.056473702e-02    1.635260731e-01
     2494250000    7.583395578e-03    1.574337780e-01
     2495000000    1.097162836e-03    1.521689147e-01
     2495750000   -4.552295897e-03    1.455567777e-01
     2496500000   -1.043005288e-02    1.373366266e-01
     2497250000   -1.975461282e-02    1.297785193e-01
     2498000000   -2.556121349e-02    1.194324866e-01
     2498750000   -3.463299945e-02    1.093043983e-01
     2499500000   -4.241668433e-02    9.856394678e-02
     2500250000   -5.297477543e-02    8.808722347e-02
     2501000000   -6.271625310e-02    7.592563331e-02
     2501750000   -6.916759908e-02    6.434042752e-02
     2502500000   -8.027344197e-02    5.283042043e-02
     2503250000   -8.915412426e-02    4.054309800e-02
     2504000000   -9.870125353e-02    2.862348780e-02
     2504750000   -1.053018719e-01    1.832241379e-02
     2505500000   -1.141672209e-01    6.711782422e-03
     2506250000   -1.230263114e-01   -5.036332179e-03
     2507000000   -1.313671768e-01   -1.637125388e-02
     2507750000   -1.373662204e-01   -2.432186343e-02
     2508500000   -1.435287744e-01   -3.288488463e-02
     2509250000   -1.496404260e-01   -4.275998101e-02
     2510000000   -1.538675427e-01   -4.924643412e-02
     2510750000   -1.579739749e-01   -5.543527380e-02
     2511500000   -1.616862565e-01   -6.406474859e-02
     2512250000   -1.638752520e-01   -6.574852765e-02
     2513000000   -1.661101431e-01   -7.218422741e-02
     2513750000   -1.661655754e-01   -7.531052083e-02
     2514500000   -1.660576165e-01   -7.560412586e-02
     2515250000   -1.655100584e-01   -7.615053654e-02
     2516000000   -1.636099964e-01   -7.502712309e-02
     2516750000   -1.605526954e-01   -7.613673061e-02
     2517500000   -1.568919569e-01   -7.573159039e-02
     2518250000   -1.536269486e-01   -6.901027262e-02
     2519000000   -1.474806219e-01   -6.732977182e-02
     2519750000   -1.422451437e-01   -6.322797388e-02
     2520500000   -1.362560540e-01   -5.870360881e-02
     2521250000   -1.310227066e-01   -5.075218529e-02
     2522000000   -1.247374788e-01   -4.411193728e-02
     2522750000   -1.170462519e-01   -3.703930229e-02
     2523500000   -1.090146154e-01   -2.875245363e-02
     2524250000   -1.013951376e-01   -2.126063593e-02
     2525000000   -9.460789710e-02   -1.101026125e-02
     2525750000   -8.766595274e-02   -1.382403425e-03
     2526500000   -8.014222234e-02    8.620162494e-03
     2527250000   -7.218380272e-02    1.914424263e-02
     2528000000   -6.460428983e-02    3.006950580e-02
     2528750000   -5.797772855e-02    4.111545533e-02
     2529500000   -5.133279040e-02    5.128062516e-02
     2530250000   -4.334260523e-02    6.175807863e-02
     2531000000   -3.830087557e-02    7.221335173e-02
     2531750000   -3.164393082e-02    8.252167702e-02
     2532500000   -2.588224597e-02    9.170372039e-02
     2533250000   -2.022144757e-02    1.009984836e-01
     2534000000   -1.587520540e-02    1.095981300e-01
     2534750000   -1.207745820e-02    1.162007898e-01
     2535500000   -8.192019537e-03    1.239672899e-01
     2536250000   -5.160988774e-03    1.297321767e-01
     2537000000   -3.382917494e-03    1.338923573e-01
     2537750000   -2.457034541e-03    1.377337575e-01
     2538500000   -2.271628240e-03    1.402528435e-01
     2539250000   -3.820276121e-03    1.425921768e-01
     2540000000   -4.693333525e-03    1.426214725e-01
     2540750000   -8.157959208e-03    1.421706080e-01
     2541500000   -1.315396652e-02    1.411964893e-01
     2542250000   -1.784509793e-02    1.387798190e-01
     2543000000   -2.467542514e-02    1.364047676e-01
     2543750000   -3.070446663e-02    1.328858584e-01
     2544500000   -3.865596280e-02    1.284536421e-01
     2545250000   -4.714898765e-02    1.236247122e-01
     2546000000   -5.575153977e-02    1.183251143e-01
     2546750000   -6.543166190e-02    1.127779186e-01
     2547500000   -7.293503731e-02    1.074325517e-01
     2548250000   -8.433433622e-02    1.007532179e-01
     2549000000   -9.398937225e-02    9.383287281e-02
     2549750000   -1.023867130e-01    8.787146211e-02
     2550500000   -1.130514741e-01    8.064668626e-02
     2551250000   -1.205747128e-01    7.384790480e-02
     2552000000   -1.322404742e-01    6.551624835e-02
     2552750000   -1.380660534e-01    5.889415741e-02
     2553500000   -1.462949961e-01    5.197171122e-02
     2554250000   -1.571668237e-01    4.216542840e-02
     2555000000   -1.623227447e-01    3.596251458e-02
     2555750000   -1.700552851e-01    2.790773660e-02
     2556500000   -1.739949882e-01    2.253089845e-02
     2557250000   -1.814135462e-01    1.182438899e-02
     2558000000   -1.856145114e-01    5.351917818e-03
     2558750000   -1.891582608e-01    1.653705724e-03
     2559500000   -1.912653446e-01   -2.566061448e-03
     2560250000   -1.941270381e-01   -1.073870342e-02
     2561000000   -1.963382214e-01   -1.650196314e-02
     2561750000   -1.959707290e-01   -1.825327799e-02
     2562500000   -1.953134984e-01   -1.899104752e-02
     2563250000   -1.940297782e-01   -2.366846241e-02
     2564000000   -1.917852908e-01   -2.631222084e-02
     2564750000   -1.895120740e-01   -3.089755215e-02
     2565500000   -1.855174750e-01   -2.484396659e-02
     2566250000   -1.808380038e-01   -2.859153971e-02
     2567000000   -1.758000255e-01   -2.636265382e-02
     2567750000   -1.703920364e-01   -2.385093085e-02
     2568500000   -1.643362343e-01   -2.029222250e-02
     2569250000   -1.569352895e-01   -1.950707659e-02
     2570000000   -1.493723691e-01   -1.598661393e-02
     2570750000   -1.416393369e-01   -1.097530406e-02
     2571500000   -1.334368885e-01   -6.463103462e-03
     2572250000   -1.245333180e-01   -5.196464481e-04
     2573000000   -1.166651025e-01    5.398085807e-03
     2573750000   -1.074725837e-01    1.168647967e-02
     2574500000   -9.877423197e-02    1.918011717e-02
     2575250000   -8.913128823e-02    2.566307783e-02
     2576000000   -7.994725555e-02    3.341029584e-02
     2576750000   -7.168474793e-02    4.124619439e-02
     2577500000   -6.270384789e-02    4.881732538e-02
     2578250000   -5.484662578e-02    5.619284511e-02
     2579000000   -4.668464884e-02    6.399393827e-02
     2579750000   -3.893650323e-02    7.186657935e-02
     2580500000   -3.118867241e-02    7.864299417e-02
     2581250000   -2.523118071e-02    8.513680845e-02
     2582000000   -1.859973557e-02    9.182640165e-02
     2582750000   -1.389157120e-02    9.712595493e-02
     2583500000   -9.485980496e-03    1.032558456e-01
     2584250000   -5.732147954e-03    1.080610603e-01
     2585000000   -4.087734502e-03    1.116731986e-01
     2585750000   -1.609355561e-03    1.150088012e-01
     2586500000   -1.235329197e-03    1.175694838e-01
     2587250000   -2.606439870e-03    1.206107736e-01
     2588000000   -4.197418224e-03    1.209030598e-01
     2588750000   -6.621816661e-03    1.212146580e-01
     2589500000   -1.025922410e-02    1.223988906e-01
     2590250000   -1.563057862e-02    1.214141399e-01
     2591000000   -2.242479846e-02    1.208466664e-01
     2591750000   -2.746671438e-02    1.165897399e-01
     2592500000   -3.553403541e-02    1.144744158e-01
     2593250000   -4.501977190e-02    1.117996499e-01
     2594000000   -5.620455742e-02    1.093796790e-01
     2594750000   -6.547698379e-02    1.047123894e-01
     2595500000   -7.478960603e-02    1.012268290e-01
     2596250000   -8.926208317e-02    9.772592038e-02
     2597000000   -1.001137793e-01    9.223331511e-02
     2597750000   -1.130711287e-01    8.799609542e-02
     2598500000   -1.224978864e-01    8.430143446e-02
     2599250000   -1.373136789e-01    7.934598625e-02
     2600000000   -1.472783238e-01    7.540776581e-02
