! NanoVNA-App
! Date: 2026-05-15 12:06:25
! Start: 4.8GHz Stop: 6GHz Points: 401
! S-Parameter data: F S11
# Hz S RI R 50
!     Frequency           S11_Real           S11_Imag
     4800000000    1.547874659e-01   -1.727088727e-02
     4803000000    1.772793531e-01   -2.975960448e-02
     4806000000    2.056201249e-01   -3.468706831e-02
     4809000000    2.322318852e-01   -3.008325025e-02
     4812000000    2.544267774e-01   -1.557758637e-02
     4815000000    2.725558281e-01    6.232739426e-03
     4818000000    2.723473907e-01    2.355047874e-02
     4821000000    2.694467008e-01    5.254679918e-02
     4824000000    2.536121309e-01    7.008755952e-02
     4827000000    2.316902280e-01    8.310683817e-02
     4830000000    2.032111436e-01    9.730522335e-02
     4833000000    1.746314466e-01    9.180007875e-02
     4836000000    1.515955478e-01    7.546573132e-02
     4839000000    1.255660206e-01    5.884312466e-02
     4842000000    1.158723459e-01    3.157909587e-02
     4845000000    1.149367690e-01    4.169137683e-03
     4848000000    1.238834336e-01   -2.160051838e-02
     4851000000    1.409777701e-01   -4.452385381e-02
     4854000000    1.670138091e-01   -5.694098398e-02
     4857000000    1.921352595e-01   -6.057661399e-02
     4860000000    2.265757024e-01   -5.594270676e-02
     4863000000    2.423884273e-01   -4.256770015e-02
     4866000000    2.615916133e-01   -1.969260536e-02
     4869000000    2.681411207e-01    1.032317802e-02
     4872000000    2.599717081e-01    3.481077403e-02
     4875000000    2.394322455e-01    4.577342048e-02
     4878000000    2.167223394e-01    6.905081868e-02
     4881000000    1.900868714e-01    7.166317105e-02
     4884000000    1.555104256e-01    7.617119700e-02
     4887000000    1.336481422e-01    6.180490926e-02
     4890000000    1.077080891e-01    4.347828403e-02
     4893000000    9.840047359e-02    1.698006503e-02
     4896000000    1.003574207e-01   -8.744123392e-03
     4899000000    1.075506136e-01   -3.734884039e-02
     4902000000    1.290794164e-01   -6.054594368e-02
     4905000000    1.534726024e-01   -7.374343276e-02
     4908000000    1.809791476e-01   -7.913646847e-02
     4911000000    2.103370279e-01   -7.379610091e-02
     4914000000    2.303083688e-01   -5.706648901e-02
     4917000000    2.389287651e-01   -4.038874805e-02
     4920000000    2.466811836e-01   -6.446590181e-03
     4923000000    2.350520492e-01    7.638514973e-03
     4926000000    2.188778669e-01    3.941480070e-02
     4929000000    1.965976506e-01    4.556754977e-02
     4932000000    1.707786918e-01    5.345175043e-02
     4935000000    1.346751302e-01    5.936427042e-02
     4938000000    1.152728572e-01    4.048325121e-02
     4941000000    9.816180170e-02    1.782741770e-02
     4944000000    9.031586349e-02   -1.130672172e-02
     4947000000    9.198396653e-02   -3.942738846e-02
     4950000000    1.034313962e-01   -6.963139772e-02
     4953000000    1.243464872e-01   -9.221089631e-02
     4956000000    1.488935500e-01   -1.051228642e-01
     4959000000    1.734243780e-01   -1.084295511e-01
     4962000000    1.934204698e-01   -1.006219685e-01
     4965000000    2.102398574e-01   -8.335513622e-02
     4968000000    2.210253775e-01   -5.704066157e-02
     4971000000    2.193890065e-01   -2.660053782e-02
     4974000000    2.084280401e-01   -1.582077006e-03
     4977000000    1.914803386e-01    2.005121112e-02
     4980000000    1.673471481e-01    3.330443427e-02
     4983000000    1.375255287e-01    3.890972957e-02
     4986000000    1.129650399e-01    3.314510360e-02
     4989000000    8.178961277e-02    1.524761412e-02
     4992000000    6.990718842e-02   -9.144703858e-03
     4995000000    6.556673348e-02   -3.689892218e-02
     4998000000    6.878737360e-02   -6.885916740e-02
     5001000000    8.505472541e-02   -9.483644366e-02
     5004000000    1.051508337e-01   -1.134067401e-01
     5007000000    1.289473772e-01   -1.231798828e-01
     5010000000    1.654545516e-01   -1.212333068e-01
     5013000000    1.768485010e-01   -1.100844815e-01
     5016000000    1.973760128e-01   -8.636556566e-02
     5019000000    2.113156021e-01   -5.020781979e-02
     5022000000    2.069954425e-01   -2.306881547e-02
     5025000000    1.956680268e-01   -1.116975836e-04
     5028000000    1.752985418e-01    2.418632805e-02
     5031000000    1.468029022e-01    4.112659022e-02
     5034000000    1.213990673e-01    4.065532610e-02
     5037000000    9.170792997e-02    3.379977494e-02
     5040000000    6.546054780e-02    1.483393833e-02
     5043000000    5.480008572e-02   -1.027332991e-02
     5046000000    5.056735873e-02   -4.376113415e-02
     5049000000    5.708537996e-02   -7.182528824e-02
     5052000000    7.528470457e-02   -9.913574904e-02
     5055000000    9.752999991e-02   -1.164946780e-01
     5058000000    1.184104756e-01   -1.252794117e-01
     5061000000    1.488304883e-01   -1.174809113e-01
     5064000000    1.689637154e-01   -1.029868796e-01
     5067000000    1.812214106e-01   -8.057310432e-02
     5070000000    1.869591922e-01   -4.757853225e-02
     5073000000    1.828960925e-01   -2.380301431e-02
     5076000000    1.685833931e-01    3.340876661e-03
     5079000000    1.452413350e-01    2.376412041e-02
     5082000000    1.172202826e-01    3.156719357e-02
     5085000000    8.716800809e-02    2.965501882e-02
     5088000000    5.904362351e-02    1.560854726e-02
     5091000000    4.011746868e-02   -6.934183650e-03
     5094000000    3.078266978e-02   -3.689482436e-02
     5097000000    3.087604046e-02   -6.701020896e-02
     5100000000    4.249447212e-02   -9.932791442e-02
     5103000000    5.760681629e-02   -1.204395890e-01
     5106000000    8.166147023e-02   -1.322219968e-01
     5109000000    1.075395867e-01   -1.338236630e-01
     5112000000    1.266185492e-01   -1.259552389e-01
     5115000000    1.486594528e-01   -1.045259535e-01
     5118000000    1.614461243e-01   -7.751529664e-02
     5121000000    1.647547185e-01   -4.352397844e-02
     5124000000    1.562897861e-01   -1.846322045e-02
     5127000000    1.349370927e-01    8.148981258e-03
     5130000000    1.194537058e-01    1.818390563e-02
     5133000000    8.294730633e-02    2.602769807e-02
     5136000000    4.869966209e-02    1.918437704e-02
     5139000000    3.238553926e-02    4.083999898e-03
     5142000000    1.367985364e-02   -2.236147784e-02
     5145000000    6.440660916e-03   -5.372352153e-02
     5148000000    7.210773416e-03   -8.194446564e-02
     5151000000    1.863618195e-02   -1.062692106e-01
     5154000000    3.936753422e-02   -1.257171333e-01
     5157000000    5.441627279e-02   -1.320422143e-01
     5160000000    8.365318179e-02   -1.269982606e-01
     5163000000    1.087442115e-01   -1.125834510e-01
     5166000000    1.247469038e-01   -8.975172043e-02
     5169000000    1.327912360e-01   -5.773253739e-02
     5172000000    1.301086545e-01   -2.818170562e-02
     5175000000    1.142248586e-01   -1.511263894e-03
     5178000000    9.791036695e-02    1.716903783e-02
     5181000000    6.413756311e-02    3.126086667e-02
     5184000000    3.352133185e-02    3.273904324e-02
     5187000000    5.565377884e-03    2.139775269e-02
     5190000000   -1.098256558e-02    8.021178655e-03
     5193000000   -2.881310135e-02   -3.191778809e-02
     5196000000   -3.456115723e-02   -5.691505224e-02
     5199000000   -3.096213005e-02   -8.562926203e-02
     5202000000   -1.985863782e-02   -1.056639850e-01
     5205000000    7.595395669e-03   -1.185397282e-01
     5208000000    3.170885891e-02   -1.224525571e-01
     5211000000    6.086228788e-02   -1.137164757e-01
     5214000000    8.523900807e-02   -9.307235479e-02
     5217000000    1.015692949e-01   -7.207033783e-02
     5220000000    1.087614968e-01   -3.839076683e-02
     5223000000    1.029015481e-01   -6.896829698e-03
     5226000000    9.024391323e-02    1.684905030e-02
     5229000000    6.904575229e-02    3.622679412e-02
     5232000000    4.041204974e-02    4.629137367e-02
     5235000000    1.115134917e-02    4.789033532e-02
     5238000000   -1.690888405e-02    3.612739220e-02
     5241000000   -3.922952712e-02    1.350113843e-02
     5244000000   -5.385700241e-02   -1.040997170e-02
     5247000000   -5.011860281e-02   -4.085456580e-02
     5250000000   -5.332960561e-02   -5.510937423e-02
     5253000000   -3.156852722e-02   -7.541313022e-02
     5256000000   -2.979721641e-03   -8.429609984e-02
     5259000000    1.694992743e-02   -8.698748797e-02
     5262000000    4.259169102e-02   -7.748841494e-02
     5265000000    6.653461605e-02   -5.126377568e-02
     5268000000    7.955143601e-02   -3.472336754e-02
     5271000000    8.041545004e-02   -3.680224065e-03
     5274000000    7.284598053e-02    2.331489511e-02
     5277000000    6.421852857e-02    4.137559235e-02
     5280000000    4.190758988e-02    5.897171423e-02
     5283000000    1.028888114e-02    6.116231903e-02
     5286000000   -8.981067687e-03    6.110263243e-02
     5289000000   -3.404694796e-02    4.190758988e-02
     5292000000   -5.119583383e-02    2.423160337e-02
     5295000000   -6.038128212e-02    3.466410330e-03
     5298000000   -5.614080653e-02   -1.701699011e-02
     5301000000   -4.333908856e-02   -3.543567657e-02
     5304000000   -3.271363676e-02   -4.693742096e-02
     5307000000   -6.384384818e-03   -5.096067861e-02
     5310000000    1.257671881e-02   -4.906926677e-02
     5313000000    3.384838626e-02   -3.409517184e-02
     5316000000    4.838696495e-02   -1.371491048e-02
     5319000000    5.618403479e-02    5.666473880e-03
     5322000000    5.301675946e-02    3.249699995e-02
     5325000000    3.957594931e-02    5.376489088e-02
     5328000000    2.564387396e-02    6.970863044e-02
     5331000000    3.697670996e-03    8.105347306e-02
     5334000000   -2.675626054e-02    7.611814141e-02
     5337000000   -4.987315834e-02    7.027722150e-02
     5340000000   -6.913287193e-02    5.254355818e-02
     5343000000   -8.081239462e-02    3.149765730e-02
     5346000000   -8.387073874e-02    1.302003115e-02
     5349000000   -7.014702260e-02   -1.136535965e-02
     5352000000   -6.220683828e-02   -2.459131368e-02
     5355000000   -2.913261950e-02   -3.223471344e-02
     5358000000   -1.654402167e-02   -4.252646118e-02
     5361000000    1.336027309e-02   -2.905205451e-02
     5364000000    3.346798196e-02   -1.816826314e-02
     5367000000    4.773263261e-02    2.813017927e-03
     5370000000    5.231124163e-02    3.057120182e-02
     5373000000    4.867644981e-02    5.508230254e-02
     5376000000    3.190759197e-02    7.555051148e-02
     5379000000   -1.079273759e-03    8.585344255e-02
     5382000000   -1.019576099e-03    1.043542102e-01
     5385000000   -2.961800992e-02    1.024289206e-01
     5388000000   -5.532626808e-02    9.007592499e-02
     5391000000   -6.825793535e-02    7.242820412e-02
     5394000000   -6.706371158e-02    4.491215572e-02
     5397000000   -7.193677127e-02    3.928902000e-02
     5400000000   -8.003900200e-02    2.806840092e-02
     5403000000   -5.536449328e-02    1.073726732e-02
     5406000000   -3.049243428e-02    3.280729521e-03
     5409000000   -6.790118758e-03    5.461807828e-03
     5412000000    1.093524601e-02    5.090699065e-03
     5415000000    2.461673133e-02    2.521327883e-02
     5418000000    3.789015859e-02    4.049115255e-02
     5421000000    3.103237785e-02    6.819498539e-02
     5424000000    3.129526600e-02    8.708100766e-02
     5427000000    2.808969095e-02    1.067732275e-01
     5430000000   -1.114485413e-02    1.104061529e-01
     5433000000   -2.583763562e-02    1.188872904e-01
     5436000000   -4.231455922e-02    1.387275308e-01
     5439000000   -6.420890987e-02    1.084196940e-01
     5442000000   -7.445091754e-02    1.028051153e-01
     5445000000   -7.985209674e-02    8.861563355e-02
     5448000000   -8.586660773e-02    7.210545987e-02
     5451000000   -6.192299351e-02    5.485657230e-02
     5454000000   -4.953426868e-02    4.332520813e-02
     5457000000   -2.909102850e-02    3.988501430e-02
     5460000000   -1.202896796e-02    3.878661618e-02
     5463000000    7.865541615e-03    3.917493299e-02
     5466000000    2.606700175e-02    5.280798674e-02
     5469000000    2.095377818e-02    8.139842004e-02
     5472000000    3.508450091e-02    9.726031870e-02
     5475000000    2.115489356e-02    1.172948182e-01
     5478000000    1.143933646e-02    1.342163086e-01
     5481000000   -1.574713178e-02    1.384136230e-01
     5484000000   -3.087436780e-02    1.478881836e-01
     5487000000   -4.934597760e-02    1.451395303e-01
     5490000000   -6.487816572e-02    1.386358589e-01
     5493000000   -6.816811115e-02    1.199614555e-01
     5496000000   -7.923889160e-02    1.076089218e-01
     5499000000   -6.342807412e-02    8.886158466e-02
     5502000000   -6.552752852e-02    6.866581738e-02
     5505000000   -4.359329492e-02    6.419757009e-02
     5508000000   -2.650045231e-02    5.866253003e-02
     5511000000   -6.743422244e-03    6.373910606e-02
     5514000000    1.138331741e-02    7.782016695e-02
     5517000000    3.389138728e-02    8.542884886e-02
     5520000000    2.326570638e-02    1.106816456e-01
     5523000000    4.823893309e-02    1.327488422e-01
     5526000000    2.307517827e-02    1.464823335e-01
     5529000000    2.659061365e-02    1.767637432e-01
     5532000000    1.743153785e-03    1.838604361e-01
     5535000000   -1.677701436e-02    1.918559968e-01
     5538000000   -3.171113133e-02    1.783756316e-01
     5541000000   -4.946976155e-02    1.818575561e-01
     5544000000   -6.228770316e-02    1.697661281e-01
     5547000000   -6.489990652e-02    1.504142731e-01
     5550000000   -6.174262613e-02    1.345274746e-01
     5553000000   -6.135970727e-02    1.066763625e-01
     5556000000   -4.353938252e-02    1.184971035e-01
     5559000000   -2.304166555e-02    9.862170368e-02
     5562000000   -5.923402961e-03    1.081599146e-01
     5565000000    1.078518853e-02    1.164880097e-01
     5568000000    2.927797101e-02    1.284200549e-01
     5571000000    3.675745428e-02    1.455602497e-01
     5574000000    2.837366425e-02    1.612213105e-01
     5577000000    3.196442872e-02    1.803294420e-01
     5580000000    3.270902112e-02    2.006500214e-01
     5583000000    1.716034673e-02    2.084309310e-01
     5586000000    3.397814929e-03    2.104738653e-01
     5589000000   -1.662393846e-02    2.187374979e-01
     5592000000   -2.810441703e-02    2.037359625e-01
     5595000000   -3.662381694e-02    1.903009862e-01
     5598000000   -4.936906695e-02    1.715319008e-01
     5601000000   -4.164958745e-02    1.643002778e-01
     5604000000   -3.445919231e-02    1.477256864e-01
     5607000000   -2.376941964e-02    1.472475678e-01
     5610000000   -6.003926508e-03    1.432939321e-01
     5613000000    2.355586737e-02    1.362495273e-01
     5616000000    3.456461430e-02    1.460523307e-01
     5619000000    6.119057909e-02    1.581642628e-01
     5622000000    4.094737023e-02    1.666069478e-01
     5625000000    6.853082031e-02    1.890541017e-01
     5628000000    6.325048208e-02    2.021398991e-01
     5631000000    5.651200935e-02    2.117815018e-01
     5634000000    4.403046519e-02    2.193681747e-01
     5637000000    3.062167577e-02    2.218679637e-01
     5640000000    1.321488805e-02    2.194765210e-01
     5643000000    1.756585785e-03    2.127853781e-01
     5646000000   -1.339005865e-02    1.966007799e-01
     5649000000   -1.238930412e-02    1.922968328e-01
     5652000000   -9.351802990e-03    1.789448857e-01
     5655000000   -8.916877559e-04    1.711577475e-01
     5658000000    1.620152034e-02    1.615290791e-01
     5661000000    3.590217605e-02    1.603281945e-01
     5664000000    6.314665079e-02    1.618962884e-01
     5667000000    7.395479828e-02    1.693996340e-01
     5670000000    1.069827601e-01    1.825900674e-01
     5673000000    9.815947711e-02    1.943446547e-01
     5676000000    1.074808985e-01    2.083016038e-01
     5679000000    1.047210693e-01    2.290558815e-01
     5682000000    9.403460473e-02    2.387286276e-01
     5685000000    7.774751633e-02    2.491615713e-01
     5688000000    6.541445106e-02    2.485107929e-01
     5691000000    4.653016478e-02    2.484277040e-01
     5694000000    2.392450348e-02    2.361173630e-01
     5697000000    1.709412038e-02    2.240017653e-01
     5700000000    1.375975087e-02    2.229887694e-01
     5703000000    1.637584344e-02    1.975220144e-01
     5706000000    2.615320683e-02    1.942529827e-01
     5709000000    3.886125609e-02    1.872336417e-01
     5712000000    6.368188560e-02    1.757681668e-01
     5715000000    9.250212461e-02    1.732822955e-01
     5718000000    1.049263626e-01    1.814627945e-01
     5721000000    1.171961948e-01    1.840653419e-01
     5724000000    1.425486952e-01    2.012355775e-01
     5727000000    1.469365954e-01    2.213044465e-01
     5730000000    1.386311799e-01    2.276077867e-01
     5733000000    1.293946356e-01    2.410386801e-01
     5736000000    1.137163267e-01    2.501698136e-01
     5739000000    9.581378847e-02    2.539226413e-01
     5742000000    7.609251142e-02    2.522679567e-01
     5745000000    6.630606949e-02    2.540003955e-01
     5748000000    5.374482647e-02    2.307591289e-01
     5751000000    5.101952329e-02    2.287606150e-01
     5754000000    5.290317535e-02    2.170603126e-01
     5757000000    6.111859158e-02    2.040619850e-01
     5760000000    9.200931340e-02    1.857634783e-01
     5763000000    8.562720567e-02    1.874592602e-01
     5766000000    1.288530976e-01    1.787403226e-01
     5769000000    1.351164281e-01    1.817157269e-01
     5772000000    1.499527544e-01    1.866611689e-01
     5775000000    1.656225771e-01    2.040140778e-01
     5778000000    1.679916084e-01    2.146693617e-01
     5781000000    1.646488160e-01    2.290116251e-01
     5784000000    1.492654681e-01    2.464275509e-01
     5787000000    1.313949227e-01    2.532640994e-01
     5790000000    1.205560341e-01    2.604069412e-01
     5793000000    9.974861145e-02    2.593915761e-01
     5796000000    8.808542788e-02    2.594766915e-01
     5799000000    8.170263469e-02    2.355171740e-01
     5802000000    7.670339942e-02    2.301421314e-01
     5805000000    7.696421444e-02    2.153283060e-01
     5808000000    9.783908725e-02    1.946512908e-01
     5811000000    9.261228889e-02    1.881321371e-01
     5814000000    1.318235695e-01    1.738320291e-01
     5817000000    1.457907259e-01    1.683836281e-01
     5820000000    1.854539663e-01    1.769127846e-01
     5823000000    1.889477223e-01    1.737987399e-01
     5826000000    1.993678212e-01    1.884102821e-01
     5829000000    2.019734234e-01    2.041546404e-01
     5832000000    1.969017237e-01    2.187704742e-01
     5835000000    1.899813712e-01    2.346065789e-01
     5838000000    1.635917425e-01    2.429447472e-01
     5841000000    1.524726599e-01    2.553062141e-01
     5844000000    1.355838776e-01    2.599613070e-01
     5847000000    1.167264208e-01    2.617957890e-01
     5850000000    1.133906171e-01    2.401049435e-01
     5853000000    1.166901588e-01    2.239904851e-01
     5856000000    9.837271273e-02    2.222427428e-01
     5859000000    1.236396283e-01    1.986366957e-01
     5862000000    1.326344907e-01    1.834113151e-01
     5865000000    1.558774859e-01    1.729140431e-01
     5868000000    1.799478680e-01    1.652288139e-01
     5871000000    1.960838884e-01    1.623248905e-01
     5874000000    2.103967071e-01    1.707428992e-01
     5877000000    2.164587826e-01    1.843563765e-01
     5880000000    2.247629017e-01    1.902644038e-01
     5883000000    2.117079049e-01    2.052002698e-01
     5886000000    2.085258514e-01    2.220781595e-01
     5889000000    1.993934065e-01    2.363853455e-01
     5892000000    1.812977642e-01    2.252266556e-01
     5895000000    1.644605100e-01    2.683368623e-01
     5898000000    1.569108665e-01    2.353422940e-01
     5901000000    1.450495422e-01    2.356650531e-01
     5904000000    1.642331183e-01    2.060242891e-01
     5907000000    1.376257390e-01    2.064335942e-01
     5910000000    1.330426633e-01    1.873085052e-01
     5913000000    1.860734671e-01    1.714950502e-01
     5916000000    1.855130643e-01    1.570796669e-01
     5919000000    2.094410658e-01    1.569335461e-01
     5922000000    2.191125602e-01    1.528246552e-01
     5925000000    2.296661735e-01    1.587369889e-01
     5928000000    2.388731688e-01    1.684857607e-01
     5931000000    2.434652001e-01    1.821235120e-01
     5934000000    2.296706140e-01    1.938586384e-01
     5937000000    2.256387025e-01    2.083425075e-01
     5940000000    2.131544501e-01    2.160760164e-01
     5943000000    2.013664544e-01    2.248489112e-01
     5946000000    1.866737008e-01    2.275770009e-01
     5949000000    1.777826846e-01    2.206718922e-01
     5952000000    1.770140082e-01    2.066376060e-01
     5955000000    1.651233435e-01    2.003743798e-01
     5958000000    1.785709858e-01    1.808921844e-01
     5961000000    2.015491575e-01    1.663339585e-01
     5964000000    2.017252445e-01    1.530908048e-01
     5967000000    2.177089304e-01    1.426863968e-01
     5970000000    2.311134934e-01    1.415730119e-01
     5973000000    2.432816476e-01    1.494565606e-01
     5976000000    2.459039241e-01    1.609702408e-01
     5979000000    2.617345154e-01    1.695126891e-01
     5982000000    2.539938986e-01    1.831228286e-01
     5985000000    2.477116585e-01    1.954929531e-01
     5988000000    2.426743507e-01    2.224887609e-01
     5991000000    2.271978110e-01    2.219897509e-01
     5994000000    2.175864279e-01    2.229919136e-01
     5997000000    2.028414011e-01    2.250331342e-01
     6000000000    1.910519153e-01    2.160327137e-01
