! NanoVNA-App
! Date: 2026-05-15 12:13:32
! Start: 4.8GHz Stop: 6GHz Points: 401
! S-Parameter data: F S11
# Hz S RI R 50
!     Frequency           S11_Real           S11_Imag
     4800000000   -1.188792810e-01   -2.340348214e-01
     4803000000   -7.341167331e-02   -2.595898509e-01
     4806000000   -1.894261874e-02   -2.704579234e-01
     4809000000    3.039556555e-02   -2.572755218e-01
     4812000000    6.989070773e-02   -2.272605449e-01
     4815000000    1.015696079e-01   -1.852511466e-01
     4818000000    1.115891114e-01   -1.348284483e-01
     4821000000    1.002845466e-01   -8.523049951e-02
     4824000000    7.122827321e-02   -4.325180128e-02
     4827000000    2.950622886e-02   -8.039118722e-03
     4830000000   -2.543973923e-02    6.965971552e-03
     4833000000   -8.113723248e-02    1.330776722e-03
     4836000000   -1.324933022e-01   -1.667277329e-02
     4839000000   -1.707640439e-01   -5.415256321e-02
     4842000000   -1.911757886e-01   -1.022915468e-01
     4845000000   -1.915163398e-01   -1.556573361e-01
     4848000000   -1.717283726e-01   -2.048368901e-01
     4851000000   -1.359536797e-01   -2.442065477e-01
     4854000000   -8.694159985e-02   -2.661705613e-01
     4857000000   -3.876179457e-02   -2.680391371e-01
     4860000000    1.839129999e-02   -2.550623417e-01
     4863000000    4.977903888e-02   -2.227334529e-01
     4866000000    7.922188193e-02   -1.791454703e-01
     4869000000    9.111811221e-02   -1.278802454e-01
     4872000000    8.228871226e-02   -7.284553349e-02
     4875000000    4.349032789e-02   -4.325667769e-02
     4878000000   -1.466308488e-03   -6.102822255e-03
     4881000000   -5.233686790e-02    5.058565177e-03
     4884000000   -1.084890589e-01    2.024761168e-03
     4887000000   -1.577714682e-01   -2.373798564e-02
     4890000000   -1.797946841e-01   -6.058201566e-02
     4893000000   -1.998929679e-01   -1.153387353e-01
     4896000000   -1.942472905e-01   -1.669996977e-01
     4899000000   -1.718838662e-01   -2.118607759e-01
     4902000000   -1.320146173e-01   -2.498164475e-01
     4905000000   -8.162478358e-02   -2.717821002e-01
     4908000000   -3.751155362e-02   -2.661289871e-01
     4911000000    1.387476828e-02   -2.496265322e-01
     4914000000    4.895143583e-02   -2.146557868e-01
     4917000000    6.721578538e-02   -1.692665368e-01
     4920000000    7.006672025e-02   -1.184741408e-01
     4923000000    4.916451871e-02   -7.319985330e-02
     4926000000    1.341931336e-02   -3.851303831e-02
     4929000000   -3.446731716e-02   -8.881796151e-03
     4932000000   -8.710802346e-02   -3.230887931e-03
     4935000000   -1.405365616e-01   -1.687833667e-02
     4938000000   -1.722819507e-01   -4.585321620e-02
     4941000000   -2.071990967e-01   -9.735782444e-02
     4944000000   -2.100598961e-01   -1.436069459e-01
     4947000000   -2.011637241e-01   -1.957528889e-01
     4950000000   -1.701867133e-01   -2.469875216e-01
     4953000000   -1.316343099e-01   -2.653495371e-01
     4956000000   -7.337338477e-02   -2.837516367e-01
     4959000000   -2.912986279e-02   -2.707061172e-01
     4962000000    1.698654704e-02   -2.453788221e-01
     4965000000    5.258904770e-02   -2.039235085e-01
     4968000000    6.268742681e-02   -1.554119587e-01
     4971000000    5.751856789e-02   -1.026763543e-01
     4974000000    3.171103820e-02   -5.416259542e-02
     4977000000   -7.941393182e-03   -1.537838578e-02
     4980000000   -5.984808877e-02    6.503487937e-03
     4983000000   -1.132951900e-01    7.235929370e-03
     4986000000   -1.569779664e-01   -1.131955255e-02
     4989000000   -1.986160576e-01   -4.915338755e-02
     4992000000   -2.216789126e-01   -1.010347232e-01
     4995000000   -2.193672508e-01   -1.478625089e-01
     4998000000   -2.052068412e-01   -1.827512980e-01
     5001000000   -1.619397402e-01   -2.468371093e-01
     5004000000   -1.195376515e-01   -2.617681026e-01
     5007000000   -8.082195371e-02   -2.612795532e-01
     5010000000   -1.724739373e-02   -2.522174120e-01
     5013000000    2.947880886e-02   -2.172210366e-01
     5016000000    5.293990299e-02   -1.723854244e-01
     5019000000    5.799569935e-02   -1.191738471e-01
     5022000000    4.748329520e-02   -6.116051599e-02
     5025000000    1.588596217e-02   -1.699205860e-02
     5028000000   -2.863134444e-02    1.748908497e-02
     5031000000   -8.385867625e-02    3.437487781e-02
     5034000000   -1.408872902e-01    2.839664742e-02
     5037000000   -1.874623746e-01    2.840946428e-03
     5040000000   -2.237450480e-01   -3.806073964e-02
     5043000000   -2.429587990e-01   -8.916264772e-02
     5046000000   -2.421864718e-01   -1.400983185e-01
     5049000000   -2.233198285e-01   -1.869444549e-01
     5052000000   -1.837780476e-01   -2.283249795e-01
     5055000000   -1.404211521e-01   -2.449177057e-01
     5058000000   -8.188687265e-02   -2.500724494e-01
     5061000000   -3.573134914e-02   -2.337748557e-01
     5064000000    5.331913009e-03   -1.982304752e-01
     5067000000    2.802987583e-02   -1.528804004e-01
     5070000000    3.211972862e-02   -9.808356315e-02
     5073000000    1.460638549e-02   -4.579159617e-02
     5076000000   -1.676059701e-02   -2.252460690e-03
     5079000000   -6.228575110e-02    2.378980629e-02
     5082000000   -1.162121370e-01    3.354752809e-02
     5085000000   -1.692407876e-01    2.295804583e-02
     5088000000   -2.140533328e-01   -5.849182140e-03
     5091000000   -2.447603345e-01   -4.683431238e-02
     5094000000   -2.582931817e-01   -1.019624248e-01
     5097000000   -2.505725920e-01   -1.511896253e-01
     5100000000   -2.318544090e-01   -1.817059368e-01
     5103000000   -1.789964736e-01   -2.276967466e-01
     5106000000   -1.460554898e-01   -2.326201499e-01
     5109000000   -8.301539719e-02   -2.330390513e-01
     5112000000   -4.051743820e-02   -2.110577673e-01
     5115000000   -2.980065998e-03   -1.682998240e-01
     5118000000    1.170897949e-02   -1.209242195e-01
     5121000000    9.096403606e-03   -6.433490664e-02
     5124000000   -1.419494767e-02   -1.244655252e-02
     5127000000   -5.074265227e-02    2.550670505e-02
     5130000000   -9.400118887e-02    4.525310919e-02
     5133000000   -1.550991237e-01    4.758276418e-02
     5136000000   -2.003450245e-01    3.596845269e-02
     5139000000   -2.406561673e-01    8.574891835e-03
     5142000000   -2.704640329e-01   -4.289272800e-02
     5145000000   -2.780844271e-01   -8.397098631e-02
     5148000000   -2.648414075e-01   -1.337217391e-01
     5151000000   -2.337200493e-01   -1.769790351e-01
     5154000000   -1.936987638e-01   -2.032440603e-01
     5157000000   -1.365764886e-01   -2.161803544e-01
     5160000000   -9.044548869e-02   -2.064290196e-01
     5163000000   -4.877777398e-02   -1.768636703e-01
     5166000000   -2.177056111e-02   -1.388688236e-01
     5169000000   -7.303157821e-03   -8.219562471e-02
     5172000000   -1.618209295e-02   -3.482451662e-02
     5175000000   -3.952799365e-02    7.803087588e-03
     5178000000   -8.170781285e-02    4.269981757e-02
     5181000000   -1.205989122e-01    6.050985679e-02
     5184000000   -1.824799776e-01    5.311556906e-02
     5187000000   -2.244847566e-01    3.626400232e-02
     5190000000   -2.572431266e-01    6.020337809e-03
     5193000000   -2.758023441e-01   -2.696823888e-02
     5196000000   -2.777477205e-01   -9.595953673e-02
     5199000000   -2.607723773e-01   -1.282937825e-01
     5202000000   -2.224613577e-01   -1.700002551e-01
     5205000000   -1.685202420e-01   -1.902345270e-01
     5208000000   -1.334369630e-01   -1.906327158e-01
     5211000000   -8.239634335e-02   -1.734945625e-01
     5214000000   -3.999665752e-02   -1.379628032e-01
     5217000000   -1.892451569e-02   -9.324222803e-02
     5220000000   -1.366872992e-02   -4.192751646e-02
     5223000000   -2.882520854e-02    9.226810187e-03
     5226000000   -5.839733779e-02    4.920923337e-02
     5229000000   -9.713818133e-02    7.805993408e-02
     5232000000   -1.479763836e-01    9.354604781e-02
     5235000000   -1.979873180e-01    8.712657541e-02
     5238000000   -2.400951087e-01    6.656483561e-02
     5241000000   -2.707077861e-01    3.355826437e-02
     5244000000   -2.866949439e-01   -6.409668364e-03
     5247000000   -2.831674814e-01   -5.521364883e-02
     5250000000   -2.497333586e-01   -1.095045209e-01
     5253000000   -2.299086899e-01   -1.292305440e-01
     5256000000   -1.773422956e-01   -1.477120668e-01
     5259000000   -1.283135563e-01   -1.445365995e-01
     5262000000   -7.735449821e-02   -1.186741069e-01
     5265000000   -5.475097895e-02   -9.621055424e-02
     5268000000   -3.377956152e-02   -3.350412473e-02
     5271000000   -2.706284076e-02    6.490231026e-03
     5274000000   -5.122412741e-02    5.947579816e-02
     5277000000   -7.338870317e-02    9.661892802e-02
     5280000000   -1.296648830e-01    1.175602078e-01
     5283000000   -1.621468365e-01    1.355034411e-01
     5286000000   -2.185341567e-01    1.138399839e-01
     5289000000   -2.522517443e-01    9.129898995e-02
     5292000000   -2.770096064e-01    5.052598938e-02
     5295000000   -2.817679942e-01    2.217875794e-03
     5298000000   -2.714108229e-01   -3.871715069e-02
     5301000000   -2.397587597e-01   -8.436706662e-02
     5304000000   -2.046726942e-01   -1.091478989e-01
     5307000000   -1.543025374e-01   -1.177411750e-01
     5310000000   -1.063548774e-01   -1.095451787e-01
     5313000000   -6.616280973e-02   -8.598323911e-02
     5316000000   -3.589490801e-02   -4.923764989e-02
     5319000000   -2.049295977e-02   -3.958582412e-03
     5322000000   -2.762248553e-02    4.927170649e-02
     5325000000   -4.928291216e-02    9.374622256e-02
     5328000000   -8.262188733e-02    1.289502829e-01
     5331000000   -1.268849820e-01    1.509808749e-01
     5334000000   -1.777085066e-01    1.522715688e-01
     5337000000   -2.217991352e-01    1.364746690e-01
     5340000000   -2.578085363e-01    1.069561914e-01
     5343000000   -2.771765590e-01    6.256400794e-02
     5346000000   -2.788160145e-01    1.392753143e-02
     5349000000   -2.656000853e-01   -3.079968132e-02
     5352000000   -2.335157841e-01   -6.914170831e-02
     5355000000   -1.935647726e-01   -9.128141403e-02
     5358000000   -1.393043995e-01   -9.470314533e-02
     5361000000   -1.010406539e-01   -9.213151783e-02
     5364000000   -6.066402420e-02   -5.945281684e-02
     5367000000   -3.325035796e-02   -1.777558029e-02
     5370000000   -1.632418111e-02    2.307180129e-02
     5373000000   -2.880965546e-02    8.136132360e-02
     5376000000   -6.578189135e-02    1.265054792e-01
     5379000000   -9.433632344e-02    1.660585999e-01
     5382000000   -1.387916952e-01    1.831535548e-01
     5385000000   -1.694574058e-01    1.963748932e-01
     5388000000   -2.316540331e-01    1.411736906e-01
     5391000000   -2.536366880e-01    1.235764474e-01
     5394000000   -2.735190690e-01    1.023883894e-01
     5397000000   -2.710509598e-01    4.255198315e-02
     5400000000   -2.555588782e-01   -7.706712931e-04
     5403000000   -2.228090018e-01   -3.960967436e-02
     5406000000   -1.739353240e-01   -5.868654698e-02
     5409000000   -1.271219105e-01   -6.239481270e-02
     5412000000   -8.226534724e-02   -5.106333271e-02
     5415000000   -3.935673833e-02   -1.967498846e-02
     5418000000   -1.336661167e-02    2.776964009e-02
     5421000000   -7.420659997e-03    7.910966873e-02
     5424000000   -1.082315110e-02    1.301756799e-01
     5427000000   -3.243203089e-02    1.723125726e-01
     5430000000   -7.730700076e-02    2.008756846e-01
     5433000000   -1.137128919e-01    2.213152647e-01
     5436000000   -1.650548726e-01    2.033532709e-01
     5439000000   -1.989870667e-01    2.087866217e-01
     5442000000   -2.263848633e-01    1.594990939e-01
     5445000000   -2.448381037e-01    1.236044243e-01
     5448000000   -2.418155074e-01    7.578457147e-02
     5451000000   -2.394970059e-01    3.766868636e-02
     5454000000   -1.976971328e-01    3.835206153e-03
     5457000000   -1.606597304e-01   -1.687238365e-02
     5460000000   -1.170136333e-01   -1.952985115e-02
     5463000000   -7.549940795e-02   -1.568287844e-03
     5466000000   -3.503920510e-02    1.945512369e-02
     5469000000   -2.243329771e-02    6.952273846e-02
     5472000000   -9.100278839e-03    1.163215488e-01
     5475000000   -2.646831051e-02    1.636924446e-01
     5478000000   -4.383018985e-02    2.052431405e-01
     5481000000   -8.109946549e-02    2.335209548e-01
     5484000000   -1.206219569e-01    2.480528355e-01
     5487000000   -1.677191854e-01    2.253504694e-01
     5490000000   -1.995650828e-01    2.011692673e-01
     5493000000   -2.291318327e-01    1.814713478e-01
     5496000000   -2.466044724e-01    1.392679811e-01
     5499000000   -2.341744155e-01    8.882462978e-02
     5502000000   -2.277539372e-01    4.838965833e-02
     5505000000   -1.899341643e-01    2.219320834e-02
     5508000000   -1.476815939e-01    1.689179242e-02
     5511000000   -1.075684354e-01    1.219686680e-02
     5514000000   -5.868445709e-02    2.184281126e-02
     5517000000   -2.927489765e-02    6.165267155e-02
     5520000000   -1.255375147e-02    1.074827164e-01
     5523000000   -6.411912851e-03    1.533437818e-01
     5526000000   -7.372555556e-04    2.035515606e-01
     5529000000   -3.954128549e-02    2.289448678e-01
     5532000000   -6.918049604e-02    2.508419156e-01
     5535000000   -1.037844941e-01    2.684699297e-01
     5538000000   -1.456917673e-01    2.518070936e-01
     5541000000   -1.772211343e-01    2.205657959e-01
     5544000000   -2.021396607e-01    1.884019226e-01
     5547000000   -2.124235183e-01    1.458783448e-01
     5550000000   -2.097387612e-01    1.025909334e-01
     5553000000   -1.834208369e-01    6.925193220e-02
     5556000000   -1.522559524e-01    3.953111544e-02
     5559000000   -1.109460071e-01    3.587929159e-02
     5562000000   -6.625376642e-02    4.186911881e-02
     5565000000   -2.420405671e-02    6.524481624e-02
     5568000000    1.017935202e-02    1.016015857e-01
     5571000000    2.270495892e-02    1.465109438e-01
     5574000000    1.823697984e-02    1.882664859e-01
     5577000000    2.346529625e-02    2.422061861e-01
     5580000000   -2.218800038e-02    2.518337071e-01
     5583000000   -4.882700741e-02    2.854283154e-01
     5586000000   -9.111353755e-02    2.926795185e-01
     5589000000   -1.302216053e-01    2.606608272e-01
     5592000000   -1.737712473e-01    2.462846488e-01
     5595000000   -1.994007826e-01    2.050993294e-01
     5598000000   -2.016096860e-01    1.630057544e-01
     5601000000   -2.038125992e-01    1.187528223e-01
     5604000000   -1.792373657e-01    9.225670993e-02
     5607000000   -1.444020867e-01    6.159755588e-02
     5610000000   -1.021919549e-01    5.847713724e-02
     5613000000   -6.230457127e-02    7.291305810e-02
     5616000000   -2.463963814e-02    9.723118693e-02
     5619000000    1.228439342e-02    1.322196275e-01
     5622000000    2.597256005e-02    1.743945181e-01
     5625000000    3.214273974e-02    2.170886844e-01
     5628000000    1.450970024e-02    2.481221557e-01
     5631000000   -5.441957619e-03    2.856501341e-01
     5634000000   -4.468163103e-02    2.869044840e-01
     5637000000   -8.436236531e-02    2.981250584e-01
     5640000000   -1.159483492e-01    2.710879743e-01
     5643000000   -1.550835073e-01    2.484433055e-01
     5646000000   -1.728773117e-01    2.109531015e-01
     5649000000   -1.765798479e-01    1.721227318e-01
     5652000000   -1.621908247e-01    1.351806968e-01
     5655000000   -1.351483166e-01    1.116680205e-01
     5658000000   -9.147004038e-02    9.199931473e-02
     5661000000   -6.120454520e-02    1.031699479e-01
     5664000000   -8.283108473e-03    1.116209552e-01
     5667000000    1.749794558e-02    1.371286511e-01
     5670000000    7.330473512e-02    1.788532287e-01
     5673000000    6.256674230e-02    2.112836093e-01
     5676000000    7.012616098e-02    2.531203628e-01
     5679000000    4.930543527e-02    2.873266339e-01
     5682000000    1.706767268e-02    3.102135360e-01
     5685000000   -2.630185336e-02    3.168404400e-01
     5688000000   -6.718482822e-02    3.076278567e-01
     5691000000   -9.979555011e-02    2.843340933e-01
     5694000000   -1.407857984e-01    2.527966797e-01
     5697000000   -1.485942602e-01    2.180573344e-01
     5700000000   -1.494138241e-01    1.790245622e-01
     5703000000   -1.322920322e-01    1.376115084e-01
     5706000000   -9.620049596e-02    1.126005575e-01
     5709000000   -6.770662218e-02    1.103900820e-01
     5712000000   -1.155656669e-02    1.048496738e-01
     5715000000    3.347954527e-02    1.232206821e-01
     5718000000    6.973428279e-02    1.492867172e-01
     5721000000    9.410266578e-02    1.817453653e-01
     5724000000    1.083936393e-01    2.241794467e-01
     5727000000    9.627483785e-02    2.611612976e-01
     5730000000    7.180828601e-02    2.926397026e-01
     5733000000    3.434879333e-02    3.184144497e-01
     5736000000   -6.461392157e-03    3.180229068e-01
     5739000000   -5.319558457e-02    3.133913577e-01
     5742000000   -8.680103719e-02    2.920629084e-01
     5745000000   -1.139266491e-01    2.607780099e-01
     5748000000   -1.263734549e-01    2.224724889e-01
     5751000000   -1.182807162e-01    1.862154454e-01
     5754000000   -9.550564736e-02    1.519839317e-01
     5757000000   -7.549080998e-02    1.432924420e-01
     5760000000   -1.993128099e-02    1.243652627e-01
     5763000000    3.396608308e-02    1.308925152e-01
     5766000000    7.550317049e-02    1.463428289e-01
     5769000000    1.023780107e-01    1.756349951e-01
     5772000000    1.268709749e-01    2.135595381e-01
     5775000000    1.253573298e-01    2.459947616e-01
     5778000000    1.142743528e-01    2.860519290e-01
     5781000000    8.807758242e-02    3.153769970e-01
     5784000000    4.820152000e-02    3.364304900e-01
     5787000000    5.597221665e-03    3.393003345e-01
     5790000000   -3.782558814e-02    3.286919892e-01
     5793000000   -7.313333452e-02    3.051957786e-01
     5796000000   -9.244262427e-02    2.779817283e-01
     5799000000   -1.005967930e-01    2.412942648e-01
     5802000000   -9.117965400e-02    2.078714073e-01
     5805000000   -6.795535237e-02    1.794216633e-01
     5808000000   -2.846136317e-02    1.603120416e-01
     5811000000   -3.008299391e-04    1.566676646e-01
     5814000000    6.679494679e-02    1.605515331e-01
     5817000000    9.841426462e-02    1.780764759e-01
     5820000000    1.271088868e-01    2.047998011e-01
     5823000000    1.365867257e-01    2.351093590e-01
     5826000000    1.396710128e-01    2.825893462e-01
     5829000000    1.183012798e-01    2.989899218e-01
     5832000000    8.434627950e-02    3.256391585e-01
     5835000000    4.682389274e-02    3.364148736e-01
     5838000000   -8.228894440e-04    3.328635693e-01
     5841000000   -3.289604560e-02    3.199160099e-01
     5844000000   -6.078490242e-02    2.894052565e-01
     5847000000   -7.834334671e-02    2.605389059e-01
     5850000000   -7.390565425e-02    2.193535417e-01
     5853000000   -5.287310481e-02    1.853563040e-01
     5856000000   -2.077374794e-02    1.590566635e-01
     5859000000    9.582505561e-03    1.459773034e-01
     5862000000    7.319905609e-02    1.428533196e-01
     5865000000    1.115539521e-01    1.532826424e-01
     5868000000    1.476767808e-01    1.727111638e-01
     5871000000    1.699729264e-01    2.078902125e-01
     5874000000    1.774919778e-01    2.473740429e-01
     5877000000    1.642744094e-01    2.898766994e-01
     5880000000    1.396200657e-01    3.156717718e-01
     5883000000    9.958627075e-02    3.398375809e-01
     5886000000    5.514449626e-02    3.513903916e-01
     5889000000    1.193690859e-02    3.449695706e-01
     5892000000   -2.645529620e-02    3.218926489e-01
     5895000000   -5.164052919e-02    2.971626520e-01
     5898000000   -6.839849800e-02    2.664269507e-01
     5901000000   -5.977132171e-02    2.240266055e-01
     5904000000   -5.022924021e-02    1.989971101e-01
     5907000000    3.853781149e-03    1.671750546e-01
     5910000000    2.344454452e-02    1.546265185e-01
     5913000000    7.167773694e-02    1.512772441e-01
     5916000000    1.207208410e-01    1.613053828e-01
     5919000000    1.597769260e-01    1.890255809e-01
     5922000000    1.749918312e-01    2.122147381e-01
     5925000000    1.786970794e-01    2.545424700e-01
     5928000000    1.654639095e-01    2.877924442e-01
     5931000000    1.395100653e-01    3.178556561e-01
     5934000000    9.633334726e-02    3.339828253e-01
     5937000000    5.974060297e-02    3.414697647e-01
     5940000000    1.859464496e-02    3.295465708e-01
     5943000000   -1.344205812e-02    3.130838275e-01
     5946000000   -3.282118589e-02    2.819176316e-01
     5949000000   -3.926725686e-02    2.494555116e-01
     5952000000   -2.800110355e-02    2.145409435e-01
     5955000000    5.067319144e-03    1.803384721e-01
     5958000000    2.399555035e-02    1.592453718e-01
     5961000000    8.650485426e-02    1.455081254e-01
     5964000000    1.372665465e-01    1.511870474e-01
     5967000000    1.705374718e-01    1.617572606e-01
     5970000000    2.005743086e-01    1.869031638e-01
     5973000000    2.154748291e-01    2.303685844e-01
     5976000000    2.117649317e-01    2.621145844e-01
     5979000000    1.933943033e-01    2.991274595e-01
     5982000000    1.663809568e-01    3.284586668e-01
     5985000000    1.209086031e-01    3.411037326e-01
     5988000000    7.976633310e-02    3.476207554e-01
     5991000000    4.034433886e-02    3.353418112e-01
     5994000000    1.162524521e-02    3.168987334e-01
     5997000000   -1.610416919e-02    2.944611907e-01
     6000000000   -9.280662052e-03    2.492846698e-01
