! NanoVNA-App
! Date: 2026-05-22 19:01:32
! Start: 4.8GHz Stop: 6GHz Points: 401
! S-Parameter data: F S11
# Hz S RI R 50
!     Frequency           S11_Real           S11_Imag
     4800000000    1.337362379e-01    1.087408140e-01
     4803000000    8.793833852e-02    1.472703218e-01
     4806000000    3.263521940e-02    1.701692045e-01
     4809000000   -2.533004805e-02    1.739860326e-01
     4812000000   -8.475979418e-02    1.568859518e-01
     4815000000   -1.312778443e-01    1.182805076e-01
     4818000000   -1.611785293e-01    6.626337767e-02
     4821000000   -1.750753373e-01    8.188648149e-03
     4824000000   -1.668413728e-01   -5.069126934e-02
     4827000000   -1.389040053e-01   -1.042802110e-01
     4830000000   -9.534157813e-02   -1.437278241e-01
     4833000000   -4.173742607e-02   -1.665892750e-01
     4836000000    1.596637070e-02   -1.678573191e-01
     4839000000    7.102210075e-02   -1.523273140e-01
     4842000000    1.164820045e-01   -1.169063002e-01
     4845000000    1.467646211e-01   -6.953636557e-02
     4848000000    1.590983719e-01   -1.589361392e-02
     4851000000    1.518166363e-01    3.805388883e-02
     4854000000    1.264235377e-01    8.670013398e-02
     4857000000    8.895421773e-02    1.214068979e-01
     4860000000    4.075743631e-02    1.403467208e-01
     4863000000   -1.127202995e-02    1.407133341e-01
     4866000000   -5.584919825e-02    1.253447086e-01
     4869000000   -9.359038621e-02    9.297410399e-02
     4872000000   -1.150768623e-01    5.402405933e-02
     4875000000   -1.207394153e-01    8.576552384e-03
     4878000000   -1.106740683e-01   -3.553220630e-02
     4881000000   -8.725422621e-02   -7.001636177e-02
     4884000000   -5.215709284e-02   -9.253298491e-02
     4887000000   -1.776472107e-02   -1.000058651e-01
     4890000000    2.069092914e-02   -9.429150820e-02
     4893000000    5.418451503e-02   -7.275442779e-02
     4896000000    7.249338925e-02   -4.251771048e-02
     4899000000    7.892073691e-02   -1.116745360e-02
     4902000000    7.260940224e-02    2.374621108e-02
     4905000000    5.186671391e-02    5.082121864e-02
     4908000000    2.430112287e-02    6.696610898e-02
     4911000000   -6.726311985e-03    7.099687308e-02
     4914000000   -3.870546073e-02    6.025495380e-02
     4917000000   -5.880919471e-02    3.892252594e-02
     4920000000   -7.649345696e-02    6.761272438e-03
     4923000000   -7.338052243e-02   -2.387676202e-02
     4926000000   -5.951530859e-02   -5.562416837e-02
     4929000000   -3.171697259e-02   -8.130355179e-02
     4932000000   -2.624486806e-04   -8.853986859e-02
     4935000000    3.960729018e-02   -8.752672374e-02
     4938000000    7.458933443e-02   -6.823321432e-02
     4941000000    1.013730764e-01   -3.568665683e-02
     4944000000    1.157745942e-01    6.573797204e-03
     4947000000    1.068582907e-01    4.510705173e-02
     4950000000    8.742828667e-02    9.397626668e-02
     4953000000    4.945334420e-02    1.218407899e-01
     4956000000    2.029612660e-03    1.384835839e-01
     4959000000   -5.119127035e-02    1.367928535e-01
     4962000000   -1.007537842e-01    1.154358536e-01
     4965000000   -1.423524022e-01    7.586797327e-02
     4968000000   -1.643322706e-01    2.265306748e-02
     4971000000   -1.690950990e-01   -3.981309757e-02
     4974000000   -1.505281329e-01   -9.944465011e-02
     4977000000   -1.105379313e-01   -1.525396854e-01
     4980000000   -5.238276720e-02   -1.867364198e-01
     4983000000    1.530195028e-02   -2.007405460e-01
     4986000000    8.796335012e-02   -1.895222217e-01
     4989000000    1.498460174e-01   -1.520199925e-01
     4992000000    1.978141069e-01   -9.300449491e-02
     4995000000    2.229487747e-01   -2.035308443e-02
     4998000000    2.204863131e-01    5.661679059e-02
     5001000000    1.901151091e-01    1.346766949e-01
     5004000000    1.325797290e-01    1.974634230e-01
     5007000000    6.085250527e-02    2.336625010e-01
     5010000000   -2.541933395e-02    2.450822294e-01
     5013000000   -1.124692783e-01    2.244258821e-01
     5016000000   -1.857213080e-01    1.754607111e-01
     5019000000   -2.399181128e-01    1.002824903e-01
     5022000000   -2.646476924e-01    1.106337644e-02
     5025000000   -2.571372986e-01   -8.218635619e-02
     5028000000   -2.156435549e-01   -1.712836325e-01
     5031000000   -1.465769261e-01   -2.380682677e-01
     5034000000   -5.746980757e-02   -2.804191113e-01
     5037000000    4.238335788e-02   -2.877486944e-01
     5040000000    1.403657496e-01   -2.583826780e-01
     5043000000    2.223401815e-01   -1.993114352e-01
     5046000000    2.805001736e-01   -1.106704772e-01
     5049000000    3.040204346e-01   -7.164058276e-03
     5052000000    2.905744314e-01    9.827943146e-02
     5055000000    2.412995696e-01    1.954935342e-01
     5058000000    1.580469608e-01    2.685907781e-01
     5061000000    5.865505338e-02    3.121836185e-01
     5064000000   -5.535462871e-02    3.141358197e-01
     5067000000   -1.620361209e-01    2.794642746e-01
     5070000000   -2.502877712e-01    2.094191909e-01
     5073000000   -3.080207109e-01    1.104706228e-01
     5076000000   -3.304903805e-01   -8.347494877e-04
     5079000000   -3.108538389e-01   -1.167995408e-01
     5082000000   -2.528975010e-01   -2.201740742e-01
     5085000000   -1.626182795e-01   -2.958346307e-01
     5088000000   -4.936077446e-02   -3.359359205e-01
     5091000000    7.069711387e-02   -3.371870220e-01
     5094000000    1.823844612e-01   -2.908536494e-01
     5097000000    2.758369148e-01   -2.106142640e-01
     5100000000    3.341538906e-01   -1.038577929e-01
     5103000000    3.559032083e-01    1.978710294e-02
     5106000000    3.260597587e-01    1.373176277e-01
     5109000000    2.587941885e-01    2.431148142e-01
     5112000000    1.599504203e-01    3.155216277e-01
     5115000000    3.854076564e-02    3.606416881e-01
     5118000000   -8.436167985e-02    3.505827785e-01
     5121000000   -2.075771391e-01    3.015592992e-01
     5124000000   -2.966329455e-01    2.130656242e-01
     5127000000   -3.465307057e-01    9.668935090e-02
     5130000000   -3.666797578e-01   -3.092134185e-02
     5133000000   -3.354341984e-01   -1.569332927e-01
     5136000000   -2.620050609e-01   -2.636509538e-01
     5139000000   -1.548541337e-01   -3.392267227e-01
     5142000000   -2.890946344e-02   -3.741087615e-01
     5145000000    1.023831069e-01   -3.604948521e-01
     5148000000    2.222195715e-01   -3.063091934e-01
     5151000000    3.108263910e-01   -2.123693079e-01
     5154000000    3.688803017e-01   -8.975042403e-02
     5157000000    3.743796349e-01    4.105460271e-02
     5160000000    3.385991156e-01    1.694387048e-01
     5163000000    2.597341239e-01    2.738983333e-01
     5166000000    1.486170739e-01    3.458175659e-01
     5169000000    1.242214348e-02    3.872419894e-01
     5172000000   -1.112998351e-01    3.613111079e-01
     5175000000   -2.302197963e-01    3.010173738e-01
     5178000000   -3.281995952e-01    2.041698843e-01
     5181000000   -3.777661920e-01    7.712105662e-02
     5184000000   -3.782819510e-01   -4.801141471e-02
     5187000000   -3.407799304e-01   -1.864001304e-01
     5190000000   -2.561576664e-01   -2.864882052e-01
     5193000000   -1.435623318e-01   -3.599990606e-01
     5196000000   -1.085926592e-02   -3.871643245e-01
     5199000000    1.202330440e-01   -3.623902798e-01
     5202000000    2.481063455e-01   -3.009452522e-01
     5205000000    3.342225552e-01   -2.007567585e-01
     5208000000    3.794041872e-01   -7.487472892e-02
     5211000000    3.848138750e-01    7.104421407e-02
     5214000000    3.374230564e-01    1.811610162e-01
     5217000000    2.521868944e-01    2.971267104e-01
     5220000000    1.323286742e-01    3.652207851e-01
     5223000000   -3.830831498e-03    3.916499317e-01
     5226000000   -1.356593221e-01    3.668771088e-01
     5229000000   -2.474012673e-01    2.978467643e-01
     5232000000   -3.360179663e-01    1.956125647e-01
     5235000000   -3.784465194e-01    6.984236091e-02
     5238000000   -3.806528747e-01   -6.709665805e-02
     5241000000   -3.359563053e-01   -1.789205521e-01
     5244000000   -2.406920642e-01   -2.978070378e-01
     5247000000   -1.207141802e-01   -3.616340756e-01
     5250000000    9.247000329e-03   -3.808873594e-01
     5253000000    1.272877455e-01   -3.537221849e-01
     5256000000    2.528289258e-01   -2.848921716e-01
     5259000000    3.355460465e-01   -1.802392751e-01
     5262000000    3.752783835e-01   -5.191192403e-02
     5265000000    3.717359900e-01    8.160515875e-02
     5268000000    3.142117262e-01    2.153162509e-01
     5271000000    2.313116938e-01    2.922473252e-01
     5274000000    1.105894297e-01    3.563357294e-01
     5277000000    4.154972266e-04    3.671343923e-01
     5280000000   -1.644622386e-01    3.341621161e-01
     5283000000   -2.460181713e-01    2.700048685e-01
     5286000000   -3.258109987e-01    1.649127901e-01
     5289000000   -3.600771129e-01    4.069549963e-02
     5292000000   -3.514598012e-01   -8.626227826e-02
     5295000000   -2.985218763e-01   -2.013318688e-01
     5298000000   -2.155939341e-01   -2.884628177e-01
     5301000000   -9.270330518e-02   -3.465496898e-01
     5304000000    3.841637447e-02   -3.545382321e-01
     5307000000    1.545967460e-01   -3.186147809e-01
     5310000000    2.524736822e-01   -2.434052080e-01
     5313000000    3.200805485e-01   -1.423829347e-01
     5316000000    3.455254734e-01   -2.063821629e-02
     5319000000    3.308430314e-01    9.902826697e-02
     5322000000    2.722707093e-01    2.098898888e-01
     5325000000    1.788901687e-01    2.914099693e-01
     5328000000    6.423223019e-02    3.345588744e-01
     5331000000   -5.285730958e-02    3.357547820e-01
     5334000000   -1.722359508e-01    2.911304832e-01
     5337000000   -2.604274154e-01    2.150433213e-01
     5340000000   -3.203996718e-01    1.087373644e-01
     5343000000   -3.347795904e-01   -1.197683718e-02
     5346000000   -3.112879694e-01   -1.221559793e-01
     5349000000   -2.445071787e-01   -2.264523655e-01
     5352000000   -1.460867673e-01   -2.958272099e-01
     5355000000   -3.853821754e-02   -3.254298270e-01
     5358000000    7.299672067e-02   -3.194651306e-01
     5361000000    1.865077913e-01   -2.666366994e-01
     5364000000    2.605981827e-01   -1.915403008e-01
     5367000000    3.089193404e-01   -6.976299733e-02
     5370000000    3.248543739e-01    2.003175020e-02
     5373000000    2.717858851e-01    1.512053609e-01
     5376000000    2.175362706e-01    2.317373157e-01
     5379000000    1.150807589e-01    2.903172970e-01
     5382000000    9.446235374e-03    3.146581054e-01
     5385000000   -1.079721153e-01    2.930633128e-01
     5388000000   -2.070938349e-01    2.228914201e-01
     5391000000   -2.685450613e-01    1.452734917e-01
     5394000000   -3.050954640e-01    4.663749784e-02
     5397000000   -3.027543724e-01   -6.348863244e-02
     5400000000   -2.605321705e-01   -1.683559269e-01
     5403000000   -1.767684817e-01   -2.484093457e-01
     5406000000   -7.750981301e-02   -2.943528295e-01
     5409000000    2.712182701e-02   -3.052159548e-01
     5412000000    1.354727447e-01   -2.696094513e-01
     5415000000    2.195674926e-01   -2.066575289e-01
     5418000000    2.774497271e-01   -1.148803905e-01
     5421000000    3.007745147e-01   -1.146731526e-02
     5424000000    2.891487479e-01    9.147761762e-02
     5427000000    2.239357680e-01    1.900048852e-01
     5430000000    1.635454446e-01    2.629022300e-01
     5433000000    5.163343251e-02    2.959965765e-01
     5436000000   -5.547161773e-02    2.934057117e-01
     5439000000   -1.581548750e-01    2.447716743e-01
     5442000000   -2.374301404e-01    1.834932864e-01
     5445000000   -2.846233547e-01    8.366205543e-02
     5448000000   -2.869393826e-01   -2.724469267e-02
     5451000000   -2.706742883e-01   -1.226965412e-01
     5454000000   -2.038218230e-01   -2.130635679e-01
     5457000000   -1.148222014e-01   -2.726220191e-01
     5460000000   -1.747850887e-02   -2.999560535e-01
     5463000000    9.070666879e-02   -2.788049877e-01
     5466000000    1.830446571e-01   -2.282219529e-01
     5469000000    2.544597387e-01   -1.514220834e-01
     5472000000    2.920038700e-01   -5.206523463e-02
     5475000000    2.862291336e-01    5.727393925e-02
     5478000000    2.532921731e-01    1.557675302e-01
     5481000000    1.777900010e-01    2.329426706e-01
     5484000000    9.027475119e-02    2.911583185e-01
     5487000000   -2.297108248e-02    2.881032228e-01
     5490000000   -1.230555549e-01    2.811207175e-01
     5493000000   -2.100888640e-01    2.092952579e-01
     5496000000   -2.732572854e-01    1.303454787e-01
     5499000000   -3.097994924e-01    2.639973164e-02
     5502000000   -2.868982852e-01   -8.717963099e-02
     5505000000   -2.441617101e-01   -1.841233522e-01
     5508000000   -1.636069268e-01   -2.583459020e-01
     5511000000   -6.118574739e-02   -2.938434482e-01
     5514000000    4.342896491e-02   -3.009050488e-01
     5517000000    1.496775448e-01   -2.677661777e-01
     5520000000    2.375747561e-01   -2.016584277e-01
     5523000000    2.912405133e-01   -1.047457457e-01
     5526000000    3.054615259e-01    3.552030539e-03
     5529000000    2.916682661e-01    1.149027720e-01
     5532000000    2.260919958e-01    2.056804448e-01
     5535000000    1.431871951e-01    2.757143974e-01
     5538000000    3.697450832e-02    3.141953051e-01
     5541000000   -7.323591411e-02    2.981657684e-01
     5544000000   -1.769783795e-01    2.587774694e-01
     5547000000   -2.516933978e-01    1.785834432e-01
     5550000000   -3.056270778e-01    7.942356914e-02
     5553000000   -3.148138821e-01   -2.932434529e-02
     5556000000   -2.847200930e-01   -1.379548460e-01
     5559000000   -2.198559493e-01   -2.303090394e-01
     5562000000   -1.263693869e-01   -2.937875092e-01
     5565000000   -1.774793863e-02   -3.170963526e-01
     5568000000    9.602402151e-02   -3.056597412e-01
     5571000000    1.963923424e-01   -2.514925003e-01
     5574000000    2.696417570e-01   -1.671526432e-01
     5577000000    3.127960861e-01   -6.183305755e-02
     5580000000    3.152317405e-01    5.406254530e-02
     5583000000    2.747056484e-01    1.589690298e-01
     5586000000    2.050087899e-01    2.417046279e-01
     5589000000    1.034663022e-01    3.013404608e-01
     5592000000   -7.027168758e-03    3.182413280e-01
     5595000000   -1.156602055e-01    2.965669036e-01
     5598000000   -2.129072398e-01    2.355727106e-01
     5601000000   -2.828049660e-01    1.456925124e-01
     5604000000   -3.183995783e-01    3.583597764e-02
     5607000000   -3.111533225e-01   -7.549268752e-02
     5610000000   -2.675964832e-01   -1.731225252e-01
     5613000000   -1.841560751e-01   -2.614991665e-01
     5616000000   -8.409719914e-02   -3.084080219e-01
     5619000000    2.798659541e-02   -3.188589811e-01
     5622000000    1.370777190e-01   -2.900288403e-01
     5625000000    2.282626033e-01   -2.260398865e-01
     5628000000    2.934012115e-01   -1.248300225e-01
     5631000000    3.203125000e-01   -2.899191156e-02
     5634000000    3.042659760e-01    8.837597072e-02
     5637000000    2.496446818e-01    1.915430278e-01
     5640000000    1.685463041e-01    2.617433965e-01
     5643000000    6.801261008e-02    3.010490239e-01
     5646000000   -4.360754415e-02    3.030278981e-01
     5649000000   -1.457653493e-01    2.686484456e-01
     5652000000   -2.286531478e-01    2.026672363e-01
     5655000000   -2.842614651e-01    1.032114103e-01
     5658000000   -2.996546328e-01   -4.961678758e-03
     5661000000   -2.796065509e-01   -1.081610844e-01
     5664000000   -2.210253030e-01   -1.998905241e-01
     5667000000   -1.405079216e-01   -2.642883062e-01
     5670000000   -3.671514615e-02   -2.962477803e-01
     5673000000    6.996880472e-02   -2.881139815e-01
     5676000000    1.658304483e-01   -2.469794005e-01
     5679000000    2.378708571e-01   -1.670484841e-01
     5682000000    2.806355953e-01   -7.161884755e-02
     5685000000    2.954258919e-01    2.829421684e-02
     5688000000    2.607879639e-01    1.277543306e-01
     5691000000    1.911858469e-01    2.060341984e-01
     5694000000    1.106730476e-01    2.661699057e-01
     5697000000    1.353406347e-02    2.894847393e-01
     5700000000   -8.641165495e-02    2.620243728e-01
     5703000000   -1.753606051e-01    2.157001048e-01
     5706000000   -2.336137295e-01    1.338672936e-01
     5709000000   -2.556731701e-01    3.997539729e-02
     5712000000   -2.552938163e-01   -5.601839721e-02
     5715000000   -2.236398607e-01   -1.452935934e-01
     5718000000   -1.508713514e-01   -2.148752064e-01
     5721000000   -5.960677564e-02   -2.453506291e-01
     5724000000    3.253328055e-02   -2.534967661e-01
     5727000000    1.212659553e-01   -2.212191969e-01
     5730000000    1.931215674e-01   -1.598944217e-01
     5733000000    2.377528399e-01   -7.738377899e-02
     5736000000    2.387145311e-01    1.591692679e-02
     5739000000    2.231568545e-01    1.026237383e-01
     5742000000    1.663637757e-01    1.760173440e-01
     5745000000    8.986788988e-02    2.265619487e-01
     5748000000    6.150058471e-04    2.510282099e-01
     5751000000   -8.887251467e-02    2.248998135e-01
     5754000000   -1.734308004e-01    1.851379275e-01
     5757000000   -2.110138685e-01    9.899722040e-02
     5760000000   -2.446707636e-01    1.297415141e-02
     5763000000   -2.370150387e-01   -7.812023163e-02
     5766000000   -1.835447848e-01   -1.511909217e-01
     5769000000   -1.120542735e-01   -2.125676870e-01
     5772000000   -2.490879782e-02   -2.349901944e-01
     5775000000    6.986258924e-02   -2.344929278e-01
     5778000000    1.590276062e-01   -2.008953989e-01
     5781000000    2.199462205e-01   -1.251825988e-01
     5784000000    2.481908798e-01   -3.228207305e-02
     5787000000    2.532451153e-01    6.550913304e-02
     5790000000    2.130773962e-01    1.562571526e-01
     5793000000    1.448930055e-01    2.325319350e-01
     5796000000    4.921136424e-02    2.707794905e-01
     5799000000   -5.523463339e-02    2.777637243e-01
     5802000000   -1.545571387e-01    2.441992611e-01
     5805000000   -2.364846468e-01    1.733460575e-01
     5808000000   -2.966582179e-01    8.025670052e-02
     5811000000   -3.099776506e-01   -3.173121437e-02
     5814000000   -2.877462804e-01   -1.437224150e-01
     5817000000   -2.211730480e-01   -2.403782308e-01
     5820000000   -1.210122332e-01   -3.073056638e-01
     5823000000   -6.344984286e-03   -3.350370824e-01
     5826000000    1.169953197e-01   -3.234908581e-01
     5829000000    2.284807116e-01   -2.676215768e-01
     5832000000    3.114717901e-01   -1.715363711e-01
     5835000000    3.601364195e-01   -5.053711310e-02
     5838000000    3.533670306e-01    7.269509137e-02
     5841000000    3.099404871e-01    2.027221471e-01
     5844000000    2.239063382e-01    2.955231667e-01
     5847000000    1.027095914e-01    3.687644005e-01
     5850000000   -3.270423412e-02    3.870190382e-01
     5853000000   -1.715400517e-01    3.546857536e-01
     5856000000   -2.886622250e-01    2.777372003e-01
     5859000000   -3.694774806e-01    1.627932489e-01
     5862000000   -4.095867276e-01    2.273295633e-02
     5865000000   -3.984974623e-01   -1.264294833e-01
     5868000000   -3.330265880e-01   -2.488062382e-01
     5871000000   -2.226283252e-01   -3.630820513e-01
     5874000000   -8.795429766e-02   -4.167309701e-01
     5877000000    7.173250616e-02   -4.291740656e-01
     5880000000    2.006155699e-01   -3.812832534e-01
     5883000000    3.527380526e-01   -2.812197804e-01
     5886000000    4.195514917e-01   -1.468682289e-01
     5889000000    4.437411129e-01   -3.485538182e-04
     5892000000    4.201279283e-01    1.604524106e-01
     5895000000    3.473414183e-01    2.757772505e-01
     5898000000    2.073973268e-01    4.123384953e-01
     5901000000    9.674537927e-02    4.315558672e-01
     5904000000   -1.037185416e-01    4.452316761e-01
     5907000000   -2.399338186e-01    3.856230378e-01
     5910000000   -3.445205688e-01    2.893290222e-01
     5913000000   -4.396519363e-01    1.257188618e-01
     5916000000   -4.553694129e-01   -2.028457262e-02
     5919000000   -4.167097807e-01   -1.799064279e-01
     5922000000   -3.295577466e-01   -3.098790050e-01
     5925000000   -1.967261136e-01   -4.109061658e-01
     5928000000   -4.145954177e-02   -4.501572251e-01
     5931000000    1.121164337e-01   -4.345650077e-01
     5934000000    2.562502027e-01   -3.668824732e-01
     5937000000    3.669881523e-01   -2.530892491e-01
     5940000000    4.295713007e-01   -1.080901176e-01
     5943000000    4.355265796e-01    4.477516189e-02
     5946000000    3.837350309e-01    2.093021721e-01
     5949000000    3.026080728e-01    3.079998493e-01
     5952000000    1.652691066e-01    3.951095641e-01
     5955000000   -2.546963049e-03    4.256671667e-01
     5958000000   -1.480737925e-01    3.938868940e-01
     5961000000   -2.576615810e-01    3.218558729e-01
     5964000000   -3.545204997e-01    2.030158937e-01
     5967000000   -3.965882063e-01    6.730118394e-02
     5970000000   -3.894421756e-01   -8.996162564e-02
     5973000000   -3.206900954e-01   -2.237492651e-01
     5976000000   -2.321561724e-01   -3.085683584e-01
     5979000000   -9.622482210e-02   -3.694391251e-01
     5982000000    3.292151913e-02   -3.706622720e-01
     5985000000    1.660266817e-01   -3.278832734e-01
     5988000000    2.718229592e-01   -2.393694818e-01
     5991000000    3.364400566e-01   -1.216115281e-01
     5994000000    3.511377871e-01    1.012938190e-02
     5997000000    3.177073002e-01    1.308458745e-01
     6000000000    2.421751320e-01    2.326055765e-01
