! NanoVNA-App
! Date: 2026-05-25 01:54:57
! Start: 2.3GHz Stop: 2.6GHz Points: 401
! S-Parameter data: F S11
# Hz S RI R 50
!     Frequency           S11_Real           S11_Imag
     2300000000    4.150036573e-01    1.906508021e-02
     2300750000    4.084680676e-01    5.581092089e-02
     2301500000    4.015592337e-01    8.323907852e-02
     2302250000    3.896572590e-01    1.188424230e-01
     2303000000    3.752872944e-01    1.524774730e-01
     2303750000    3.588018715e-01    1.814093143e-01
     2304500000    3.408342004e-01    2.084076405e-01
     2305250000    3.184368908e-01    2.373304963e-01
     2306000000    2.965154350e-01    2.612824440e-01
     2306750000    2.729268372e-01    2.819507718e-01
     2307500000    2.457820624e-01    3.027428091e-01
     2308250000    2.139036953e-01    3.224669099e-01
     2309000000    1.870820969e-01    3.356544673e-01
     2309750000    1.561664045e-01    3.484670222e-01
     2310500000    1.258052737e-01    3.578234613e-01
     2311250000    9.122900665e-02    3.656574190e-01
     2312000000    5.898138136e-02    3.699391782e-01
     2312750000    2.828751691e-02    3.711085916e-01
     2313500000   -3.340015188e-03    3.703781664e-01
     2314250000   -3.524333984e-02    3.660325110e-01
     2315000000   -6.615877897e-02    3.604153395e-01
     2315750000   -9.905182570e-02    3.501861393e-01
     2316500000   -1.285287887e-01    3.378095329e-01
     2317250000   -1.531773061e-01    3.255870640e-01
     2318000000   -1.809357107e-01    3.090787530e-01
     2318750000   -2.074241489e-01    2.893044353e-01
     2319500000   -2.289218009e-01    2.700366378e-01
     2320250000   -2.506560981e-01    2.475092709e-01
     2321000000   -2.705511451e-01    2.229915410e-01
     2321750000   -2.857700884e-01    2.013822347e-01
     2322500000   -3.023699224e-01    1.696323752e-01
     2323250000   -3.129190803e-01    1.460441351e-01
     2324000000   -3.231058419e-01    1.179665551e-01
     2324750000   -3.299016058e-01    8.793919533e-02
     2325500000   -3.349718750e-01    6.069626287e-02
     2326250000   -3.367742598e-01    3.217033297e-02
     2327000000   -3.353810012e-01   -7.753818645e-04
     2327750000   -3.337880373e-01   -2.486174367e-02
     2328500000   -3.275923431e-01   -5.398479477e-02
     2329250000   -3.203899264e-01   -8.137806505e-02
     2330000000   -3.092751205e-01   -1.092103049e-01
     2330750000   -2.961188555e-01   -1.355132759e-01
     2331500000   -2.838453650e-01   -1.568216234e-01
     2332250000   -2.646807730e-01   -1.815978289e-01
     2333000000   -2.476365268e-01   -2.014289349e-01
     2333750000   -2.284450233e-01   -2.195984870e-01
     2334500000   -2.079660743e-01   -2.364079654e-01
     2335250000   -1.867636889e-01   -2.511942387e-01
     2336000000   -1.609442681e-01   -2.647200227e-01
     2336750000   -1.355840117e-01   -2.751871347e-01
     2337500000   -1.117911935e-01   -2.837459445e-01
     2338250000   -8.483833820e-02   -2.900606096e-01
     2339000000   -5.928585306e-02   -2.939782143e-01
     2339750000   -3.346639499e-02   -2.955660224e-01
     2340500000   -6.642025895e-03   -2.949821651e-01
     2341250000    1.866362244e-02   -2.921158373e-01
     2342000000    4.402341694e-02   -2.861988544e-01
     2342750000    6.827312708e-02   -2.796781659e-01
     2343500000    9.148269147e-02   -2.702949047e-01
     2344250000    1.161742955e-01   -2.572046220e-01
     2345000000    1.359609067e-01   -2.451168597e-01
     2345750000    1.562949270e-01   -2.297103107e-01
     2346500000    1.750769317e-01   -2.132304013e-01
     2347250000    1.915373951e-01   -1.953883320e-01
     2348000000    2.066670209e-01   -1.763321757e-01
     2348750000    2.214296609e-01   -1.521922350e-01
     2349500000    2.320798188e-01   -1.366291940e-01
     2350250000    2.420507818e-01   -1.120154783e-01
     2351000000    2.497708350e-01   -8.570656180e-02
     2351750000    2.552673221e-01   -6.842078269e-02
     2352500000    2.573615015e-01   -4.073442519e-02
     2353250000    2.598951161e-01   -2.120118961e-02
     2354000000    2.579391897e-01    4.898509942e-03
     2354750000    2.553076148e-01    2.611111663e-02
     2355500000    2.523063421e-01    4.675221816e-02
     2356250000    2.438997030e-01    6.986888498e-02
     2357000000    2.357293516e-01    8.947351575e-02
     2357750000    2.247791588e-01    1.099483818e-01
     2358500000    2.135389447e-01    1.282310784e-01
     2359250000    1.997513324e-01    1.455134749e-01
     2360000000    1.848249137e-01    1.617447287e-01
     2360750000    1.706635058e-01    1.758792698e-01
     2361500000    1.503552496e-01    1.894736439e-01
     2362250000    1.336150616e-01    2.000861764e-01
     2363000000    1.149427444e-01    2.102794796e-01
     2363750000    9.261895716e-02    2.173600346e-01
     2364500000    7.552362233e-02    2.234505713e-01
     2365250000    5.497719720e-02    2.273059487e-01
     2366000000    3.457570449e-02    2.293395996e-01
     2366750000    1.393316407e-02    2.295708507e-01
     2367500000   -6.386873312e-03    2.277555317e-01
     2368250000   -2.666228078e-02    2.235346138e-01
     2369000000   -4.486288503e-02    2.191923410e-01
     2369750000   -6.326961517e-02    2.123696059e-01
     2370500000   -8.125516772e-02    2.030075639e-01
     2371250000   -9.804894775e-02    1.928533763e-01
     2372000000   -1.134565026e-01    1.806570888e-01
     2372750000   -1.280637532e-01    1.683226228e-01
     2373500000   -1.412828267e-01    1.538992375e-01
     2374250000   -1.531731784e-01    1.386114210e-01
     2375000000   -1.639777422e-01    1.212664098e-01
     2375750000   -1.728404611e-01    1.070087776e-01
     2376500000   -1.795795411e-01    8.516863734e-02
     2377250000   -1.854355335e-01    7.006967813e-02
     2378000000   -1.902816743e-01    5.384204164e-02
     2378750000   -1.911611855e-01    3.206196800e-02
     2379500000   -1.947382241e-01    1.559646241e-02
     2380250000   -1.937535405e-01   -2.675930969e-03
     2381000000   -1.912044436e-01   -2.071258239e-02
     2381750000   -1.859430373e-01   -3.934663162e-02
     2382500000   -1.796540618e-01   -5.643297732e-02
     2383250000   -1.742879003e-01   -7.214886695e-02
     2384000000   -1.636539400e-01   -8.818356693e-02
     2384750000   -1.549936980e-01   -1.020358205e-01
     2385500000   -1.462986916e-01   -1.149604172e-01
     2386250000   -1.323859543e-01   -1.275974810e-01
     2387000000   -1.163360476e-01   -1.390682608e-01
     2387750000   -1.040315852e-01   -1.481656879e-01
     2388500000   -9.120795131e-02   -1.567942500e-01
     2389250000   -7.379172742e-02   -1.629694402e-01
     2390000000   -5.843858048e-02   -1.682075858e-01
     2390750000   -4.219767824e-02   -1.724582165e-01
     2391500000   -2.523537166e-02   -1.738411933e-01
     2392250000   -8.705723099e-03   -1.738357842e-01
     2393000000    7.160260808e-03   -1.735411882e-01
     2393750000    2.346899733e-02   -1.708023995e-01
     2394500000    3.850843757e-02   -1.677026004e-01
     2395250000    5.381636322e-02   -1.623473167e-01
     2396000000    6.816585362e-02   -1.547388732e-01
     2396750000    8.190599084e-02   -1.469319910e-01
     2397500000    9.419804066e-02   -1.383806318e-01
     2398250000    1.061817855e-01   -1.277257502e-01
     2399000000    1.167769879e-01   -1.164979115e-01
     2399750000    1.265070140e-01   -1.040308326e-01
     2400500000    1.348084956e-01   -9.176364541e-02
     2401250000    1.415210813e-01   -7.709786296e-02
     2402000000    1.463832110e-01   -6.176888943e-02
     2402750000    1.511521190e-01   -4.834587872e-02
     2403500000    1.538556516e-01   -3.285359964e-02
     2404250000    1.557687968e-01   -1.859912835e-02
     2405000000    1.549835503e-01   -1.974942861e-03
     2405750000    1.533896327e-01    1.314420160e-02
     2406500000    1.507768184e-01    2.837059833e-02
     2407250000    1.461000443e-01    4.288979992e-02
     2408000000    1.416054517e-01    5.622646213e-02
     2408750000    1.345856786e-01    6.979043782e-02
     2409500000    1.267232150e-01    8.239611983e-02
     2410250000    1.180651262e-01    9.417296946e-02
     2411000000    1.075880304e-01    1.048743203e-01
     2411750000    9.711961448e-02    1.142315790e-01
     2412500000    8.510415256e-02    1.229194999e-01
     2413250000    7.249090075e-02    1.299902797e-01
     2414000000    5.977049470e-02    1.359212846e-01
     2414750000    4.599017650e-02    1.408695728e-01
     2415500000    3.303707018e-02    1.447717845e-01
     2416250000    1.845595799e-02    1.463626623e-01
     2417000000    4.149828106e-03    1.473953277e-01
     2417750000   -1.137664728e-02    1.455750912e-01
     2418500000   -2.471348457e-02    1.444664299e-01
     2419250000   -3.907596692e-02    1.411684006e-01
     2420000000   -5.202707276e-02    1.370716691e-01
     2420750000   -6.518498808e-02    1.311557293e-01
     2421500000   -7.757712156e-02    1.236871704e-01
     2422250000   -8.937125653e-02    1.165061817e-01
     2423000000   -1.005144715e-01    1.063019261e-01
     2423750000   -1.100253984e-01    9.631478041e-02
     2424500000   -1.190906391e-01    8.595232666e-02
     2425250000   -1.264399886e-01    7.246091962e-02
     2426000000   -1.340733320e-01    6.266664714e-02
     2426750000   -1.381896436e-01    4.730960727e-02
     2427500000   -1.430499405e-01    3.635431826e-02
     2428250000   -1.456767470e-01    2.234710567e-02
     2429000000   -1.479239464e-01    8.778197691e-03
     2429750000   -1.481188685e-01   -5.094445311e-03
     2430500000   -1.461151838e-01   -1.882658899e-02
     2431250000   -1.441643685e-01   -3.164730966e-02
     2432000000   -1.403471977e-01   -4.535719380e-02
     2432750000   -1.372234821e-01   -5.732088536e-02
     2433500000   -1.272234321e-01   -7.088774443e-02
     2434250000   -1.231671944e-01   -8.156736195e-02
     2435000000   -1.149190813e-01   -9.235654771e-02
     2435750000   -1.017677635e-01   -1.028945372e-01
     2436500000   -9.357265383e-02   -1.119317189e-01
     2437250000   -8.267892152e-02   -1.200709194e-01
     2438000000   -6.994743645e-02   -1.273090988e-01
     2438750000   -5.698315799e-02   -1.331138909e-01
     2439500000   -4.498216137e-02   -1.386443228e-01
     2440250000   -3.259649500e-02   -1.425377578e-01
     2441000000   -1.854406297e-02   -1.452906728e-01
     2441750000   -3.471484408e-03   -1.454285532e-01
     2442500000    1.089154463e-02   -1.444304138e-01
     2443250000    2.277749218e-02   -1.454671770e-01
     2444000000    3.715316206e-02   -1.414552182e-01
     2444750000    5.002657324e-02   -1.384299397e-01
     2445500000    6.255339831e-02   -1.341282725e-01
     2446250000    7.431276143e-02   -1.273695529e-01
     2447000000    8.593220264e-02   -1.206666827e-01
     2447750000    9.694569558e-02   -1.109186038e-01
     2448500000    1.061404496e-01   -1.043919697e-01
     2449250000    1.152044684e-01   -9.332074225e-02
     2450000000    1.227808744e-01   -8.303654939e-02
     2450750000    1.291354746e-01   -7.021690160e-02
     2451500000    1.348998696e-01   -5.830505863e-02
     2452250000    1.391301453e-01   -4.531984404e-02
     2453000000    1.428398043e-01   -3.243307397e-02
     2453750000    1.448944956e-01   -1.955848560e-02
     2454500000    1.451653838e-01   -5.232885946e-03
     2455250000    1.461065412e-01    7.072932087e-03
     2456000000    1.435432583e-01    2.130087093e-02
     2456750000    1.396828592e-01    3.536628187e-02
     2457500000    1.381430179e-01    4.690383747e-02
     2458250000    1.314799935e-01    5.965589359e-02
     2459000000    1.262785196e-01    7.135584950e-02
     2459750000    1.186393201e-01    8.205451816e-02
     2460500000    1.099127308e-01    9.284718335e-02
     2461250000    1.015532315e-01    1.023861021e-01
     2462000000    9.023004770e-02    1.105301902e-01
     2462750000    8.026389778e-02    1.184374839e-01
     2463500000    6.842894107e-02    1.247074679e-01
     2464250000    5.692480505e-02    1.299435794e-01
     2465000000    4.357344285e-02    1.337572932e-01
     2465750000    3.100564703e-02    1.371716410e-01
     2466500000    1.759858802e-02    1.385113448e-01
     2467250000    5.993407220e-03    1.402550787e-01
     2468000000   -9.020267986e-03    1.370631009e-01
     2468750000   -2.111813053e-02    1.358621567e-01
     2469500000   -3.449547291e-02    1.329500675e-01
     2470250000   -4.686193168e-02    1.269798726e-01
     2471000000   -5.871149525e-02    1.223641485e-01
     2471750000   -6.976664811e-02    1.150126755e-01
     2472500000   -8.011449873e-02    1.086794287e-01
     2473250000   -9.088899940e-02    1.011415198e-01
     2474000000   -9.927367419e-02    8.857156336e-02
     2474750000   -1.078986675e-01    7.796156406e-02
     2475500000   -1.160197333e-01    6.974045187e-02
     2476250000   -1.203965247e-01    5.516223237e-02
     2477000000   -1.256183982e-01    4.361376911e-02
     2477750000   -1.300643981e-01    3.141402081e-02
     2478500000   -1.323543787e-01    1.830106974e-02
     2479250000   -1.332238019e-01    5.305884406e-03
     2480000000   -1.317357868e-01   -8.559559472e-03
     2480750000   -1.316068619e-01   -2.125795372e-02
     2481500000   -1.280464232e-01   -3.437700123e-02
     2482250000   -1.243572831e-01   -4.727207869e-02
     2483000000   -1.189346686e-01   -5.937493965e-02
     2483750000   -1.125413179e-01   -7.065143436e-02
     2484500000   -1.054201499e-01   -8.207894862e-02
     2485250000   -9.704882652e-02   -9.207204729e-02
     2486000000   -8.843931556e-02   -1.017863825e-01
     2486750000   -7.705452293e-02   -1.102880761e-01
     2487500000   -6.531691551e-02   -1.171457097e-01
     2488250000   -5.248862877e-02   -1.237528622e-01
     2489000000   -4.041687772e-02   -1.291395426e-01
     2489750000   -2.766019292e-02   -1.336263120e-01
     2490500000   -1.308397576e-02   -1.360824853e-01
     2491250000    2.018634987e-04   -1.386027336e-01
     2492000000    1.429739874e-02   -1.384707242e-01
     2492750000    2.847530134e-02   -1.384201795e-01
     2493500000    4.155267030e-02   -1.365168393e-01
     2494250000    5.585761741e-02   -1.316886246e-01
     2495000000    6.903686374e-02   -1.275039017e-01
     2495750000    8.123829961e-02   -1.207508147e-01
     2496500000    9.345549345e-02   -1.138263568e-01
     2497250000    1.046594828e-01   -1.063912064e-01
     2498000000    1.143738851e-01   -9.505578876e-02
     2498750000    1.248220056e-01   -8.706756681e-02
     2499500000    1.328655779e-01   -7.413733006e-02
     2500250000    1.398997456e-01   -6.211793050e-02
     2501000000    1.462103724e-01   -4.968083277e-02
     2501750000    1.519551575e-01   -3.724093363e-02
     2502500000    1.545960903e-01   -2.203059010e-02
     2503250000    1.565812081e-01   -6.897448096e-03
     2504000000    1.581758112e-01    7.023076992e-03
     2504750000    1.592223495e-01    2.108115517e-02
     2505500000    1.550672799e-01    3.680069372e-02
     2506250000    1.527040899e-01    5.072127655e-02
     2507000000    1.463486254e-01    6.616248190e-02
     2507750000    1.432304531e-01    7.916718721e-02
     2508500000    1.340004206e-01    9.222106636e-02
     2509250000    1.264660060e-01    1.056701764e-01
     2510000000    1.174359694e-01    1.169079766e-01
     2510750000    1.039618626e-01    1.280195862e-01
     2511500000    9.166941792e-02    1.368806809e-01
     2512250000    8.022005856e-02    1.463166922e-01
     2513000000    6.582877785e-02    1.533327103e-01
     2513750000    5.123049393e-02    1.595399529e-01
     2514500000    3.495549411e-02    1.640698463e-01
     2515250000    1.997199655e-02    1.682854295e-01
     2516000000    3.568602493e-03    1.706126332e-01
     2516750000   -1.310623251e-02    1.711532623e-01
     2517500000   -2.997749485e-02    1.703132689e-01
     2518250000   -4.709455371e-02    1.674126238e-01
     2519000000   -6.245106459e-02    1.657356322e-01
     2519750000   -7.894041389e-02    1.589659899e-01
     2520500000   -9.416393191e-02    1.521832794e-01
     2521250000   -1.093685478e-01    1.435358524e-01
     2522000000   -1.234301552e-01    1.333686411e-01
     2522750000   -1.364195943e-01    1.229292452e-01
     2523500000   -1.485181451e-01    1.085368618e-01
     2524250000   -1.598495990e-01    9.620513022e-02
     2525000000   -1.696637273e-01    8.155258745e-02
     2525750000   -1.787439287e-01    6.608863920e-02
     2526500000   -1.853396297e-01    4.891509190e-02
     2527250000   -1.915264726e-01    3.189320117e-02
     2528000000   -1.953477859e-01    1.360141300e-02
     2528750000   -1.991428584e-01   -3.399544396e-03
     2529500000   -1.997595727e-01   -2.192019112e-02
     2530250000   -1.979630291e-01   -4.106027633e-02
     2531000000   -1.952690184e-01   -5.916118249e-02
     2531750000   -1.909492016e-01   -7.757164538e-02
     2532500000   -1.855386943e-01   -9.543175250e-02
     2533250000   -1.766494215e-01   -1.127918884e-01
     2534000000   -1.687393337e-01   -1.297384202e-01
     2534750000   -1.561991423e-01   -1.454429328e-01
     2535500000   -1.451646686e-01   -1.603716463e-01
     2536250000   -1.307053715e-01   -1.745396107e-01
     2537000000   -1.145958900e-01   -1.876248568e-01
     2537750000   -9.824910760e-02   -1.984135360e-01
     2538500000   -8.071911335e-02   -2.084930539e-01
     2539250000   -6.161684543e-02   -2.167917043e-01
     2540000000   -4.149245843e-02   -2.236131877e-01
     2540750000   -2.094083652e-02   -2.283160090e-01
     2541500000   -4.694760428e-04   -2.320888042e-01
     2542250000    2.107151225e-02   -2.335110456e-01
     2543000000    4.309780151e-02   -2.328880280e-01
     2543750000    6.412634254e-02   -2.303557247e-01
     2544500000    8.524899185e-02   -2.259290963e-01
     2545250000    1.066985503e-01   -2.200443298e-01
     2546000000    1.276474446e-01   -2.116497010e-01
     2546750000    1.477696896e-01   -2.008422762e-01
     2547500000    1.665556431e-01   -1.890668422e-01
     2548250000    1.852472574e-01   -1.755649000e-01
     2549000000    2.018221170e-01   -1.599812955e-01
     2549750000    2.182152867e-01   -1.407166719e-01
     2550500000    2.325633615e-01   -1.261409968e-01
     2551250000    2.450614125e-01   -1.030055135e-01
     2552000000    2.549419701e-01   -8.170551062e-02
     2552750000    2.644514143e-01   -5.948495120e-02
     2553500000    2.721259892e-01   -3.715372831e-02
     2554250000    2.777122855e-01   -1.224518660e-02
     2555000000    2.800584733e-01    1.172183547e-02
     2555750000    2.796884775e-01    3.909385577e-02
     2556500000    2.824102342e-01    6.109195203e-02
     2557250000    2.755614519e-01    8.789998293e-02
     2558000000    2.708160281e-01    1.126252562e-01
     2558750000    2.624600232e-01    1.367747635e-01
     2559500000    2.544505298e-01    1.613721848e-01
     2560250000    2.408948094e-01    1.847402900e-01
     2561000000    2.243119478e-01    2.072488517e-01
     2561750000    2.097657919e-01    2.284373492e-01
     2562500000    1.908576190e-01    2.481599003e-01
     2563250000    1.708490252e-01    2.660048902e-01
     2564000000    1.503277421e-01    2.828021049e-01
     2564750000    1.252841651e-01    2.977902591e-01
     2565500000    9.928832948e-02    3.106662929e-01
     2566250000    7.421655208e-02    3.216324449e-01
     2567000000    4.656134173e-02    3.303088546e-01
     2567750000    2.024639025e-02    3.371252120e-01
     2568500000   -9.413210675e-03    3.409501910e-01
     2569250000   -3.825032339e-02    3.423849940e-01
     2570000000   -6.815184653e-02    3.415030241e-01
     2570750000   -9.665713459e-02    3.385592103e-01
     2571500000   -1.262502670e-01    3.316828012e-01
     2572250000   -1.548185796e-01    3.234403729e-01
     2573000000   -1.832285523e-01    3.119289577e-01
     2573750000   -2.105767280e-01    2.985309064e-01
     2574500000   -2.369904518e-01    2.822313309e-01
     2575250000   -2.613862753e-01    2.658221126e-01
     2576000000   -2.855186760e-01    2.436383516e-01
     2576750000   -3.076715171e-01    2.207188755e-01
     2577500000   -3.269438744e-01    1.962988377e-01
     2578250000   -3.453074396e-01    1.697361618e-01
     2579000000   -3.611365855e-01    1.415102631e-01
     2579750000   -3.749552965e-01    1.130416691e-01
     2580500000   -3.854504526e-01    8.270575106e-02
     2581250000   -3.942118287e-01    5.003056303e-02
     2582000000   -4.002494514e-01    1.800670289e-02
     2582750000   -4.030659199e-01   -1.473831665e-02
     2583500000   -4.040859044e-01   -4.855664074e-02
     2584250000   -4.005852044e-01   -8.328723162e-02
     2585000000   -3.956227005e-01   -1.158861592e-01
     2585750000   -3.873581588e-01   -1.493658125e-01
     2586500000   -3.765755892e-01   -1.814163476e-01
     2587250000   -3.625623584e-01   -2.131564170e-01
     2588000000   -3.447566032e-01   -2.445935607e-01
     2588750000   -3.279520869e-01   -2.727025747e-01
     2589500000   -3.042907119e-01   -3.008090854e-01
     2590250000   -2.801392078e-01   -3.268881142e-01
     2591000000   -2.540462315e-01   -3.516888022e-01
     2591750000   -2.278580517e-01   -3.730531335e-01
     2592500000   -1.941183656e-01   -3.937351406e-01
     2593250000   -1.644660830e-01   -4.096052647e-01
     2594000000   -1.297685504e-01   -4.246006310e-01
     2594750000   -9.315283597e-02   -4.358949363e-01
     2595500000   -5.995546281e-02   -4.454824626e-01
     2596250000   -1.968762465e-02   -4.505666196e-01
     2597000000    1.305723842e-02   -4.538457990e-01
     2597750000    5.347501114e-02   -4.521585703e-01
     2598500000    9.205792099e-02   -4.479081333e-01
     2599250000    1.259597838e-01   -4.437572062e-01
     2600000000    1.651880592e-01   -4.313817322e-01
