! NanoVNA-App
! Date: 2026-05-25 01:55:08
! Start: 4.8GHz Stop: 6GHz Points: 401
! S-Parameter data: F S11
# Hz S RI R 50
!     Frequency           S11_Real           S11_Imag
     4800000000    1.578371041e-02   -3.446304426e-02
     4803000000    2.656278573e-02   -2.389614657e-02
     4806000000    3.129298240e-02   -7.369331550e-03
     4809000000    3.049235232e-02    6.396960933e-03
     4812000000    2.210557275e-02    1.961726695e-02
     4815000000    9.253093041e-03    2.621730976e-02
     4818000000   -4.057942424e-03    2.675940096e-02
     4821000000   -1.628600247e-02    2.179458737e-02
     4824000000   -2.629841492e-02    9.400638752e-03
     4827000000   -2.943790145e-02   -1.618122333e-03
     4830000000   -2.743457444e-02   -1.723722927e-02
     4833000000   -2.104762010e-02   -2.875896357e-02
     4836000000   -4.587554839e-03   -3.966723010e-02
     4839000000    1.189314853e-02   -4.361715168e-02
     4842000000    2.709853463e-02   -3.903515264e-02
     4845000000    4.376132786e-02   -2.774184011e-02
     4848000000    5.472485349e-02   -1.070291828e-02
     4851000000    5.821233243e-02    1.143655553e-02
     4854000000    5.239166692e-02    2.897172980e-02
     4857000000    3.918613121e-02    5.140409246e-02
     4860000000    2.009097859e-02    6.378726661e-02
     4863000000   -3.701466834e-03    6.958852708e-02
     4866000000   -2.664296329e-02    6.743991375e-02
     4869000000   -5.320249498e-02    5.397165567e-02
     4872000000   -6.932706386e-02    3.568340465e-02
     4875000000   -7.918208838e-02    1.130455732e-02
     4878000000   -8.015490323e-02   -2.230372652e-02
     4881000000   -7.399724424e-02   -4.352473840e-02
     4884000000   -5.150260404e-02   -7.006050646e-02
     4887000000   -2.445664816e-02   -8.563403785e-02
     4890000000    5.989416037e-03   -9.032942355e-02
     4893000000    3.628426790e-02   -8.512709290e-02
     4896000000    6.634250283e-02   -6.575151533e-02
     4899000000    8.545415848e-02   -4.016371444e-02
     4902000000    9.511172771e-02   -7.511866279e-03
     4905000000    9.378644824e-02    2.645400353e-02
     4908000000    8.152727038e-02    5.748320371e-02
     4911000000    5.822846293e-02    8.403383940e-02
     4914000000    2.206831425e-02    9.824789315e-02
     4917000000   -1.229689643e-02    1.021036282e-01
     4920000000   -4.838818312e-02    9.150547534e-02
     4923000000   -7.903134078e-02    7.135193795e-02
     4926000000   -9.884882718e-02    3.666738048e-02
     4929000000   -1.106655598e-01    3.602372948e-03
     4932000000   -1.064095348e-01   -3.634205088e-02
     4935000000   -8.842770010e-02   -7.170709968e-02
     4938000000   -5.736403167e-02   -9.865258634e-02
     4941000000   -1.788398251e-02   -1.123516336e-01
     4944000000    2.127395198e-02   -1.157087833e-01
     4947000000    5.887451768e-02   -1.076938733e-01
     4950000000    9.222618490e-02   -7.358384877e-02
     4953000000    1.159983724e-01   -4.186482728e-02
     4956000000    1.260496825e-01   -1.280675642e-03
     4959000000    1.153659523e-01    4.242176190e-02
     4962000000    9.687598795e-02    8.216509968e-02
     4965000000    6.401513517e-02    1.116093323e-01
     4968000000    2.134376578e-02    1.274691671e-01
     4971000000   -2.314203791e-02    1.275362819e-01
     4974000000   -6.564453244e-02    1.130278036e-01
     4977000000   -1.012258083e-01    8.168470114e-02
     4980000000   -1.274653822e-01    4.361291602e-02
     4983000000   -1.311755925e-01   -3.740092739e-03
     4986000000   -1.195457131e-01   -4.801342264e-02
     4989000000   -1.001505628e-01   -8.952897042e-02
     4992000000   -6.275951862e-02   -1.177186370e-01
     4995000000   -1.988142915e-02   -1.315760463e-01
     4998000000    2.726902254e-02   -1.277686357e-01
     5001000000    7.505869865e-02   -1.139252409e-01
     5004000000    1.072078422e-01   -7.891261578e-02
     5007000000    1.281827688e-01   -3.677126393e-02
     5010000000    1.380887181e-01    1.123368926e-02
     5013000000    1.245579422e-01    6.003363431e-02
     5016000000    9.919150174e-02    1.022653952e-01
     5019000000    5.832660571e-02    1.291086078e-01
     5022000000    1.183995884e-02    1.395576745e-01
     5025000000   -3.917949274e-02    1.392581314e-01
     5028000000   -8.089708537e-02    1.165378317e-01
     5031000000   -1.206230000e-01    8.218057454e-02
     5034000000   -1.401334405e-01    3.734936565e-02
     5037000000   -1.447417587e-01   -1.409494784e-02
     5040000000   -1.339756697e-01   -6.658820063e-02
     5043000000   -1.027687415e-01   -1.028750762e-01
     5046000000   -6.066885591e-02   -1.354896873e-01
     5049000000   -1.046857517e-02   -1.503343731e-01
     5052000000    4.294303432e-02   -1.477763653e-01
     5055000000    7.654349506e-02   -1.190209389e-01
     5058000000    1.264430583e-01   -8.583003283e-02
     5061000000    1.411389858e-01   -3.963589296e-02
     5064000000    1.474536061e-01    1.294931304e-02
     5067000000    1.302133352e-01    5.915705860e-02
     5070000000    1.019264758e-01    1.047997028e-01
     5073000000    6.010963768e-02    1.307483017e-01
     5076000000    1.657264307e-02    1.381514817e-01
     5079000000   -3.899311647e-02    1.383398473e-01
     5082000000   -8.502601832e-02    1.161907092e-01
     5085000000   -1.194617301e-01    7.848992944e-02
     5088000000   -1.345732957e-01    3.397118673e-02
     5091000000   -1.369979233e-01   -1.395555865e-02
     5094000000   -1.236963496e-01   -6.150139496e-02
     5097000000   -9.409318119e-02   -9.869284183e-02
     5100000000   -5.339722335e-02   -1.260377318e-01
     5103000000   -6.658182014e-03   -1.390427351e-01
     5106000000    4.395698011e-02   -1.314096898e-01
     5109000000    7.555335760e-02   -1.102975383e-01
     5112000000    1.103296280e-01   -7.583615929e-02
     5115000000    1.290883124e-01   -3.464006260e-02
     5118000000    1.331648678e-01    2.145320736e-02
     5121000000    1.182172149e-01    5.290635303e-02
     5124000000    8.961180598e-02    9.276108444e-02
     5127000000    6.286827475e-02    1.060373783e-01
     5130000000    1.090258081e-02    1.222827360e-01
     5133000000   -2.934446558e-02    1.154328659e-01
     5136000000   -6.820166111e-02    9.406288713e-02
     5139000000   -9.018977731e-02    6.633149832e-02
     5142000000   -1.092901677e-01    2.181328647e-02
     5145000000   -1.085338369e-01   -1.242634561e-02
     5148000000   -9.606426954e-02   -5.128962174e-02
     5151000000   -6.985058635e-02   -8.058208972e-02
     5154000000   -4.191973805e-02   -9.654179960e-02
     5157000000   -4.423847888e-03   -1.032036617e-01
     5160000000    3.120332584e-02   -9.596568346e-02
     5163000000    5.954377353e-02   -8.070123941e-02
     5166000000    8.101809025e-02   -5.355748162e-02
     5169000000    9.300726652e-02   -1.812635548e-02
     5172000000    9.045662731e-02    1.546103507e-02
     5175000000    7.580380142e-02    4.671952501e-02
     5178000000    5.795340985e-02    6.424968690e-02
     5181000000    2.987845987e-02    7.921902835e-02
     5184000000    3.660551971e-03    8.271016181e-02
     5187000000   -3.227631375e-02    7.121004909e-02
     5190000000   -5.009881034e-02    6.072377786e-02
     5193000000   -6.742849946e-02    4.060282558e-02
     5196000000   -7.361236960e-02    1.048291195e-02
     5199000000   -7.378342003e-02   -1.090383809e-02
     5202000000   -6.734623760e-02   -3.018833138e-02
     5205000000   -3.991374001e-02   -5.098853633e-02
     5208000000   -3.285841644e-02   -6.115645543e-02
     5211000000   -2.177675022e-03   -5.862608925e-02
     5214000000    1.730605587e-02   -5.519391224e-02
     5217000000    3.406094760e-02   -4.255676642e-02
     5220000000    4.403539374e-02   -3.015775047e-02
     5223000000    4.898677021e-02   -1.077778824e-02
     5226000000    4.579051957e-02    5.385619123e-03
     5229000000    4.109559953e-02    2.067670040e-02
     5232000000    3.060593456e-02    3.015012667e-02
     5235000000    1.400605962e-02    3.430491686e-02
     5238000000    2.277949126e-03    3.502947092e-02
     5241000000   -8.398798294e-03    3.273219615e-02
     5244000000   -1.740779914e-02    2.566076815e-02
     5247000000   -2.166688628e-02    1.320291962e-02
     5250000000   -1.788064092e-02    1.722733577e-04
     5253000000   -2.301488258e-02   -4.241392948e-03
     5256000000   -2.044229023e-02   -1.233019494e-02
     5259000000   -7.663565688e-03   -1.409689523e-02
     5262000000   -2.305427799e-03   -1.543834433e-02
     5265000000    1.179759041e-03   -1.927621290e-02
     5268000000    4.424506333e-03   -5.897746887e-03
     5271000000    1.077294815e-02   -1.291475445e-02
     5274000000    1.182571054e-02   -8.263512515e-03
     5277000000    3.354058135e-03   -1.697646221e-03
     5280000000    1.071826648e-02   -1.472688600e-04
     5283000000    9.421503171e-03    3.465181915e-03
     5286000000    5.366333789e-05   -2.172769513e-03
     5289000000    6.856308901e-04    1.675870735e-03
     5292000000   -3.171148710e-04    5.278177559e-03
     5295000000   -8.669587551e-04    3.401187947e-03
     5298000000    1.943644020e-03    2.233421663e-03
     5301000000    6.267685676e-04    4.234586842e-03
     5304000000    5.598302232e-05    5.520390347e-03
     5307000000    6.193120498e-04    7.607623003e-03
     5310000000   -3.282882099e-04    1.146747172e-02
     5313000000   -4.589727614e-03    1.065012068e-02
     5316000000   -7.814530283e-03    6.953351200e-03
     5319000000   -1.144768763e-02    8.972990327e-03
     5322000000   -1.894827746e-02    8.087705821e-03
     5325000000   -1.771956682e-02    8.325850358e-04
     5328000000   -1.713492349e-02   -4.927048925e-03
     5331000000   -1.444049086e-02   -1.023030467e-02
     5334000000   -8.578459732e-03   -1.598865911e-02
     5337000000   -2.627601149e-03   -1.664852910e-02
     5340000000    4.186000675e-03   -1.595314592e-02
     5343000000    1.446292456e-02   -1.957711391e-02
     5346000000    1.666710526e-02   -9.289879352e-03
     5349000000    2.137110196e-02   -2.357583260e-03
     5352000000    2.601767704e-02    4.091840703e-03
     5355000000    2.453925088e-02    1.599618793e-02
     5358000000    1.699564978e-02    2.405637875e-02
     5361000000    5.746225826e-03    1.854317449e-02
     5364000000   -2.359050326e-03    3.324466571e-02
     5367000000   -1.321561169e-02    1.890813373e-02
     5370000000   -2.092611603e-02    1.444176305e-02
     5373000000   -4.228576645e-02    1.423521433e-02
     5376000000   -4.196280241e-02   -7.534389151e-04
     5379000000   -3.973357752e-02   -1.381254010e-02
     5382000000   -2.266979963e-02   -2.118545771e-02
     5385000000   -1.777334511e-02   -3.912376240e-02
     5388000000   -3.594956361e-03   -4.185590148e-02
     5391000000    1.315041259e-02   -4.315592349e-02
     5394000000    2.863160148e-02   -3.729064018e-02
     5397000000    3.896558285e-02   -2.369300462e-02
     5400000000    4.178074002e-02   -8.775983937e-03
     5403000000    5.164814368e-02    8.479011245e-03
     5406000000    4.467321560e-02    2.732211538e-02
     5409000000    3.329076245e-02    4.270212352e-02
     5412000000    1.813350618e-02    4.786706343e-02
     5415000000   -2.006580122e-03    5.688275397e-02
     5418000000   -2.484958433e-02    5.466330796e-02
     5421000000   -4.704171792e-02    4.586042836e-02
     5424000000   -5.508610234e-02    2.777861245e-02
     5427000000   -7.339799404e-02    3.339358838e-03
     5430000000   -7.571762800e-02   -2.387181856e-02
     5433000000   -6.266929209e-02   -4.186505452e-02
     5436000000   -4.742898047e-02   -4.773603007e-02
     5439000000   -1.870283484e-02   -8.339279890e-02
     5442000000   -3.802355146e-03   -7.483013719e-02
     5445000000    3.597725555e-02   -8.053325862e-02
     5448000000    5.725102127e-02   -6.857526302e-02
     5451000000    7.056614757e-02   -4.880965129e-02
     5454000000    9.201151133e-02   -1.574063115e-02
     5457000000    9.323704243e-02    1.044928934e-02
     5460000000    8.607678115e-02    4.224377126e-02
     5463000000    6.610378623e-02    7.647319883e-02
     5466000000    4.729399085e-02    8.553368598e-02
     5469000000    1.338676829e-02    9.784397483e-02
     5472000000   -1.009297278e-02    9.688945860e-02
     5475000000   -6.033912301e-02    8.284595609e-02
     5478000000   -7.490602881e-02    6.614195555e-02
     5481000000   -8.865924180e-02    4.892564192e-02
     5484000000   -1.016524062e-01    7.106210571e-03
     5487000000   -9.858026356e-02   -2.708579227e-02
     5490000000   -8.789005876e-02   -5.611411110e-02
     5493000000   -6.399489939e-02   -8.016104251e-02
     5496000000   -4.470663518e-02   -9.480738640e-02
     5499000000    4.345915746e-03   -9.848853946e-02
     5502000000    2.784194425e-02   -9.340737760e-02
     5505000000    5.528933927e-02   -8.129090816e-02
     5508000000    7.809877396e-02   -5.756861344e-02
     5511000000    9.116637707e-02   -2.669367008e-02
     5514000000    9.659714252e-02    1.412440441e-03
     5517000000    9.099343419e-02    3.026574850e-02
     5520000000    7.564887404e-02    5.845771357e-02
     5523000000    5.179453269e-02    7.720176876e-02
     5526000000    1.630894281e-02    8.497679234e-02
     5529000000    3.944147902e-04    1.006523147e-01
     5532000000   -3.288504481e-02    9.130569547e-02
     5535000000   -5.908305943e-02    6.594671309e-02
     5538000000   -8.102612942e-02    4.959801584e-02
     5541000000   -8.896593750e-02    2.098228224e-02
     5544000000   -8.342642337e-02   -1.174794324e-02
     5547000000   -6.998907775e-02   -3.531031311e-02
     5550000000   -6.886573881e-02   -6.075522676e-02
     5553000000   -4.511183500e-02   -7.802855968e-02
     5556000000   -1.887154393e-02   -8.960159868e-02
     5559000000    9.504574351e-03   -8.210103214e-02
     5562000000    3.545673937e-02   -7.984823734e-02
     5565000000    6.156800315e-02   -6.785906106e-02
     5568000000    7.599521428e-02   -4.270910099e-02
     5571000000    8.431738615e-02   -1.832274161e-02
     5574000000    8.471252024e-02    8.329685777e-03
     5577000000    8.100271225e-02    3.698128462e-02
     5580000000    6.399089843e-02    5.640601739e-02
     5583000000    4.109122604e-02    7.751722634e-02
     5586000000    1.638945565e-02    8.638954908e-02
     5589000000   -7.029092871e-03    8.459159732e-02
     5592000000   -4.272289574e-02    8.080556244e-02
     5595000000   -5.368721113e-02    6.340968609e-02
     5598000000   -7.051758468e-02    4.298774153e-02
     5601000000   -8.400194347e-02    1.671575755e-02
     5604000000   -8.550909907e-02   -7.324468344e-03
     5607000000   -7.804325968e-02   -4.178694263e-02
     5610000000   -6.420594454e-02   -5.636751279e-02
     5613000000   -3.861400113e-02   -7.630818337e-02
     5616000000   -1.216465514e-02   -8.410720527e-02
     5619000000    1.690918207e-02   -8.412418514e-02
     5622000000    4.015765712e-02   -7.405062020e-02
     5625000000    6.540187448e-02   -5.486750230e-02
     5628000000    8.330345154e-02   -2.675035968e-02
     5631000000    8.942854404e-02   -7.483430672e-03
     5634000000    8.392339200e-02    2.965349890e-02
     5637000000    7.115123421e-02    5.686961487e-02
     5640000000    5.591244996e-02    7.767637074e-02
     5643000000    1.168030873e-02    8.887090534e-02
     5646000000   -4.339970474e-04    1.004291624e-01
     5649000000   -4.316661879e-02    8.237317204e-02
     5652000000   -6.487163901e-02    7.960992306e-02
     5655000000   -8.529677242e-02    3.664100543e-02
     5658000000   -1.044480056e-01    2.139941417e-02
     5661000000   -9.739650041e-02   -1.797245070e-02
     5664000000   -7.892087847e-02   -4.997097328e-02
     5667000000   -7.560442388e-02   -7.747513056e-02
     5670000000   -3.860926256e-02   -9.773614258e-02
     5673000000   -3.012232017e-03   -1.058242992e-01
     5676000000    3.371402249e-02   -1.030812636e-01
     5679000000    6.751664728e-02   -8.483133465e-02
     5682000000    8.723887056e-02   -5.015945435e-02
     5685000000    1.063013226e-01   -2.110993117e-02
     5688000000    1.143449247e-01    1.470193267e-02
     5691000000    9.612964839e-02    5.317965895e-02
     5694000000    6.538809836e-02    7.600085437e-02
     5697000000    4.288264737e-02    1.043219119e-01
     5700000000    4.498697352e-03    1.122179851e-01
     5703000000   -3.557175398e-02    1.084754840e-01
     5706000000   -7.262224704e-02    9.177464992e-02
     5709000000   -9.837522358e-02    6.103635207e-02
     5712000000   -1.205288991e-01    2.555688098e-02
     5715000000   -1.329097748e-01   -2.036264539e-02
     5718000000   -1.002699584e-01   -5.174734816e-02
     5721000000   -8.708906174e-02   -9.731493145e-02
     5724000000   -4.604843259e-02   -1.155482605e-01
     5727000000   -3.075743560e-03   -1.256105751e-01
     5730000000    4.543466121e-02   -1.275523603e-01
     5733000000    7.728917152e-02   -9.966339916e-02
     5736000000    1.088639349e-01   -6.689088792e-02
     5739000000    1.306579560e-01   -2.617360838e-02
     5742000000    1.337790936e-01    2.132202685e-02
     5745000000    1.183599234e-01    6.852861494e-02
     5748000000    9.070652723e-02    1.049477607e-01
     5751000000    4.866481572e-02    1.266882420e-01
     5754000000   -7.225550245e-03    1.543198824e-01
     5757000000   -5.241192505e-02    1.349609494e-01
     5760000000   -8.995864540e-02    1.078587398e-01
     5763000000   -1.210572571e-01    7.358324528e-02
     5766000000   -1.409695297e-01    2.564991266e-02
     5769000000   -1.438685805e-01   -2.684060298e-02
     5772000000   -1.227419749e-01   -6.056823581e-02
     5775000000   -9.429053962e-02   -1.006461903e-01
     5778000000   -4.470869154e-02   -1.494790018e-01
     5781000000    7.114781532e-03   -1.549240798e-01
     5784000000    5.221159384e-02   -1.393610835e-01
     5787000000    9.666974097e-02   -1.133356318e-01
     5790000000    1.343254149e-01   -7.035362720e-02
     5793000000    1.486818641e-01   -2.281789668e-02
     5796000000    1.469142586e-01    2.859265730e-02
     5799000000    1.293279231e-01    8.257088065e-02
     5802000000    8.981844783e-02    1.248527542e-01
     5805000000    4.393128678e-02    1.443732977e-01
     5808000000   -1.039857510e-02    1.543372571e-01
     5811000000   -6.793579459e-02    1.406119019e-01
     5814000000   -1.125184745e-01    1.103912517e-01
     5817000000   -1.384315342e-01    6.836841255e-02
     5820000000   -1.596938223e-01    3.620893694e-03
     5823000000   -1.513661891e-01   -3.199963644e-02
     5826000000   -1.260406971e-01   -8.820728958e-02
     5829000000   -8.791371435e-02   -1.273645014e-01
     5832000000   -3.107583895e-02   -1.535567045e-01
     5835000000    1.270121709e-02   -1.526991129e-01
     5838000000    5.561714247e-02   -1.404380798e-01
     5841000000    1.180937588e-01   -1.006121561e-01
     5844000000    1.419734210e-01   -5.523339659e-02
     5847000000    1.525221467e-01   -3.178141546e-03
     5850000000    1.454871595e-01    5.240523815e-02
     5853000000    1.161089018e-01    9.858331084e-02
     5856000000    8.396336436e-02    1.238565370e-01
     5859000000    3.131711110e-02    1.439807862e-01
     5862000000   -2.450404689e-02    1.450051516e-01
     5865000000   -7.079779357e-02    1.266684681e-01
     5868000000   -1.058822274e-01    1.012097076e-01
     5871000000   -1.345457733e-01    4.170837253e-02
     5874000000   -1.421902031e-01    1.089717261e-03
     5877000000   -1.241147593e-01   -6.017644331e-02
     5880000000   -9.749417752e-02   -9.571729600e-02
     5883000000   -5.127428845e-02   -1.258722842e-01
     5886000000   -1.750831865e-02   -1.366156489e-01
     5889000000    5.057506263e-02   -1.186266020e-01
     5892000000    7.388325781e-02   -1.135837659e-01
     5895000000    1.144417152e-01   -5.556515232e-02
     5898000000    1.282078624e-01   -1.930044964e-02
     5901000000    1.258213520e-01    2.697061747e-02
     5904000000    9.478061646e-02    8.043950051e-02
     5907000000    8.037258685e-02    1.012462527e-01
     5910000000    1.588727534e-02    1.215920448e-01
     5913000000   -2.815334685e-02    1.190836877e-01
     5916000000   -6.211176887e-02    1.080400050e-01
     5919000000   -1.034424677e-01    6.615673751e-02
     5922000000   -1.209786162e-01    3.856867552e-02
     5925000000   -1.183415577e-01   -2.677096985e-02
     5928000000   -1.055084914e-01   -6.261108816e-02
     5931000000   -7.314322144e-02   -9.934525937e-02
     5934000000   -3.655878454e-02   -1.199261323e-01
     5937000000    1.552687399e-02   -1.248456240e-01
     5940000000    7.104993612e-02   -1.009542644e-01
     5943000000    9.417597204e-02   -9.786588699e-02
     5946000000    1.259217411e-01   -3.257330135e-02
     5949000000    1.297454685e-01    2.321423404e-02
     5952000000    1.206911802e-01    6.281245500e-02
     5955000000    9.970337898e-02    1.013813466e-01
     5958000000    4.002839699e-02    1.359509528e-01
     5961000000   -2.448767889e-03    1.484971344e-01
     5964000000   -6.835026294e-02    1.288480759e-01
     5967000000   -1.098354831e-01    1.085230112e-01
     5970000000   -1.466504186e-01    5.151711404e-02
     5973000000   -1.545765400e-01   -1.374057774e-02
     5976000000   -1.637952328e-01   -4.946468771e-02
     5979000000   -1.211184934e-01   -1.142356247e-01
     5982000000   -7.864808291e-02   -1.530452818e-01
     5985000000   -1.847176626e-02   -1.767610461e-01
     5988000000    4.187469929e-02   -1.787787974e-01
     5991000000    1.107115671e-01   -1.506585181e-01
     5994000000    1.586191207e-01   -1.027065963e-01
     5997000000    1.902386546e-01   -4.008350149e-02
     6000000000    2.014316767e-01    2.226153761e-02
