! NanoVNA-App
! Date: 2026-05-25 01:54:20
! Start: 4.8GHz Stop: 6GHz Points: 401
! S-Parameter data: F S11
# Hz S RI R 50
!     Frequency           S11_Real           S11_Imag
     4800000000   -9.083102345e-01    2.980124950e-01
     4803000000   -9.544180036e-01   -6.221980974e-02
     4806000000   -8.651733994e-01   -4.089404643e-01
     4809000000   -6.589142680e-01   -6.936985850e-01
     4812000000   -3.533631861e-01   -8.900989890e-01
     4815000000    6.554467604e-03   -9.565117955e-01
     4818000000    3.482621610e-01   -8.903971910e-01
     4821000000    6.292282939e-01   -7.140533328e-01
     4824000000    8.701995015e-01   -4.036800563e-01
     4827000000    9.545271993e-01   -5.989212170e-02
     4830000000    9.127388000e-01    2.885687649e-01
     4833000000    7.405829430e-01    6.058573127e-01
     4836000000    4.649530351e-01    8.351400495e-01
     4839000000    1.222768575e-01    9.484878778e-01
     4842000000   -2.343569845e-01    9.255530238e-01
     4845000000   -5.546981692e-01    7.776221633e-01
     4848000000   -8.074415326e-01    5.176742673e-01
     4851000000   -9.397055507e-01    1.830747426e-01
     4854000000   -9.419864416e-01   -1.679922938e-01
     4857000000   -8.060263991e-01   -5.178934336e-01
     4860000000   -5.557137132e-01   -7.820654511e-01
     4863000000   -2.509662211e-01   -9.227800965e-01
     4866000000    1.154637858e-01   -9.507011771e-01
     4869000000    4.723843038e-01   -8.366023898e-01
     4872000000    7.307589054e-01   -6.168534756e-01
     4875000000    9.000333548e-01   -3.157525659e-01
     4878000000    9.573635459e-01    6.209642068e-02
     4881000000    8.682832122e-01    4.039930701e-01
     4884000000    6.687183976e-01    6.819189191e-01
     4887000000    3.486428857e-01    8.944261074e-01
     4890000000    4.000182264e-03    9.620877504e-01
     4893000000   -3.496709764e-01    8.941570520e-01
     4896000000   -6.546744108e-01    7.013846040e-01
     4899000000   -8.652124405e-01    4.134589732e-01
     4902000000   -9.579618573e-01    6.331250072e-02
     4905000000   -9.150475860e-01   -2.955648899e-01
     4908000000   -7.439919114e-01   -6.074413657e-01
     4911000000   -4.706555009e-01   -8.352060318e-01
     4914000000   -1.266273707e-01   -9.530262351e-01
     4917000000    2.353145480e-01   -9.299718738e-01
     4920000000    5.526105165e-01   -7.853916883e-01
     4923000000    8.112338185e-01   -5.144407153e-01
     4926000000    9.394565821e-01   -1.963466555e-01
     4929000000    9.444593191e-01    1.874948740e-01
     4932000000    8.169440627e-01    5.085509419e-01
     4935000000    5.555236936e-01    7.849594951e-01
     4938000000    2.605676949e-01    9.219896197e-01
     4941000000   -1.186235696e-01    9.576777816e-01
     4944000000   -4.712421000e-01    8.398354650e-01
     4947000000   -7.321724892e-01    6.199045181e-01
     4950000000   -9.178501964e-01    2.934794724e-01
     4953000000   -9.621276259e-01   -5.137643591e-02
     4956000000   -8.745065331e-01   -4.012605250e-01
     4959000000   -6.576927900e-01   -7.038612366e-01
     4962000000   -3.591640890e-01   -8.942342997e-01
     4965000000   -6.265843753e-03   -9.616262317e-01
     4968000000    3.478994668e-01   -8.966330886e-01
     4971000000    6.548411846e-01   -7.057515383e-01
     4974000000    8.684518933e-01   -4.151396751e-01
     4977000000    9.602873325e-01   -6.297160685e-02
     4980000000    9.158146977e-01    2.913155258e-01
     4983000000    7.445040941e-01    6.121039987e-01
     4986000000    4.652720094e-01    8.447734714e-01
     4989000000    1.345541775e-01    9.535214901e-01
     4992000000   -2.519227862e-01    9.296550155e-01
     4995000000   -5.492193103e-01    7.856444120e-01
     4998000000   -8.149847984e-01    5.159043074e-01
     5001000000   -9.436767697e-01    1.975360513e-01
     5004000000   -9.487244487e-01   -1.818040758e-01
     5007000000   -8.052734137e-01   -5.279576778e-01
     5010000000   -5.649670362e-01   -7.794087529e-01
     5013000000   -2.602553666e-01   -9.252393246e-01
     5016000000    1.362899244e-01   -9.540278316e-01
     5019000000    4.580249488e-01   -8.456391692e-01
     5022000000    7.414083481e-01   -6.095480919e-01
     5025000000    9.084023833e-01   -3.129809797e-01
     5028000000    9.602511525e-01    5.396963656e-02
     5031000000    8.720721006e-01    4.041863680e-01
     5034000000    6.601611972e-01    6.989103556e-01
     5037000000    3.512763679e-01    8.974878788e-01
     5040000000    9.788878961e-04    9.639866948e-01
     5043000000   -3.541763127e-01    8.924463391e-01
     5046000000   -6.609756947e-01    7.004709244e-01
     5049000000   -8.658170700e-01    4.151085019e-01
     5052000000   -9.588889480e-01    5.998564884e-02
     5055000000   -9.169023633e-01   -2.819452584e-01
     5058000000   -7.337317467e-01   -6.261937022e-01
     5061000000   -4.632554650e-01   -8.410756588e-01
     5064000000   -1.237977222e-01   -9.518154263e-01
     5067000000    2.464566827e-01   -9.267719984e-01
     5070000000    5.681596994e-01   -7.748129964e-01
     5073000000    8.143571019e-01   -5.070422292e-01
     5076000000    9.428472519e-01   -1.775890887e-01
     5079000000    9.443580508e-01    1.808166951e-01
     5082000000    8.098338842e-01    5.155904293e-01
     5085000000    5.664010644e-01    7.749764919e-01
     5088000000    2.365564406e-01    9.256240129e-01
     5091000000   -1.217807308e-01    9.500033855e-01
     5094000000   -4.548577368e-01    8.431729674e-01
     5097000000   -7.413359880e-01    6.093010306e-01
     5100000000   -9.074508548e-01    3.058066666e-01
     5103000000   -9.559417367e-01   -6.410115957e-02
     5106000000   -8.638332486e-01   -4.078200161e-01
     5109000000   -6.520142555e-01   -6.996046901e-01
     5112000000   -3.507431746e-01   -8.897945285e-01
     5115000000    1.198594808e-03   -9.558499455e-01
     5118000000    3.573574722e-01   -8.819827437e-01
     5121000000    6.560732722e-01   -6.929126382e-01
     5124000000    8.684532642e-01   -4.010420144e-01
     5127000000    9.548937082e-01   -5.504630506e-02
     5130000000    9.026324749e-01    3.111089766e-01
     5133000000    7.226313949e-01    6.192433834e-01
     5136000000    4.589435160e-01    8.319249749e-01
     5139000000    1.264661252e-01    9.447360635e-01
     5142000000   -2.649004459e-01    9.119830132e-01
     5145000000   -5.727765560e-01    7.607459426e-01
     5148000000   -8.112799525e-01    4.979583323e-01
     5151000000   -9.349970818e-01    1.744512767e-01
     5154000000   -9.288959503e-01   -1.834807843e-01
     5157000000   -7.921684384e-01   -5.205726624e-01
     5160000000   -5.590329170e-01   -7.681006789e-01
     5163000000   -2.317928076e-01   -9.180707932e-01
     5166000000    1.213786229e-01   -9.396705031e-01
     5169000000    4.636242390e-01   -8.227289915e-01
     5172000000    7.422621250e-01   -5.870121717e-01
     5175000000    9.055554867e-01   -2.803604007e-01
     5178000000    9.434756637e-01    7.627192140e-02
     5181000000    8.551182151e-01    4.065862298e-01
     5184000000    6.268709898e-01    7.012669444e-01
     5187000000    3.552505672e-01    8.772298694e-01
     5190000000   -2.000480331e-02    9.431357384e-01
     5193000000   -3.432067037e-01    8.777981997e-01
     5196000000   -6.556627750e-01    6.759986281e-01
     5199000000   -8.595671654e-01    3.905259669e-01
     5202000000   -9.412299395e-01    4.359306768e-02
     5205000000   -8.950196505e-01   -2.944798470e-01
     5208000000   -7.194660306e-01   -6.028082967e-01
     5211000000   -4.425913990e-01   -8.268814087e-01
     5214000000   -1.057409123e-01   -9.324375987e-01
     5217000000    2.422010899e-01   -9.077726603e-01
     5220000000    5.597701669e-01   -7.510489225e-01
     5223000000    7.984210253e-01   -4.880785346e-01
     5226000000    9.207049608e-01   -1.630706787e-01
     5229000000    9.185248017e-01    1.823860556e-01
     5232000000    7.829762101e-01    5.131446123e-01
     5235000000    5.426890850e-01    7.618623376e-01
     5238000000    2.150495499e-01    9.066745043e-01
     5241000000   -1.222591326e-01    9.255847335e-01
     5244000000   -4.545990229e-01    8.159509301e-01
     5247000000   -7.215176821e-01    5.896214843e-01
     5250000000   -8.878268600e-01    2.788844109e-01
     5253000000   -9.293097854e-01   -6.643182784e-02
     5256000000   -8.383499980e-01   -4.009366333e-01
     5259000000   -6.235840917e-01   -6.855409741e-01
     5262000000   -3.221674860e-01   -8.724078536e-01
     5265000000    1.009321865e-02   -9.291305542e-01
     5268000000    3.465706110e-01   -8.590069413e-01
     5271000000    6.341190934e-01   -6.771290302e-01
     5274000000    8.416058421e-01   -3.846870661e-01
     5277000000    9.210439324e-01   -5.630616471e-02
     5280000000    8.774099350e-01    2.883438468e-01
     5283000000    7.056434751e-01    5.954681039e-01
     5286000000    4.458251595e-01    8.098807931e-01
     5289000000    1.043736264e-01    9.145606756e-01
     5292000000   -2.328010798e-01    8.920418620e-01
     5295000000   -5.450695157e-01    7.439233661e-01
     5298000000   -7.812089324e-01    4.855435193e-01
     5301000000   -9.040975571e-01    1.708039939e-01
     5304000000   -9.033046961e-01   -1.761264801e-01
     5307000000   -7.746806145e-01   -4.964975417e-01
     5310000000   -5.383263230e-01   -7.429769039e-01
     5313000000   -2.153253257e-01   -8.889433146e-01
     5316000000    1.198484227e-01   -9.090553522e-01
     5319000000    4.425847232e-01   -8.016309142e-01
     5322000000    7.065379024e-01   -5.828627944e-01
     5325000000    8.712070584e-01   -2.822857499e-01
     5328000000    9.115749002e-01    6.162199751e-02
     5331000000    8.294864893e-01    3.874771893e-01
     5334000000    6.232612133e-01    6.664478183e-01
     5337000000    3.393853605e-01    8.474436402e-01
     5340000000    5.358038004e-03    9.136329889e-01
     5343000000   -3.348532021e-01    8.488647342e-01
     5346000000   -6.228283644e-01    6.659051180e-01
     5349000000   -8.225250840e-01    3.913754821e-01
     5352000000   -9.102104902e-01    6.206575781e-02
     5355000000   -8.671815991e-01   -2.773700655e-01
     5358000000   -6.899767518e-01   -5.834653378e-01
     5361000000   -4.513811469e-01   -7.941836119e-01
     5364000000   -1.062814295e-01   -8.978425264e-01
     5367000000    2.079957277e-01   -8.901335001e-01
     5370000000    5.305287242e-01   -7.421081066e-01
     5373000000    7.653480172e-01   -4.800003469e-01
     5376000000    8.864275217e-01   -1.684884131e-01
     5379000000    8.957564831e-01    1.498937011e-01
     5382000000    7.692998648e-01    4.721802175e-01
     5385000000    5.438034534e-01    7.265490890e-01
     5388000000    2.239733934e-01    8.761155009e-01
     5391000000   -9.120085835e-02    9.065522552e-01
     5394000000   -4.192115068e-01    7.984476089e-01
     5397000000   -6.946623325e-01    5.764497519e-01
     5400000000   -8.578126431e-01    2.928794920e-01
     5403000000   -9.015002251e-01   -4.159261286e-02
     5406000000   -8.285434246e-01   -3.653062582e-01
     5409000000   -6.247280836e-01   -6.479966640e-01
     5412000000   -3.356873393e-01   -8.324468136e-01
     5415000000   -1.950801909e-02   -9.028822184e-01
     5418000000    3.155041933e-01   -8.478243351e-01
     5421000000    6.064486504e-01   -6.646528840e-01
     5424000000    8.049689531e-01   -4.053353369e-01
     5427000000    8.935329914e-01   -6.610879302e-02
     5430000000    8.603161573e-01    2.636886537e-01
     5433000000    7.127794027e-01    5.573189259e-01
     5436000000    4.414557517e-01    7.817270160e-01
     5439000000    1.289908141e-01    8.904587626e-01
     5442000000   -1.996641308e-01    8.798382282e-01
     5445000000   -5.151969194e-01    7.316683531e-01
     5448000000   -7.422432303e-01    5.100562572e-01
     5451000000   -8.797327876e-01    2.055003643e-01
     5454000000   -8.769754171e-01   -1.591145694e-01
     5457000000   -7.712211609e-01   -4.606179893e-01
     5460000000   -5.580991507e-01   -7.083762884e-01
     5463000000   -2.432527542e-01   -8.601515293e-01
     5466000000    9.154719859e-02   -8.889555931e-01
     5469000000    4.052218199e-01   -8.025121689e-01
     5472000000    6.737680435e-01   -5.922409892e-01
     5475000000    8.424186707e-01   -2.990552485e-01
     5478000000    8.999566436e-01    2.259679697e-02
     5481000000    8.221692443e-01    3.566806912e-01
     5484000000    6.269776225e-01    6.346745491e-01
     5487000000    3.625103533e-01    8.213680983e-01
     5490000000    2.427349612e-02    8.925786614e-01
     5493000000   -3.000511825e-01    8.475609422e-01
     5496000000   -5.884644985e-01    6.747601628e-01
     5499000000   -7.979829907e-01    4.165427685e-01
     5502000000   -8.909218311e-01    8.492474258e-02
     5505000000   -8.590461612e-01   -2.444290072e-01
     5508000000   -7.090902925e-01   -5.457908511e-01
     5511000000   -4.611481726e-01   -7.681377530e-01
     5514000000   -1.437892914e-01   -8.810330033e-01
     5517000000    1.904585958e-01   -8.749189377e-01
     5520000000    5.017687082e-01   -7.433158159e-01
     5523000000    7.350090742e-01   -5.072464347e-01
     5526000000    8.676557541e-01   -2.063834667e-01
     5529000000    8.853420019e-01    1.368322074e-01
     5532000000    7.671738267e-01    4.575466216e-01
     5535000000    5.539894104e-01    7.014638782e-01
     5538000000    2.643885314e-01    8.578764796e-01
     5541000000   -7.958776504e-02    8.906850219e-01
     5544000000   -3.972336948e-01    8.030719161e-01
     5547000000   -6.654049158e-01    5.969740748e-01
     5550000000   -8.388372064e-01    3.171267509e-01
     5553000000   -8.942962885e-01   -1.545323711e-02
     5556000000   -8.258674145e-01   -3.431829214e-01
     5559000000   -6.437723637e-01   -6.227095723e-01
     5562000000   -3.710026741e-01   -8.178446293e-01
     5565000000   -4.243442416e-02   -8.947411180e-01
     5568000000    2.895671725e-01   -8.476461172e-01
     5571000000    5.835255384e-01   -6.774799824e-01
     5574000000    7.887004614e-01   -4.173838794e-01
     5577000000    8.911645412e-01   -9.698382020e-02
     5580000000    8.638967872e-01    2.360213101e-01
     5583000000    7.137548327e-01    5.404092669e-01
     5586000000    4.726445377e-01    7.607105970e-01
     5589000000    1.521871090e-01    8.818241954e-01
     5592000000   -1.811244786e-01    8.794807196e-01
     5595000000   -4.872541726e-01    7.493535280e-01
     5598000000   -7.265617847e-01    5.207716227e-01
     5601000000   -8.681821823e-01    2.092581689e-01
     5604000000   -8.860003948e-01   -1.229555458e-01
     5607000000   -7.822185755e-01   -4.380018413e-01
     5610000000   -5.657047629e-01   -6.937025785e-01
     5613000000   -2.651990354e-01   -8.543273807e-01
     5616000000    6.221671402e-02   -8.942610025e-01
     5619000000    3.924712837e-01   -8.018333316e-01
     5622000000    6.569474936e-01   -6.059236526e-01
     5625000000    8.362550735e-01   -3.230823278e-01
     5628000000    8.928191662e-01    1.306582801e-02
     5631000000    8.319484591e-01    3.300898373e-01
     5634000000    6.519710422e-01    6.145926118e-01
     5637000000    3.660381734e-01    8.139271736e-01
     5640000000    5.197946727e-02    8.940942287e-01
     5643000000   -2.834504247e-01    8.467425108e-01
     5646000000   -5.737791061e-01    6.850478053e-01
     5649000000   -7.886183858e-01    4.203590155e-01
     5652000000   -8.863430619e-01    1.128938347e-01
     5655000000   -8.638139367e-01   -2.280059159e-01
     5658000000   -7.158244252e-01   -5.359801650e-01
     5661000000   -4.758557379e-01   -7.578742504e-01
     5664000000   -1.656568348e-01   -8.798077703e-01
     5667000000    1.741665900e-01   -8.772077560e-01
     5670000000    4.835513830e-01   -7.517936230e-01
     5673000000    7.225451469e-01   -5.245588422e-01
     5676000000    8.672829866e-01   -2.183674425e-01
     5679000000    8.873280883e-01    1.115515083e-01
     5682000000    7.756606936e-01    4.400173128e-01
     5685000000    5.715308785e-01    6.887276173e-01
     5688000000    2.774830759e-01    8.494545221e-01
     5691000000   -5.928632244e-02    8.918974400e-01
     5694000000   -3.896102905e-01    8.024976850e-01
     5697000000   -6.495559216e-01    6.104346514e-01
     5700000000   -8.308018446e-01    3.278483748e-01
     5703000000   -8.924405575e-01   -2.241016598e-03
     5706000000   -8.280360103e-01   -3.278040588e-01
     5709000000   -6.480471492e-01   -6.121003032e-01
     5712000000   -3.781669736e-01   -8.090721369e-01
     5715000000   -5.826956034e-02   -8.913760185e-01
     5718000000    2.791675329e-01   -8.463273048e-01
     5721000000    5.707970262e-01   -6.859331131e-01
     5724000000    7.796517611e-01   -4.296490550e-01
     5727000000    8.862932324e-01   -1.101109684e-01
     5730000000    8.631132841e-01    2.206459939e-01
     5733000000    7.193356156e-01    5.247058272e-01
     5736000000    4.699469805e-01    7.554611564e-01
     5739000000    1.696438342e-01    8.738758564e-01
     5742000000   -1.641702950e-01    8.741307855e-01
     5745000000   -4.809276760e-01    7.484911680e-01
     5748000000   -7.191944122e-01    5.271781683e-01
     5751000000   -8.619682193e-01    2.195297778e-01
     5754000000   -8.843391538e-01   -1.098222062e-01
     5757000000   -7.772907019e-01   -4.347704053e-01
     5760000000   -5.633247495e-01   -6.850032210e-01
     5763000000   -2.781938016e-01   -8.412479758e-01
     5766000000    4.796814546e-02   -8.880357146e-01
     5769000000    3.843645751e-01   -8.006854653e-01
     5772000000    6.520735621e-01   -6.035773754e-01
     5775000000    8.243502975e-01   -3.235251307e-01
     5778000000    8.886684775e-01   -4.591877107e-03
     5781000000    8.298603892e-01    3.219119012e-01
     5784000000    6.478711367e-01    6.100087762e-01
     5787000000    3.796684742e-01    8.035295010e-01
     5790000000    5.668523908e-02    8.862270713e-01
     5793000000   -2.706623375e-01    8.453875184e-01
     5796000000   -5.674554706e-01    6.845823526e-01
     5799000000   -7.808168530e-01    4.274247289e-01
     5802000000   -8.832560182e-01    1.102351844e-01
     5805000000   -8.599120975e-01   -2.188711762e-01
     5808000000   -7.216184139e-01   -5.229170322e-01
     5811000000   -4.757145941e-01   -7.506045103e-01
     5814000000   -1.740469784e-01   -8.708037138e-01
     5817000000    1.648596525e-01   -8.742461205e-01
     5820000000    4.759122431e-01   -7.471933365e-01
     5823000000    7.129074931e-01   -5.218327641e-01
     5826000000    8.562042117e-01   -2.213669866e-01
     5829000000    8.827472925e-01    1.083496884e-01
     5832000000    7.805051804e-01    4.275411069e-01
     5835000000    5.638020635e-01    6.854746938e-01
     5838000000    2.801691592e-01    8.368355036e-01
     5841000000   -5.634557828e-02    8.851982951e-01
     5844000000   -3.749371767e-01    8.036832809e-01
     5847000000   -6.439306736e-01    6.079309583e-01
     5850000000   -8.274082541e-01    3.247244656e-01
     5853000000   -8.863223195e-01   -1.811093069e-03
     5856000000   -8.262402415e-01   -3.246288896e-01
     5859000000   -6.487465501e-01   -6.043089032e-01
     5862000000   -3.829559386e-01   -7.966574430e-01
     5865000000   -5.852089822e-02   -8.860357404e-01
     5868000000    2.736466229e-01   -8.442978859e-01
     5871000000    5.657947659e-01   -6.850231886e-01
     5874000000    7.710479498e-01   -4.343092740e-01
     5877000000    8.827608824e-01   -1.073779091e-01
     5880000000    8.598963618e-01    2.157689035e-01
     5883000000    7.216853499e-01    5.276132822e-01
     5886000000    4.708615839e-01    7.457546592e-01
     5889000000    1.625744551e-01    8.664456010e-01
     5892000000   -1.610880792e-01    8.672419786e-01
     5895000000   -4.607810080e-01    7.509227991e-01
     5898000000   -7.206965089e-01    5.194736123e-01
     5901000000   -8.619151115e-01    2.233978212e-01
     5904000000   -8.750754595e-01   -1.115217805e-01
     5907000000   -7.760978341e-01   -4.274005890e-01
     5910000000   -5.743716955e-01   -6.757912040e-01
     5913000000   -2.744991183e-01   -8.348202705e-01
     5916000000    5.610277504e-02   -8.960691094e-01
     5919000000    3.717802763e-01   -7.946209908e-01
     5922000000    6.420182586e-01   -6.052888632e-01
     5925000000    8.244457245e-01   -3.289458156e-01
     5928000000    8.885928392e-01   -4.352629185e-03
     5931000000    8.276424408e-01    3.268481493e-01
     5934000000    6.423650980e-01    6.058200598e-01
     5937000000    3.730441630e-01    8.034641743e-01
     5940000000    5.642350391e-02    8.885123730e-01
     5943000000   -2.738225460e-01    8.335680366e-01
     5946000000   -5.616110563e-01    6.853272319e-01
     5949000000   -7.684718370e-01    4.310600758e-01
     5952000000   -8.823600411e-01    1.051094532e-01
     5955000000   -8.650627732e-01   -2.167286724e-01
     5958000000   -7.136492133e-01   -5.114001036e-01
     5961000000   -4.713414013e-01   -7.468556166e-01
     5964000000   -1.690224707e-01   -8.709638715e-01
     5967000000    1.661708057e-01   -8.710564375e-01
     5970000000    4.764693379e-01   -7.478124499e-01
     5973000000    7.080125213e-01   -5.331497788e-01
     5976000000    8.535860777e-01   -2.144897282e-01
     5979000000    8.710051179e-01    1.008343846e-01
     5982000000    7.769033909e-01    4.333978295e-01
     5985000000    5.629644990e-01    6.840311289e-01
     5988000000    2.776780128e-01    8.414489627e-01
     5991000000   -5.702921003e-02    8.895096183e-01
     5994000000   -3.711720109e-01    8.052685857e-01
     5997000000   -6.461007595e-01    6.102532744e-01
     6000000000   -8.197614551e-01    3.380024433e-01
