! NanoVNA-App
! Date: 2026-05-22 18:05:13
! Start: 2.3GHz Stop: 2.6GHz Points: 401
! S-Parameter data: F S11
# Hz S RI R 50
!     Frequency           S11_Real           S11_Imag
     2300000000    1.552793086e-01    3.773168027e-01
     2300750000    1.222967952e-01    3.893128932e-01
     2301500000    9.056878835e-02    3.979311883e-01
     2302250000    5.691183358e-02    4.043716788e-01
     2303000000    2.317429334e-02    4.069296420e-01
     2303750000   -1.336489897e-02    4.082275629e-01
     2304500000   -4.601687565e-02    4.059372544e-01
     2305250000   -8.073978871e-02    3.999823928e-01
     2306000000   -1.082930490e-01    3.921208680e-01
     2306750000   -1.450261623e-01    3.803289831e-01
     2307500000   -1.756786853e-01    3.673697412e-01
     2308250000   -2.054368109e-01    3.502387404e-01
     2309000000   -2.320008427e-01    3.321501315e-01
     2309750000   -2.579549551e-01    3.107258081e-01
     2310500000   -2.828607559e-01    2.878607810e-01
     2311250000   -3.058300018e-01    2.624931335e-01
     2312000000   -3.252906799e-01    2.355453074e-01
     2312750000   -3.449747562e-01    2.055360973e-01
     2313500000   -3.587462604e-01    1.770494580e-01
     2314250000   -3.729659617e-01    1.444012374e-01
     2315000000   -3.822110593e-01    1.130943522e-01
     2315750000   -3.900953233e-01    7.954025269e-02
     2316500000   -3.938773572e-01    4.767750204e-02
     2317250000   -3.958862126e-01    1.525585074e-02
     2318000000   -3.945500851e-01   -1.908728667e-02
     2318750000   -3.908307552e-01   -5.275462940e-02
     2319500000   -3.834441006e-01   -8.470195532e-02
     2320250000   -3.751478195e-01   -1.179044396e-01
     2321000000   -3.627214134e-01   -1.510876566e-01
     2321750000   -3.480041921e-01   -1.785341203e-01
     2322500000   -3.301773667e-01   -2.095714808e-01
     2323250000   -3.130455017e-01   -2.332300991e-01
     2324000000   -2.886154950e-01   -2.632501721e-01
     2324750000   -2.662123144e-01   -2.842737436e-01
     2325500000   -2.403246760e-01   -3.061046004e-01
     2326250000   -2.131671309e-01   -3.247756660e-01
     2327000000   -1.843929291e-01   -3.412352800e-01
     2327750000   -1.543170959e-01   -3.566668332e-01
     2328500000   -1.240130365e-01   -3.681176901e-01
     2329250000   -9.460304677e-02   -3.757475019e-01
     2330000000   -5.975783616e-02   -3.837938607e-01
     2330750000   -2.785413899e-02   -3.865632415e-01
     2331500000    4.370914306e-03   -3.873978555e-01
     2332250000    3.899719939e-02   -3.855691552e-01
     2333000000    7.244408131e-02   -3.811151683e-01
     2333750000    1.009125039e-01   -3.742993176e-01
     2334500000    1.338416040e-01   -3.635617197e-01
     2335250000    1.636610478e-01   -3.516701162e-01
     2336000000    1.923672259e-01   -3.370780051e-01
     2336750000    2.179867923e-01   -3.207006752e-01
     2337500000    2.438768148e-01   -3.006604016e-01
     2338250000    2.681753635e-01   -2.779883444e-01
     2339000000    2.905162275e-01   -2.556344271e-01
     2339750000    3.100595176e-01   -2.300367206e-01
     2340500000    3.284951150e-01   -2.025218457e-01
     2341250000    3.416727185e-01   -1.768012643e-01
     2342000000    3.565141857e-01   -1.453571767e-01
     2342750000    3.659132123e-01   -1.167614162e-01
     2343500000    3.741457462e-01   -8.632832766e-02
     2344250000    3.791747987e-01   -5.322558433e-02
     2345000000    3.817518950e-01   -2.053472213e-02
     2345750000    3.818887472e-01    1.164578088e-02
     2346500000    3.787375689e-01    3.899180517e-02
     2347250000    3.731447160e-01    7.287242264e-02
     2348000000    3.653953075e-01    1.018984839e-01
     2348750000    3.539511859e-01    1.352345943e-01
     2349500000    3.429755867e-01    1.595338434e-01
     2350250000    3.276895583e-01    1.863552779e-01
     2351000000    3.083328009e-01    2.164116204e-01
     2351750000    2.905291319e-01    2.384684682e-01
     2352500000    2.688752115e-01    2.614826560e-01
     2353250000    2.457552701e-01    2.821732759e-01
     2354000000    2.215484381e-01    3.011274338e-01
     2354750000    1.965808272e-01    3.160930872e-01
     2355500000    1.641787738e-01    3.325419724e-01
     2356250000    1.376737803e-01    3.437047005e-01
     2357000000    1.121479198e-01    3.520935774e-01
     2357750000    7.852298021e-02    3.601115048e-01
     2358500000    5.060743913e-02    3.637396395e-01
     2359250000    1.841343939e-02    3.658999503e-01
     2360000000   -1.388139278e-02    3.653022945e-01
     2360750000   -4.172061384e-02    3.623451591e-01
     2361500000   -6.844284385e-02    3.573016226e-01
     2362250000   -9.941515326e-02    3.486222327e-01
     2363000000   -1.278851479e-01    3.380214870e-01
     2363750000   -1.546419412e-01    3.260556459e-01
     2364500000   -1.827714890e-01    3.095025420e-01
     2365250000   -2.066159248e-01    2.929572463e-01
     2366000000   -2.296421379e-01    2.737289369e-01
     2366750000   -2.504070997e-01    2.532629073e-01
     2367500000   -2.694153488e-01    2.313788384e-01
     2368250000   -2.881169915e-01    2.054829150e-01
     2369000000   -3.010564744e-01    1.848819107e-01
     2369750000   -3.155567646e-01    1.562235355e-01
     2370500000   -3.266188204e-01    1.276520491e-01
     2371250000   -3.352703154e-01    1.005483866e-01
     2372000000   -3.416943848e-01    7.161925733e-02
     2372750000   -3.450670242e-01    4.469977319e-02
     2373500000   -3.468106985e-01    1.321104728e-02
     2374250000   -3.457743227e-01   -1.490294468e-02
     2375000000   -3.429336250e-01   -4.156440124e-02
     2375750000   -3.353039920e-01   -7.421956211e-02
     2376500000   -3.298048377e-01   -9.607492387e-02
     2377250000   -3.176420331e-01   -1.269932389e-01
     2378000000   -3.061685860e-01   -1.513113678e-01
     2378750000   -2.921834290e-01   -1.760126501e-01
     2379500000   -2.742414474e-01   -2.005666196e-01
     2380250000   -2.549996078e-01   -2.226397395e-01
     2381000000   -2.382790595e-01   -2.399798930e-01
     2381750000   -2.162717134e-01   -2.588304281e-01
     2382500000   -1.902184337e-01   -2.768110335e-01
     2383250000   -1.693220884e-01   -2.897600830e-01
     2384000000   -1.429822743e-01   -3.025499284e-01
     2384750000   -1.171136573e-01   -3.129394948e-01
     2385500000   -9.011273086e-02   -3.207678795e-01
     2386250000   -6.399677694e-02   -3.262501955e-01
     2387000000   -3.928497434e-02   -3.297307789e-01
     2387750000   -7.041154895e-03   -3.301585019e-01
     2388500000    1.581002399e-02   -3.301630020e-01
     2389250000    4.544085264e-02   -3.258085549e-01
     2390000000    7.075179368e-02   -3.208987117e-01
     2390750000    9.711793810e-02   -3.125655949e-01
     2391500000    1.229435652e-01   -3.020226955e-01
     2392250000    1.448283195e-01   -2.917056680e-01
     2393000000    1.689281911e-01   -2.763383389e-01
     2393750000    1.909732074e-01   -2.608633935e-01
     2394500000    2.094037384e-01   -2.447686791e-01
     2395250000    2.281697690e-01   -2.255343348e-01
     2396000000    2.456800640e-01   -2.034177631e-01
     2396750000    2.599907815e-01   -1.841859519e-01
     2397500000    2.738309801e-01   -1.583906114e-01
     2398250000    2.844660580e-01   -1.367898732e-01
     2399000000    2.939847112e-01   -1.108917445e-01
     2399750000    3.010598123e-01   -8.707184345e-02
     2400500000    3.058345318e-01   -6.076411903e-02
     2401250000    3.086359799e-01   -3.516262397e-02
     2402000000    3.100844622e-01   -1.017292310e-02
     2402750000    3.084124327e-01    1.584858634e-02
     2403500000    3.049400449e-01    4.123331234e-02
     2404250000    2.989140451e-01    6.703431904e-02
     2405000000    2.914840579e-01    9.148108959e-02
     2405750000    2.816497087e-01    1.158982813e-01
     2406500000    2.714309096e-01    1.367254853e-01
     2407250000    2.565145791e-01    1.599147171e-01
     2408000000    2.424164563e-01    1.789824218e-01
     2408750000    2.269017845e-01    1.976822019e-01
     2409500000    2.073349804e-01    2.155264765e-01
     2410250000    1.890546679e-01    2.307956368e-01
     2411000000    1.680099070e-01    2.450924516e-01
     2411750000    1.466847211e-01    2.569961846e-01
     2412500000    1.245621294e-01    2.674083710e-01
     2413250000    1.015683636e-01    2.763211429e-01
     2414000000    7.685118169e-02    2.829120159e-01
     2414750000    5.518732220e-02    2.878707647e-01
     2415500000    2.979322895e-02    2.904177308e-01
     2416250000    7.315432653e-03    2.914554775e-01
     2417000000   -1.887732930e-02    2.893142700e-01
     2417750000   -4.272500053e-02    2.856236696e-01
     2418500000   -6.622736901e-02    2.806207240e-01
     2419250000   -8.913767338e-02    2.730922699e-01
     2420000000   -1.108816937e-01    2.641648650e-01
     2420750000   -1.319654882e-01    2.533399165e-01
     2421500000   -1.517162025e-01    2.408750057e-01
     2422250000   -1.708741784e-01    2.266812623e-01
     2423000000   -1.889275014e-01    2.118659019e-01
     2423750000   -2.048831284e-01    1.956801564e-01
     2424500000   -2.196990550e-01    1.765833944e-01
     2425250000   -2.333018333e-01    1.571833938e-01
     2426000000   -2.445898354e-01    1.382008195e-01
     2426750000   -2.544152439e-01    1.161463633e-01
     2427500000   -2.621927261e-01    9.484051913e-02
     2428250000   -2.681983709e-01    7.182818651e-02
     2429000000   -2.732892931e-01    5.254522711e-02
     2429750000   -2.750506997e-01    2.816643007e-02
     2430500000   -2.754584551e-01    6.592711434e-03
     2431250000   -2.753480971e-01   -1.480815560e-02
     2432000000   -2.716155052e-01   -3.793622553e-02
     2432750000   -2.660419643e-01   -6.022861972e-02
     2433500000   -2.613241374e-01   -7.953670621e-02
     2434250000   -2.498267293e-01   -1.016537696e-01
     2435000000   -2.439779341e-01   -1.187415123e-01
     2435750000   -2.286362648e-01   -1.397874802e-01
     2436500000   -2.177216709e-01   -1.564231813e-01
     2437250000   -2.025406063e-01   -1.728438288e-01
     2438000000   -1.854306757e-01   -1.876544356e-01
     2438750000   -1.697507352e-01   -2.013511062e-01
     2439500000   -1.518799067e-01   -2.136194557e-01
     2440250000   -1.338478178e-01   -2.240674943e-01
     2441000000   -1.144662350e-01   -2.326710820e-01
     2441750000   -9.481374919e-02   -2.398060411e-01
     2442500000   -7.393780351e-02   -2.452793717e-01
     2443250000   -5.214604735e-02   -2.488980144e-01
     2444000000   -3.077149019e-02   -2.508607507e-01
     2444750000   -1.120263059e-02   -2.517544627e-01
     2445500000    9.680364281e-03   -2.508199513e-01
     2446250000    3.047996759e-02   -2.469272465e-01
     2447000000    5.040653050e-02   -2.426190674e-01
     2447750000    7.037487626e-02   -2.363088280e-01
     2448500000    8.906105906e-02   -2.287387252e-01
     2449250000    1.072385833e-01   -2.198735625e-01
     2450000000    1.245839819e-01   -2.084689587e-01
     2450750000    1.410912722e-01   -1.959702224e-01
     2451500000    1.559404880e-01   -1.829318702e-01
     2452250000    1.703450978e-01   -1.683289707e-01
     2453000000    1.829469800e-01   -1.525063068e-01
     2453750000    1.945979297e-01   -1.357591599e-01
     2454500000    2.039074302e-01   -1.190808266e-01
     2455250000    2.124667615e-01   -1.001723483e-01
     2456000000    2.195836902e-01   -8.251672238e-02
     2456750000    2.253195345e-01   -6.332153827e-02
     2457500000    2.285752594e-01   -4.432856664e-02
     2458250000    2.313169688e-01   -2.495920099e-02
     2459000000    2.321822494e-01   -5.444623064e-03
     2459750000    2.313151211e-01    1.332646143e-02
     2460500000    2.288609892e-01    3.220809996e-02
     2461250000    2.243197262e-01    5.071820319e-02
     2462000000    2.202192396e-01    6.856497377e-02
     2462750000    2.130497843e-01    8.608271182e-02
     2463500000    2.039621174e-01    1.020339280e-01
     2464250000    1.944639534e-01    1.178498417e-01
     2465000000    1.841623783e-01    1.325721890e-01
     2465750000    1.722117960e-01    1.463629752e-01
     2466500000    1.593485922e-01    1.585539281e-01
     2467250000    1.447860897e-01    1.695587337e-01
     2468000000    1.305624247e-01    1.800038368e-01
     2468750000    1.156479642e-01    1.881611049e-01
     2469500000    9.818620980e-02    1.955723763e-01
     2470250000    8.216802776e-02    2.019639909e-01
     2471000000    6.486526132e-02    2.058323771e-01
     2471750000    4.781153053e-02    2.095319927e-01
     2472500000    3.036971204e-02    2.108905464e-01
     2473250000    1.171229221e-02    2.107598186e-01
     2474000000   -5.418456625e-03    2.102363855e-01
     2474750000   -2.321173437e-02    2.071359903e-01
     2475500000   -3.997475281e-02    2.028796673e-01
     2476250000   -5.651895329e-02    1.979098320e-01
     2477000000   -7.197874784e-02    1.910523623e-01
     2477750000   -8.765698224e-02    1.824809760e-01
     2478500000   -1.022601798e-01    1.740207970e-01
     2479250000   -1.155814677e-01    1.636128277e-01
     2480000000   -1.284909844e-01    1.529942304e-01
     2480750000   -1.401044279e-01    1.410720646e-01
     2481500000   -1.512525827e-01    1.282499880e-01
     2482250000   -1.603740603e-01    1.148131266e-01
     2483000000   -1.685854942e-01    1.001697928e-01
     2483750000   -1.756012142e-01    8.555810153e-02
     2484500000   -1.816942096e-01    6.998594850e-02
     2485250000   -1.857713610e-01    5.514746532e-02
     2486000000   -1.887542009e-01    3.861533105e-02
     2486750000   -1.910133064e-01    2.267418429e-02
     2487500000   -1.904823035e-01    6.582938600e-03
     2488250000   -1.895157248e-01   -9.005748667e-03
     2489000000   -1.874004155e-01   -2.469021082e-02
     2489750000   -1.839168817e-01   -4.045852646e-02
     2490500000   -1.784721762e-01   -5.509594455e-02
     2491250000   -1.730979085e-01   -6.934001297e-02
     2492000000   -1.660322696e-01   -8.351722360e-02
     2492750000   -1.579471678e-01   -9.656468034e-02
     2493500000   -1.487973034e-01   -1.086555943e-01
     2494250000   -1.388609707e-01   -1.200013533e-01
     2495000000   -1.275321096e-01   -1.311834306e-01
     2495750000   -1.160420552e-01   -1.404837072e-01
     2496500000   -1.035496742e-01   -1.489115059e-01
     2497250000   -9.107171744e-02   -1.564675421e-01
     2498000000   -7.767147571e-02   -1.622093618e-01
     2498750000   -6.316416711e-02   -1.681383401e-01
     2499500000   -4.936864227e-02   -1.715047807e-01
     2500250000   -3.500571102e-02   -1.747723669e-01
     2501000000   -2.027650923e-02   -1.762857586e-01
     2501750000   -6.286287680e-03   -1.760375649e-01
     2502500000    8.572948165e-03   -1.756637841e-01
     2503250000    2.266272157e-02   -1.736842543e-01
     2504000000    3.642602265e-02   -1.702901423e-01
     2504750000    5.027921870e-02   -1.657255590e-01
     2505500000    6.337857246e-02   -1.611715853e-01
     2506250000    7.536567748e-02   -1.541141570e-01
     2507000000    8.822734654e-02   -1.467050761e-01
     2507750000    9.928464144e-02   -1.385025531e-01
     2508500000    1.091276035e-01   -1.296393573e-01
     2509250000    1.193777025e-01   -1.191852763e-01
     2510000000    1.282286346e-01   -1.092700586e-01
     2510750000    1.359422654e-01   -9.749241173e-02
     2511500000    1.430708915e-01   -8.629925549e-02
     2512250000    1.489084214e-01   -7.413434982e-02
     2513000000    1.537128389e-01   -6.147209555e-02
     2513750000    1.576802284e-01   -4.911160469e-02
     2514500000    1.605574042e-01   -3.614762798e-02
     2515250000    1.624755859e-01   -2.332154289e-02
     2516000000    1.625543982e-01   -9.861713275e-03
     2516750000    1.619752944e-01    2.618311672e-03
     2517500000    1.609232426e-01    1.584474370e-02
     2518250000    1.583357602e-01    2.828546800e-02
     2519000000    1.543940008e-01    4.017108306e-02
     2519750000    1.498490125e-01    5.211780593e-02
     2520500000    1.444126666e-01    6.292367727e-02
     2521250000    1.377405673e-01    7.364549488e-02
     2522000000    1.307509840e-01    8.386975527e-02
     2522750000    1.226553470e-01    9.360773861e-02
     2523500000    1.140576378e-01    1.022819281e-01
     2524250000    1.044702679e-01    1.103155911e-01
     2525000000    9.450602531e-02    1.173103377e-01
     2525750000    8.428665251e-02    1.244983971e-01
     2526500000    7.297994196e-02    1.298229247e-01
     2527250000    6.227310747e-02    1.344871372e-01
     2528000000    5.036571994e-02    1.377999932e-01
     2528750000    3.890331835e-02    1.416348666e-01
     2529500000    2.765319310e-02    1.433989853e-01
     2530250000    1.539164688e-02    1.435965002e-01
     2531000000    3.873372683e-03    1.441451013e-01
     2531750000   -7.838764228e-03    1.432743967e-01
     2532500000   -1.949515752e-02    1.416893899e-01
     2533250000   -3.051325865e-02    1.392859668e-01
     2534000000   -4.167121276e-02    1.351024210e-01
     2534750000   -5.168519542e-02    1.317005605e-01
     2535500000   -6.210170686e-02    1.265427917e-01
     2536250000   -7.155787200e-02    1.203811094e-01
     2537000000   -8.099882305e-02    1.139358208e-01
     2537750000   -8.893883228e-02    1.071176901e-01
     2538500000   -9.711634368e-02    9.943657368e-02
     2539250000   -1.039816067e-01    9.116322547e-02
     2540000000   -1.102497652e-01    8.184015751e-02
     2540750000   -1.154386923e-01    7.225070894e-02
     2541500000   -1.207091734e-01    6.349197775e-02
     2542250000   -1.251309216e-01    5.332689732e-02
     2543000000   -1.278600693e-01    4.334359989e-02
     2543750000   -1.305086464e-01    3.279050067e-02
     2544500000   -1.320277005e-01    2.306205034e-02
     2545250000   -1.336302608e-01    1.261082850e-02
     2546000000   -1.324693412e-01    2.222743351e-03
     2546750000   -1.317834109e-01   -8.094067685e-03
     2547500000   -1.303324848e-01   -1.791898906e-02
     2548250000   -1.289231032e-01   -2.820232697e-02
     2549000000   -1.244197637e-01   -3.721934184e-02
     2549750000   -1.214554906e-01   -4.688821360e-02
     2550500000   -1.161183715e-01   -5.468139052e-02
     2551250000   -1.103292033e-01   -6.362862885e-02
     2552000000   -1.049930528e-01   -7.129792869e-02
     2552750000   -9.882726520e-02   -7.878712565e-02
     2553500000   -9.165606648e-02   -8.515354991e-02
     2554250000   -8.470302820e-02   -9.293683618e-02
     2555000000   -7.645983994e-02   -9.795150161e-02
     2555750000   -6.772753596e-02   -1.033756062e-01
     2556500000   -5.986041576e-02   -1.069650277e-01
     2557250000   -5.110867321e-02   -1.112012267e-01
     2558000000   -4.183550179e-02   -1.140279993e-01
     2558750000   -3.249594197e-02   -1.150522307e-01
     2559500000   -2.343459055e-02   -1.180139631e-01
     2560250000   -1.409241091e-02   -1.182091981e-01
     2561000000   -5.454821046e-03   -1.181282848e-01
     2561750000    4.381596576e-03   -1.173775122e-01
     2562500000    1.321826130e-02   -1.165384948e-01
     2563250000    2.170021646e-02   -1.143504232e-01
     2564000000    3.060800210e-02   -1.118814871e-01
     2564750000    3.904400766e-02   -1.092422754e-01
     2565500000    4.699913040e-02   -1.053663269e-01
     2566250000    5.332102999e-02   -1.002073959e-01
     2567000000    6.196650118e-02   -9.634226561e-02
     2567750000    6.758236885e-02   -8.983870596e-02
     2568500000    7.442948967e-02   -8.460757881e-02
     2569250000    7.966573536e-02   -7.851438224e-02
     2570000000    8.526719362e-02   -7.144160569e-02
     2570750000    9.000799060e-02   -6.548684835e-02
     2571500000    9.326822311e-02   -5.764316767e-02
     2572250000    9.775167704e-02   -5.041459203e-02
     2573000000    1.001033559e-01   -4.302845523e-02
     2573750000    1.026031673e-01   -3.480463102e-02
     2574500000    1.037966087e-01   -2.653790265e-02
     2575250000    1.050630137e-01   -1.867534779e-02
     2576000000    1.058861613e-01   -1.081783604e-02
     2576750000    1.048880443e-01   -1.860899385e-03
     2577500000    1.049742252e-01    5.911862012e-03
     2578250000    1.029005200e-01    1.404403895e-02
     2579000000    1.014306173e-01    2.132405154e-02
     2579750000    9.820797294e-02    2.912906744e-02
     2580500000    9.553764015e-02    3.690530360e-02
     2581250000    9.205579013e-02    4.356691614e-02
     2582000000    8.800967783e-02    5.090642348e-02
     2582750000    8.414692432e-02    5.797529966e-02
     2583500000    7.955690473e-02    6.395063549e-02
     2584250000    7.363064587e-02    6.789528579e-02
     2585000000    6.798868626e-02    7.383924723e-02
     2585750000    6.239096075e-02    7.939216495e-02
     2586500000    5.589444563e-02    8.334359527e-02
     2587250000    4.951641709e-02    8.724162728e-02
     2588000000    4.201605171e-02    8.989293873e-02
     2588750000    3.559003398e-02    9.299132973e-02
     2589500000    2.845982276e-02    9.373450279e-02
     2590250000    2.133912593e-02    9.520699084e-02
     2591000000    1.325699408e-02    9.692402929e-02
     2591750000    5.202192813e-03    9.804027528e-02
     2592500000   -2.540630754e-03    9.742067754e-02
     2593250000   -1.070975419e-02    9.784235805e-02
     2594000000   -1.735691726e-02    9.660840034e-02
     2594750000   -2.423897572e-02    9.451107681e-02
     2595500000   -3.206592798e-02    9.332995862e-02
     2596250000   -3.955335915e-02    9.026596695e-02
     2597000000   -4.559003562e-02    8.706512302e-02
     2597750000   -5.171606317e-02    8.380218595e-02
     2598500000   -5.782383680e-02    7.920539379e-02
     2599250000   -6.344795227e-02    7.450251281e-02
     2600000000   -7.208440453e-02    6.986028701e-02
