! NanoVNA-App
! Date: 2026-05-22 16:08:03
! Start: 4.8GHz Stop: 6GHz Points: 401
! S-Parameter data: F S11
# Hz S RI R 50
!     Frequency           S11_Real           S11_Imag
     4800000000    2.668971717e-01   -4.113914818e-02
     4803000000    2.612153888e-01    5.342559516e-02
     4806000000    2.238352001e-01    1.392980516e-01
     4809000000    1.596750021e-01    2.054413557e-01
     4812000000    7.615213841e-02    2.465877980e-01
     4815000000   -1.494279969e-02    2.547283471e-01
     4818000000   -1.011936367e-01    2.319399118e-01
     4821000000   -1.732371002e-01    1.811648458e-01
     4824000000   -2.226000428e-01    1.100515574e-01
     4827000000   -2.433370650e-01    2.649833634e-02
     4830000000   -2.343274057e-01   -5.720168352e-02
     4833000000   -1.980621368e-01   -1.336446851e-01
     4836000000   -1.372190416e-01   -1.901837438e-01
     4839000000   -6.370758265e-02   -2.234378606e-01
     4842000000    1.611490548e-02   -2.287703604e-01
     4845000000    9.357308596e-02   -2.050313503e-01
     4848000000    1.559020728e-01   -1.596375108e-01
     4851000000    1.979448199e-01   -9.573081136e-02
     4854000000    2.164901495e-01   -2.155899815e-02
     4857000000    2.079808861e-01    5.251542106e-02
     4860000000    1.761126667e-01    1.183448359e-01
     4863000000    1.224609241e-01    1.675764620e-01
     4866000000    6.296052039e-02    1.989285201e-01
     4869000000   -9.040268138e-03    1.987259239e-01
     4872000000   -7.375933975e-02    1.862109303e-01
     4875000000   -1.280036420e-01    1.444664747e-01
     4878000000   -1.650819182e-01    9.013856202e-02
     4881000000   -1.834166348e-01    2.976285852e-02
     4884000000   -1.761493087e-01   -3.254394978e-02
     4887000000   -1.501847804e-01   -8.952938020e-02
     4890000000   -1.130761728e-01   -1.342929155e-01
     4893000000   -5.960475653e-02   -1.591446698e-01
     4896000000   -3.654618748e-03   -1.655469984e-01
     4899000000    5.147833005e-02   -1.572904289e-01
     4902000000    9.669331461e-02   -1.249090359e-01
     4905000000    1.289539337e-01   -8.530492336e-02
     4908000000    1.464803070e-01   -3.666859865e-02
     4911000000    1.458819509e-01    1.379072107e-02
     4914000000    1.297835261e-01    5.887830630e-02
     4917000000    9.662711620e-02    9.242393821e-02
     4920000000    6.097817048e-02    1.201503277e-01
     4923000000    1.724224910e-02    1.276436895e-01
     4926000000   -2.863877453e-02    1.247924268e-01
     4929000000   -6.233638525e-02    1.038587019e-01
     4932000000   -9.711766988e-02    7.901620865e-02
     4935000000   -1.068575010e-01    4.109035060e-02
     4938000000   -1.154914349e-01    3.059941111e-03
     4941000000   -1.050789207e-01   -3.274977952e-02
     4944000000   -8.714023232e-02   -6.392271072e-02
     4947000000   -6.210483238e-02   -8.679103851e-02
     4950000000   -2.730228566e-02   -1.014958397e-01
     4953000000    5.540207494e-03   -1.028063744e-01
     4956000000    3.267303482e-02   -9.080865234e-02
     4959000000    6.380762160e-02   -7.396840304e-02
     4962000000    8.199726790e-02   -5.051713064e-02
     4965000000    9.067494422e-02   -2.114236169e-02
     4968000000    9.332405776e-02    1.110653300e-02
     4971000000    8.335219324e-02    3.573717922e-02
     4974000000    6.703892350e-02    6.216541305e-02
     4977000000    4.552398250e-02    7.445830852e-02
     4980000000    1.531662513e-02    8.856154978e-02
     4983000000   -5.910175852e-03    8.602859080e-02
     4986000000   -3.623301908e-02    8.066318184e-02
     4989000000   -5.395311117e-02    6.566832960e-02
     4992000000   -7.104101777e-02    4.562799260e-02
     4995000000   -8.593518287e-02    1.321095973e-02
     4998000000   -8.668793738e-02   -5.726838484e-03
     5001000000   -7.917465270e-02   -3.499474004e-02
     5004000000   -6.371744722e-02   -5.756327137e-02
     5007000000   -4.707353562e-02   -7.255013287e-02
     5010000000   -1.811321452e-02   -8.555436879e-02
     5013000000    9.876790456e-03   -8.765715361e-02
     5016000000    3.595435619e-02   -8.096378297e-02
     5019000000    5.902487412e-02   -6.477356702e-02
     5022000000    7.748787850e-02   -4.788177460e-02
     5025000000    8.852465451e-02   -1.665822417e-02
     5028000000    8.981869370e-02    1.325169764e-02
     5031000000    8.163508773e-02    3.874189779e-02
     5034000000    6.353263557e-02    6.434336305e-02
     5037000000    4.646237195e-02    8.262864500e-02
     5040000000    1.293933764e-02    9.125510603e-02
     5043000000   -1.895791665e-02    9.196150303e-02
     5046000000   -4.877853766e-02    7.952516526e-02
     5049000000   -7.521600276e-02    6.780511141e-02
     5052000000   -9.183052182e-02    3.611056507e-02
     5055000000   -9.994915128e-02    2.176282462e-03
     5058000000   -1.024525613e-01   -2.866084687e-02
     5061000000   -8.569396287e-02   -5.992162228e-02
     5064000000   -6.094870344e-02   -8.599353582e-02
     5067000000   -3.262104094e-02   -1.023090333e-01
     5070000000    3.295424161e-03   -1.050129011e-01
     5073000000    3.643595427e-02   -9.855052829e-02
     5076000000    6.645190716e-02   -8.007915318e-02
     5079000000    9.095498919e-02   -5.403487757e-02
     5082000000    1.020485461e-01   -1.963290945e-02
     5085000000    1.027615443e-01    1.535381470e-02
     5088000000    9.151618183e-02    4.930281639e-02
     5091000000    7.004603744e-02    7.989456505e-02
     5094000000    3.968608379e-02    9.869298339e-02
     5097000000    3.582660807e-03    1.053501144e-01
     5100000000   -3.385551646e-02    1.033058614e-01
     5103000000   -6.209475920e-02    8.074849099e-02
     5106000000   -8.794271201e-02    5.482105538e-02
     5109000000   -1.006766856e-01    2.295400947e-02
     5112000000   -1.064474136e-01   -1.422195323e-02
     5115000000   -9.158110619e-02   -4.875110835e-02
     5118000000   -6.639458984e-02   -7.281835377e-02
     5121000000   -3.744693846e-02   -9.867849946e-02
     5124000000   -2.735988935e-03   -9.842837602e-02
     5127000000    3.735482693e-02   -9.826273471e-02
     5130000000    6.591242552e-02   -7.789676636e-02
     5133000000    8.710120618e-02   -5.014266074e-02
     5136000000    1.001403108e-01   -1.658370905e-02
     5139000000    9.728731215e-02    1.943495497e-02
     5142000000    8.334961534e-02    5.088925734e-02
     5145000000    5.936816707e-02    7.839528471e-02
     5148000000    2.757944912e-02    9.233028442e-02
     5151000000   -7.811430376e-03    9.523882717e-02
     5154000000   -4.421494901e-02    8.887625486e-02
     5157000000   -7.190278918e-02    6.673831493e-02
     5160000000   -9.250296652e-02    3.798538819e-02
     5163000000   -9.864524007e-02    4.809361417e-03
     5166000000   -9.432905912e-02   -3.065193258e-02
     5169000000   -7.511971891e-02   -5.708109960e-02
     5172000000   -5.006296560e-02   -8.624631912e-02
     5175000000   -1.596116647e-02   -9.860344231e-02
     5178000000    2.264549024e-02   -9.814956784e-02
     5181000000    4.603728279e-02   -8.249098808e-02
     5184000000    7.367502153e-02   -6.236053258e-02
     5187000000    9.649926424e-02   -2.681959048e-02
     5190000000    9.809614718e-02    4.317055456e-03
     5193000000    9.123612195e-02    3.531559929e-02
     5196000000    7.380440086e-02    6.594227999e-02
     5199000000    4.636904225e-02    8.471708745e-02
     5202000000    1.783748530e-02    9.113705158e-02
     5205000000   -1.776948385e-02    9.063049406e-02
     5208000000   -4.933312163e-02    7.686335593e-02
     5211000000   -7.174641639e-02    5.300919339e-02
     5214000000   -8.552061766e-02    2.434746735e-02
     5217000000   -8.895108104e-02   -7.194536272e-03
     5220000000   -8.022238314e-02   -3.826092929e-02
     5223000000   -6.088882312e-02   -6.206176430e-02
     5226000000   -3.714987263e-02   -7.672557235e-02
     5229000000   -6.546435878e-03   -8.319000155e-02
     5232000000    2.282280102e-02   -7.744590193e-02
     5235000000    4.648598656e-02   -6.361972541e-02
     5238000000    6.517166644e-02   -4.174068198e-02
     5241000000    7.218447328e-02   -2.100770921e-02
     5244000000    7.031174749e-02    1.071336679e-02
     5247000000    5.983063579e-02    3.460491449e-02
     5250000000    3.895885497e-02    5.394063890e-02
     5253000000    2.102585509e-02    6.286553293e-02
     5256000000   -5.226721405e-04    6.585185230e-02
     5259000000   -2.820667066e-02    5.941876769e-02
     5262000000   -4.903167486e-02    4.089984298e-02
     5265000000   -5.656105652e-02    2.811233886e-02
     5268000000   -6.256558001e-02   -1.310461957e-04
     5271000000   -5.858341232e-02   -2.071364038e-02
     5274000000   -4.393927380e-02   -3.967364877e-02
     5277000000   -3.266336396e-02   -5.006171763e-02
     5280000000   -1.260919683e-02   -5.649381503e-02
     5283000000    1.067199931e-02   -5.174049735e-02
     5286000000    2.735280432e-02   -4.527164623e-02
     5289000000    4.033538699e-02   -2.991176210e-02
     5292000000    4.642869532e-02   -1.281060278e-02
     5295000000    4.863230884e-02    5.266857333e-03
     5298000000    4.074445739e-02    2.174484916e-02
     5301000000    2.922073752e-02    3.347029909e-02
     5304000000    1.589052938e-02    4.034559056e-02
     5307000000    4.423419305e-04    4.235798120e-02
     5310000000   -1.493477728e-02    3.990840539e-02
     5313000000   -2.640976571e-02    2.780289203e-02
     5316000000   -3.186665103e-02    1.726575010e-02
     5319000000   -3.415254131e-02    3.921194933e-03
     5322000000   -3.195261210e-02   -7.001674734e-03
     5325000000   -2.609861642e-02   -1.637912728e-02
     5328000000   -1.176657435e-02   -2.451679297e-02
     5331000000   -4.890028853e-03   -2.474558726e-02
     5334000000    5.339154508e-03   -2.504851110e-02
     5337000000    1.495354436e-02   -1.947679929e-02
     5340000000    1.953207701e-02   -1.390418131e-02
     5343000000    2.400673181e-02   -3.198206425e-03
     5346000000    2.147494443e-02    5.307618994e-03
     5349000000    1.476558298e-02    1.284541003e-02
     5352000000    1.190251578e-02    1.629045233e-02
     5355000000    1.153627131e-02    2.237858437e-02
     5358000000   -4.990627524e-03    1.264557801e-02
     5361000000   -1.950707403e-03    2.188815363e-02
     5364000000   -8.573662490e-03    7.069320418e-03
     5367000000   -1.412243675e-02    1.132921129e-02
     5370000000   -7.544999477e-03   -6.856804714e-03
     5373000000   -2.071800269e-02    2.533008577e-03
     5376000000   -1.542605739e-02   -2.032169141e-03
     5379000000    2.995255403e-03   -3.539861413e-03
     5382000000    4.066681955e-03   -2.079185797e-03
     5385000000   -4.745969083e-03   -1.456783712e-02
     5388000000   -4.983725958e-04   -1.117485948e-02
     5391000000    6.840819842e-04    5.374439992e-03
     5394000000    1.772418502e-03   -2.076376586e-05
     5397000000   -4.939460196e-03    5.047396291e-03
     5400000000   -8.459722623e-03    3.232745221e-04
     5403000000   -5.322468467e-03   -2.315142425e-03
     5406000000   -3.092591185e-03   -2.506222809e-03
     5409000000   -4.155833740e-03   -9.495335631e-03
     5412000000   -1.986596501e-03   -1.351408660e-02
     5415000000    5.211823154e-03   -1.401738916e-02
     5418000000    5.456350744e-03   -1.285808720e-02
     5421000000    1.193848625e-02   -1.280667633e-02
     5424000000    1.823428459e-02   -6.109914277e-03
     5427000000    1.926315576e-02   -3.670569276e-04
     5430000000    1.726712659e-02    5.843071733e-03
     5433000000    1.668700017e-02    1.804604568e-02
     5436000000    1.007236261e-02    1.724423468e-02
     5439000000    9.787756717e-04    2.859440632e-02
     5442000000   -1.213250682e-02    3.149303049e-02
     5445000000   -1.711914502e-02    2.330140769e-02
     5448000000   -1.262509078e-02    1.630412415e-02
     5451000000   -3.333500773e-02    5.440962501e-03
     5454000000   -2.741733380e-02   -1.389006269e-03
     5457000000   -2.960487083e-02   -1.745492220e-02
     5460000000   -2.374608256e-02   -2.013191953e-02
     5463000000   -1.699157618e-02   -2.432493120e-02
     5466000000   -4.041486420e-03   -3.239109367e-02
     5469000000    1.292659063e-02   -3.734082356e-02
     5472000000    1.652483828e-02   -2.861130796e-02
     5475000000    2.501552552e-02   -1.912375726e-02
     5478000000    3.513755277e-02   -7.057840005e-03
     5481000000    3.467597440e-02    5.308475345e-03
     5484000000    2.997951210e-02    9.471174330e-03
     5487000000    2.103820443e-02    2.568518557e-02
     5490000000    1.415013708e-02    2.793119289e-02
     5493000000    6.582158385e-04    3.261965886e-02
     5496000000   -1.206941251e-02    3.039925173e-02
     5499000000   -3.128539398e-02    2.372291684e-02
     5502000000   -3.229233995e-02    1.499731466e-02
     5505000000   -3.318843991e-02    5.305361468e-03
     5508000000   -3.305176646e-02   -4.368937574e-03
     5511000000   -2.685216442e-02   -2.582394890e-02
     5514000000   -2.336625010e-02   -2.230376750e-02
     5517000000   -5.838727113e-03   -3.307450935e-02
     5520000000    7.089312654e-03   -3.311933577e-02
     5523000000    2.897030860e-02   -2.701094374e-02
     5526000000    2.599933743e-02   -2.145406976e-02
     5529000000    3.475903720e-02   -5.899959709e-03
     5532000000    3.308309987e-02   -4.167238876e-05
     5535000000    2.878030017e-02    2.618698217e-02
     5538000000    2.808278613e-02    1.698890142e-02
     5541000000    9.989211336e-03    3.338494897e-02
     5544000000   -8.127501234e-03    3.466984257e-02
     5547000000   -6.333149038e-03    3.327387944e-02
     5550000000   -3.021981567e-02    1.971640252e-02
     5553000000   -3.077556007e-02    1.901654899e-02
     5556000000   -3.600782156e-02   -3.578094067e-03
     5559000000   -3.486087918e-02   -8.855449036e-03
     5562000000   -2.584965900e-02   -2.741528861e-02
     5565000000   -1.793775335e-02   -3.204720840e-02
     5568000000   -2.608254086e-03   -3.840916976e-02
     5571000000    8.427840658e-03   -3.567326441e-02
     5574000000    2.104759961e-02   -3.306968883e-02
     5577000000    3.300801292e-02   -1.928171329e-02
     5580000000    3.512724489e-02   -1.448982395e-02
     5583000000    3.513970226e-02    6.104573258e-04
     5586000000    3.301858157e-02    1.659801416e-02
     5589000000    1.630642824e-02    3.249969706e-02
     5592000000    1.564912871e-02    3.643837199e-02
     5595000000    2.315843012e-03    3.876848891e-02
     5598000000   -1.016386785e-02    3.835403174e-02
     5601000000   -2.598899044e-02    2.861046232e-02
     5604000000   -3.373865038e-02    2.122669853e-02
     5607000000   -3.887033835e-02    1.216113288e-02
     5610000000   -3.844178095e-02   -3.216733690e-03
     5613000000   -2.824644931e-02   -2.154466510e-02
     5616000000   -2.335363440e-02   -2.721569687e-02
     5619000000   -1.182197127e-02   -3.490117192e-02
     5622000000   -2.440982265e-03   -3.841308504e-02
     5625000000    1.494826749e-02   -3.270107135e-02
     5628000000    2.490076050e-02   -2.365086600e-02
     5631000000    3.092454933e-02   -1.744915731e-02
     5634000000    3.524398804e-02   -6.464096368e-04
     5637000000    3.871839494e-02    5.823273212e-03
     5640000000    2.358635142e-02    2.078078873e-02
     5643000000    2.609682456e-02    2.903992124e-02
     5646000000    1.071241405e-02    3.327855468e-02
     5649000000   -3.793086624e-03    3.187230974e-02
     5652000000   -1.393931638e-02    3.266179562e-02
     5655000000   -2.425486408e-02    2.478344180e-02
     5658000000   -2.946220711e-02    1.087486092e-02
     5661000000   -2.853631973e-02    1.221431652e-03
     5664000000   -3.018869646e-02   -6.810524035e-03
     5667000000   -2.499514818e-02   -1.766544953e-02
     5670000000   -2.375845611e-02   -2.561261319e-02
     5673000000   -8.553260937e-03   -2.812982164e-02
     5676000000   -1.984808361e-03   -3.144179657e-02
     5679000000    8.494748734e-03   -2.802464366e-02
     5682000000    1.483105682e-02   -1.903660037e-02
     5685000000    1.923939213e-02   -1.336772647e-02
     5688000000    2.114471979e-02   -5.695079919e-03
     5691000000    2.488672361e-02    1.803757506e-03
     5694000000    1.908669807e-02    6.313844118e-03
     5697000000    2.480319142e-02    2.299116738e-02
     5700000000    1.174264960e-02    1.490197517e-02
     5703000000    6.720309611e-03    2.413693070e-02
     5706000000    4.053543380e-04    2.229852602e-02
     5709000000   -2.402449725e-03    1.660034433e-02
     5712000000   -2.050642297e-02    1.911420561e-02
     5715000000   -1.236681920e-02    1.188368909e-02
     5718000000   -1.402040385e-02    9.180186316e-03
     5721000000   -1.502590626e-02    4.675761331e-03
     5724000000   -1.734197885e-02   -2.337551909e-03
     5727000000   -1.441703364e-02   -2.742995741e-03
     5730000000   -1.204027701e-02   -5.900159478e-03
     5733000000   -9.268973023e-03   -1.017625909e-02
     5736000000   -8.148636669e-03   -1.041560899e-02
     5739000000   -2.256059321e-03   -1.170876808e-02
     5742000000    3.327575687e-04   -1.303835120e-02
     5745000000    2.159247524e-04   -1.583715342e-02
     5748000000    9.942531586e-03   -6.869844627e-03
     5751000000    1.211079769e-02   -1.675164513e-02
     5754000000    9.657575749e-03    7.289225701e-03
     5757000000    2.293213457e-02   -8.968225680e-03
     5760000000    1.110479236e-02    7.872474380e-03
     5763000000    1.761191711e-02    8.475387469e-03
     5766000000    1.089939568e-02    1.383825671e-02
     5769000000    1.348553691e-02    2.103611268e-02
     5772000000    2.792655723e-03    1.490180381e-02
     5775000000   -2.718445845e-03    1.735128649e-02
     5778000000   -7.086797617e-03    1.509529166e-02
     5781000000   -1.383484341e-02    1.427612454e-02
     5784000000   -1.459684502e-02    5.998886656e-03
     5787000000   -1.773723215e-02   -1.772201969e-03
     5790000000   -1.975222118e-02   -8.941666223e-03
     5793000000   -1.399712265e-02   -1.553897187e-02
     5796000000   -9.970812127e-03   -2.367790602e-02
     5799000000   -1.561520185e-04   -2.223647386e-02
     5802000000    5.985124502e-03   -2.237968892e-02
     5805000000    1.492530107e-02   -2.473159879e-02
     5808000000    2.072557248e-02   -1.686083525e-02
     5811000000    2.563007176e-02   -7.676147390e-03
     5814000000    2.634937316e-02    2.449100371e-03
     5817000000    2.496318705e-02    1.207197737e-02
     5820000000    2.093245462e-02    2.527636103e-02
     5823000000    1.041288953e-02    3.411592916e-02
     5826000000   -1.137810643e-03    2.937329002e-02
     5829000000   -1.129812654e-02    2.727423981e-02
     5832000000   -3.122612089e-02    3.101455234e-02
     5835000000   -4.095086455e-02    1.773235016e-02
     5838000000   -4.076692089e-02    2.592163393e-03
     5841000000   -4.025721923e-02   -1.136185508e-02
     5844000000   -2.995966189e-02   -1.968173496e-02
     5847000000   -2.331233956e-02   -4.140372202e-02
     5850000000   -7.816468365e-03   -4.838244244e-02
     5853000000    1.071875636e-02   -4.820070043e-02
     5856000000    2.819079161e-02   -4.233448952e-02
     5859000000    3.882290795e-02   -2.937760949e-02
     5862000000    5.221909285e-02   -1.454592217e-02
     5865000000    5.886841938e-02    6.774646230e-03
     5868000000    5.459371954e-02    2.820148505e-02
     5871000000    4.426848143e-02    4.712319747e-02
     5874000000    2.782033570e-02    6.151568890e-02
     5877000000    2.013693564e-03    7.321892679e-02
     5880000000   -2.346062660e-02    7.283449173e-02
     5883000000   -4.112935066e-02    5.825338140e-02
     5886000000   -6.682848185e-02    4.107490927e-02
     5889000000   -7.512689382e-02    1.844130270e-02
     5892000000   -7.304705679e-02   -4.172796384e-03
     5895000000   -7.478867471e-02   -4.219255224e-02
     5898000000   -5.699952692e-02   -6.955941767e-02
     5901000000   -3.267284483e-02   -7.651842386e-02
     5904000000    5.530447233e-03   -9.693669528e-02
     5907000000    2.596913092e-02   -8.475788683e-02
     5910000000    6.659743190e-02   -7.314408571e-02
     5913000000    7.999905944e-02   -5.049360543e-02
     5916000000    9.811042249e-02   -1.649336331e-02
     5919000000    9.910493344e-02    2.127899975e-02
     5922000000    8.864807338e-02    5.701092631e-02
     5925000000    6.591585279e-02    8.545503765e-02
     5928000000    3.306536749e-02    1.057857648e-01
     5931000000   -4.762049299e-03    1.137257069e-01
     5934000000   -4.301735014e-02    1.065048128e-01
     5937000000   -7.868447155e-02    8.651762456e-02
     5940000000   -1.091990769e-01    5.186382681e-02
     5943000000   -1.218318343e-01    9.839381091e-03
     5946000000   -1.213486269e-01   -2.812263556e-02
     5949000000   -1.020517349e-01   -7.574278116e-02
     5952000000   -6.802008301e-02   -1.134446263e-01
     5955000000   -3.407182544e-02   -1.281239539e-01
     5958000000    2.015984058e-02   -1.350976378e-01
     5961000000    6.374421716e-02   -1.213541180e-01
     5964000000    9.935092181e-02   -9.836523980e-02
     5967000000    1.303119659e-01   -5.025516078e-02
     5970000000    1.418169886e-01   -3.359432565e-03
     5973000000    1.394984722e-01    3.748456016e-02
     5976000000    1.098337620e-01    9.267632663e-02
     5979000000    7.270272821e-02    1.262810975e-01
     5982000000    2.250410430e-02    1.462810487e-01
     5985000000   -3.068324365e-02    1.478669196e-01
     5988000000   -8.086398244e-02    1.316904277e-01
     5991000000   -1.246186793e-01    9.603071958e-02
     5994000000   -1.511457413e-01    4.716468975e-02
     5997000000   -1.612225026e-01   -9.408657439e-03
     6000000000   -1.507114768e-01   -6.600447744e-02
