! NanoVNA-App
! Date: 2026-05-22 16:05:47
! Start: 2.3GHz Stop: 2.6GHz Points: 401
! S-Parameter data: F S11
# Hz S RI R 50
!     Frequency           S11_Real           S11_Imag
     2300000000    4.390468821e-02    3.108896613e-01
     2300750000    1.624897867e-02    3.121816814e-01
     2301500000   -9.109457955e-03    3.104802966e-01
     2302250000   -3.988807648e-02    3.086820543e-01
     2303000000   -6.451176852e-02    3.014582098e-01
     2303750000   -9.112923592e-02    2.936290801e-01
     2304500000   -1.158442646e-01    2.838111222e-01
     2305250000   -1.425376385e-01    2.708464563e-01
     2306000000   -1.657652557e-01    2.565429807e-01
     2306750000   -1.867083460e-01    2.396506220e-01
     2307500000   -2.049361169e-01    2.226447910e-01
     2308250000   -2.249298245e-01    2.011341900e-01
     2309000000   -2.407204807e-01    1.800019741e-01
     2309750000   -2.534590065e-01    1.573183686e-01
     2310500000   -2.666196525e-01    1.333244145e-01
     2311250000   -2.758632898e-01    1.077387482e-01
     2312000000   -2.831587493e-01    8.289104700e-02
     2312750000   -2.882097363e-01    5.647099763e-02
     2313500000   -2.908870876e-01    3.008565493e-02
     2314250000   -2.911725342e-01    4.114695359e-03
     2315000000   -2.875115871e-01   -1.985849626e-02
     2315750000   -2.835495472e-01   -4.635509849e-02
     2316500000   -2.769379318e-01   -7.112610340e-02
     2317250000   -2.686496675e-01   -9.627269208e-02
     2318000000   -2.578858137e-01   -1.169020608e-01
     2318750000   -2.450217307e-01   -1.407007277e-01
     2319500000   -2.307769954e-01   -1.573766172e-01
     2320250000   -2.148815691e-01   -1.778186709e-01
     2321000000   -1.964803934e-01   -1.960067153e-01
     2321750000   -1.781576872e-01   -2.106501013e-01
     2322500000   -1.581042856e-01   -2.244382352e-01
     2323250000   -1.369858086e-01   -2.363625318e-01
     2324000000   -1.176232919e-01   -2.425033301e-01
     2324750000   -9.312667698e-02   -2.524403036e-01
     2325500000   -6.911111623e-02   -2.583383024e-01
     2326250000   -4.857144505e-02   -2.593199015e-01
     2327000000   -2.327201515e-02   -2.615977228e-01
     2327750000   -3.302009311e-03   -2.593717575e-01
     2328500000    2.444243059e-02   -2.584196329e-01
     2329250000    4.328384623e-02   -2.529997826e-01
     2330000000    6.531842053e-02   -2.459156513e-01
     2330750000    8.638504148e-02   -2.376666218e-01
     2331500000    1.048599407e-01   -2.266306579e-01
     2332250000    1.246155649e-01   -2.147039771e-01
     2333000000    1.428551227e-01   -2.012827396e-01
     2333750000    1.571787447e-01   -1.871092916e-01
     2334500000    1.717873514e-01   -1.705721468e-01
     2335250000    1.844253987e-01   -1.536127329e-01
     2336000000    1.961770356e-01   -1.352849603e-01
     2336750000    2.047039270e-01   -1.175255924e-01
     2337500000    2.132252008e-01   -9.784360230e-02
     2338250000    2.203577906e-01   -7.655353099e-02
     2339000000    2.229094952e-01   -5.869764090e-02
     2339750000    2.260181308e-01   -3.749361262e-02
     2340500000    2.268630117e-01   -1.719595119e-02
     2341250000    2.252825797e-01    1.871716697e-03
     2342000000    2.228798121e-01    2.162554674e-02
     2342750000    2.181133777e-01    4.146758467e-02
     2343500000    2.120574862e-01    5.891159177e-02
     2344250000    2.043313086e-01    7.722498477e-02
     2345000000    1.949386895e-01    9.530888498e-02
     2345750000    1.850675344e-01    1.084543318e-01
     2346500000    1.713566780e-01    1.286629438e-01
     2347250000    1.605927944e-01    1.384813040e-01
     2348000000    1.467204541e-01    1.496552229e-01
     2348750000    1.297349036e-01    1.638595611e-01
     2349500000    1.176977307e-01    1.693789363e-01
     2350250000    9.943684191e-02    1.801966876e-01
     2351000000    8.433637023e-02    1.858529747e-01
     2351750000    6.576984376e-02    1.917579621e-01
     2352500000    4.990533367e-02    1.946366578e-01
     2353250000    3.321708739e-02    1.963985860e-01
     2354000000    1.237550937e-02    1.988858730e-01
     2354750000    4.511027655e-04    1.960678846e-01
     2355500000   -2.061049454e-02    1.943657547e-01
     2356250000   -3.410575539e-02    1.904128343e-01
     2357000000   -5.092370138e-02    1.859903634e-01
     2357750000   -6.264906377e-02    1.794246733e-01
     2358500000   -8.060397953e-02    1.706179529e-01
     2359250000   -9.192255884e-02    1.626926512e-01
     2360000000   -1.043889746e-01    1.534995437e-01
     2360750000   -1.157722175e-01    1.426179707e-01
     2361500000   -1.275336444e-01    1.306759864e-01
     2362250000   -1.344539821e-01    1.198621690e-01
     2363000000   -1.426956505e-01    1.067512482e-01
     2363750000   -1.499166787e-01    9.320344031e-02
     2364500000   -1.557530761e-01    7.976760715e-02
     2365250000   -1.601213813e-01    6.541639566e-02
     2366000000   -1.623996198e-01    5.310554802e-02
     2366750000   -1.635293067e-01    3.921737894e-02
     2367500000   -1.646374613e-01    2.550611086e-02
     2368250000   -1.633111835e-01    1.095210109e-02
     2369000000   -1.613722146e-01   -1.827542321e-03
     2369750000   -1.583814472e-01   -1.431144401e-02
     2370500000   -1.544207335e-01   -2.824983187e-02
     2371250000   -1.496771127e-01   -3.855613619e-02
     2372000000   -1.434552819e-01   -5.163568631e-02
     2372750000   -1.364300996e-01   -6.288011372e-02
     2373500000   -1.290097386e-01   -7.256248593e-02
     2374250000   -1.209363863e-01   -8.203569800e-02
     2375000000   -1.119042784e-01   -9.147112817e-02
     2375750000   -1.024478003e-01   -9.924948961e-02
     2376500000   -9.305594862e-02   -1.062133238e-01
     2377250000   -8.373726159e-02   -1.117887348e-01
     2378000000   -7.188177109e-02   -1.179474443e-01
     2378750000   -6.243963912e-02   -1.211293787e-01
     2379500000   -5.157635733e-02   -1.243065968e-01
     2380250000   -4.187056795e-02   -1.264273375e-01
     2381000000   -2.901272476e-02   -1.284507513e-01
     2381750000   -1.981769688e-02   -1.281658560e-01
     2382500000   -1.179534569e-02   -1.279222220e-01
     2383250000    8.028077427e-04   -1.265894324e-01
     2384000000    8.065776899e-03   -1.249083355e-01
     2384750000    2.094955184e-02   -1.209300756e-01
     2385500000    2.523797378e-02   -1.185970306e-01
     2386250000    3.492499515e-02   -1.139135584e-01
     2387000000    4.518071935e-02   -1.079065427e-01
     2387750000    4.939691350e-02   -1.036082655e-01
     2388500000    5.714796111e-02   -9.692675620e-02
     2389250000    6.299469620e-02   -9.068609029e-02
     2390000000    6.862297654e-02   -8.343119174e-02
     2390750000    7.205310464e-02   -7.775025815e-02
     2391500000    7.824525237e-02   -6.760220975e-02
     2392250000    8.087222278e-02   -6.077710539e-02
     2393000000    8.328458667e-02   -5.400288850e-02
     2393750000    8.580515534e-02   -4.518266022e-02
     2394500000    8.716762066e-02   -3.796458989e-02
     2395250000    8.848009259e-02   -2.945734747e-02
     2396000000    8.897051960e-02   -2.308964729e-02
     2396750000    8.923688531e-02   -1.589624211e-02
     2397500000    8.854489028e-02   -8.737959899e-03
     2398250000    8.742599934e-02   -1.429063501e-03
     2399000000    8.631647378e-02    5.636830814e-03
     2399750000    8.511272073e-02    1.090457477e-02
     2400500000    8.283598721e-02    1.768700033e-02
     2401250000    8.060902357e-02    2.376813628e-02
     2402000000    7.788433880e-02    2.888903022e-02
     2402750000    7.544317096e-02    3.303330764e-02
     2403500000    7.085937262e-02    3.873454779e-02
     2404250000    6.769617647e-02    4.292240739e-02
     2405000000    6.566754729e-02    4.587135091e-02
     2405750000    6.043104455e-02    4.992867634e-02
     2406500000    5.733862892e-02    5.265826359e-02
     2407250000    5.277764797e-02    5.531730875e-02
     2408000000    4.888982326e-02    5.937311053e-02
     2408750000    4.477924854e-02    5.957840756e-02
     2409500000    3.955072910e-02    6.085209921e-02
     2410250000    3.621743619e-02    6.324033439e-02
     2411000000    3.105481900e-02    6.408248097e-02
     2411750000    2.828296274e-02    6.534799188e-02
     2412500000    2.192590386e-02    6.589408964e-02
     2413250000    1.878363080e-02    6.696390361e-02
     2414000000    1.423201058e-02    6.661739945e-02
     2414750000    1.128660981e-02    6.850720942e-02
     2415500000    6.987246685e-03    6.817186624e-02
     2416250000    3.318974050e-03    6.823462993e-02
     2417000000    4.034759768e-04    6.920699775e-02
     2417750000   -4.239029717e-03    6.801943481e-02
     2418500000   -7.685732562e-03    6.808801740e-02
     2419250000   -1.107953861e-02    6.730150431e-02
     2420000000   -1.453120634e-02    6.669499725e-02
     2420750000   -1.788038760e-02    6.659135222e-02
     2421500000   -2.109397389e-02    6.533753872e-02
     2422250000   -2.445221506e-02    6.491118670e-02
     2423000000   -2.797058970e-02    6.357282400e-02
     2423750000   -3.091059439e-02    6.281577051e-02
     2424500000   -3.380673751e-02    6.089974940e-02
     2425250000   -3.765556589e-02    6.012612209e-02
     2426000000   -4.097333923e-02    5.630094931e-02
     2426750000   -4.320836067e-02    5.508297309e-02
     2427500000   -4.648882151e-02    5.334436521e-02
     2428250000   -4.891691729e-02    5.030763149e-02
     2429000000   -5.364399403e-02    4.863246158e-02
     2429750000   -5.565321073e-02    4.469202831e-02
     2430500000   -5.924107507e-02    4.189632460e-02
     2431250000   -6.085192040e-02    3.803692758e-02
     2432000000   -6.452386081e-02    3.468547389e-02
     2432750000   -6.768200547e-02    3.062626533e-02
     2433500000   -6.975047290e-02    2.610191330e-02
     2434250000   -7.494278252e-02    2.777863666e-02
     2435000000   -7.734208554e-02    2.297600918e-02
     2435750000   -7.920776308e-02    1.744731702e-02
     2436500000   -8.211740851e-02    1.179706492e-02
     2437250000   -8.271636814e-02    6.067785434e-03
     2438000000   -8.409075439e-02   -4.773708060e-04
     2438750000   -8.511019498e-02   -6.562085357e-03
     2439500000   -8.494470268e-02   -1.231389865e-02
     2440250000   -8.550968766e-02   -1.978047565e-02
     2441000000   -8.475591987e-02   -2.630745247e-02
     2441750000   -8.357290924e-02   -3.269065917e-02
     2442500000   -8.168349415e-02   -3.927785158e-02
     2443250000   -7.998153567e-02   -4.661484435e-02
     2444000000   -7.676760852e-02   -5.256899446e-02
     2444750000   -7.390293479e-02   -6.015015393e-02
     2445500000   -6.983163953e-02   -6.627285480e-02
     2446250000   -6.543390453e-02   -7.212363929e-02
     2447000000   -6.067020819e-02   -7.870002836e-02
     2447750000   -5.493709072e-02   -8.445372432e-02
     2448500000   -4.838626087e-02   -9.022357315e-02
     2449250000   -4.212730005e-02   -9.551516175e-02
     2450000000   -3.416828811e-02   -1.004063785e-01
     2450750000   -2.671739273e-02   -1.051878706e-01
     2451500000   -1.811607741e-02   -1.091357321e-01
     2452250000   -9.516059421e-03   -1.124163494e-01
     2453000000   -5.787588889e-04   -1.152395606e-01
     2453750000    8.908191696e-03   -1.172661409e-01
     2454500000    1.762044244e-02   -1.185155958e-01
     2455250000    2.838296816e-02   -1.193527505e-01
     2456000000    3.804424778e-02   -1.188224033e-01
     2456750000    4.821635410e-02   -1.180199236e-01
     2457500000    5.763211846e-02   -1.156661287e-01
     2458250000    6.753842533e-02   -1.129949614e-01
     2459000000    7.723979652e-02   -1.087504551e-01
     2459750000    8.651884645e-02   -1.044832245e-01
     2460500000    9.530287236e-02   -9.908545017e-02
     2461250000    1.045422778e-01   -9.262624383e-02
     2462000000    1.131822765e-01   -8.472471684e-02
     2462750000    1.204146594e-01   -7.658242434e-02
     2463500000    1.275986433e-01   -6.807394326e-02
     2464250000    1.339392811e-01   -5.835146457e-02
     2465000000    1.392309219e-01   -4.769809917e-02
     2465750000    1.442428380e-01   -3.637828305e-02
     2466500000    1.484498531e-01   -2.495305799e-02
     2467250000    1.511589736e-01   -1.284178440e-02
     2468000000    1.530351490e-01   -6.176067400e-04
     2468750000    1.541340500e-01    1.203970425e-02
     2469500000    1.540841162e-01    2.565895580e-02
     2470250000    1.529478878e-01    3.874933720e-02
     2471000000    1.502050012e-01    5.221024901e-02
     2471750000    1.468612552e-01    6.552211940e-02
     2472500000    1.425570548e-01    7.844819874e-02
     2473250000    1.365166903e-01    9.147839993e-02
     2474000000    1.298216432e-01    1.042366549e-01
     2474750000    1.215601787e-01    1.157757416e-01
     2475500000    1.127570346e-01    1.275253445e-01
     2476250000    1.032122597e-01    1.379152685e-01
     2477000000    9.214992076e-02    1.477229446e-01
     2477750000    8.032043278e-02    1.566186845e-01
     2478500000    6.774269044e-02    1.642126143e-01
     2479250000    5.472726747e-02    1.710150987e-01
     2480000000    4.066180810e-02    1.770213693e-01
     2480750000    2.622592449e-02    1.815302074e-01
     2481500000    1.063913852e-02    1.846261621e-01
     2482250000   -5.399369635e-03    1.866246164e-01
     2483000000   -2.130868100e-02    1.870060712e-01
     2483750000   -3.696527332e-02    1.858851314e-01
     2484500000   -5.315821245e-02    1.833774596e-01
     2485250000   -6.934279203e-02    1.798967421e-01
     2486000000   -8.534438908e-02    1.746723801e-01
     2486750000   -1.011345088e-01    1.679622233e-01
     2487500000   -1.162520796e-01    1.608483642e-01
     2488250000   -1.305538714e-01    1.510681063e-01
     2489000000   -1.441958547e-01    1.412419081e-01
     2489750000   -1.568949372e-01    1.289082468e-01
     2490500000   -1.688551456e-01    1.167998612e-01
     2491250000   -1.798534542e-01    1.031942442e-01
     2492000000   -1.887015998e-01    8.804240823e-02
     2492750000   -1.969032884e-01    7.222914696e-02
     2493500000   -2.037750781e-01    5.571735278e-02
     2494250000   -2.086834460e-01    3.914161399e-02
     2495000000   -2.120802999e-01    2.077413350e-02
     2495750000   -2.144294977e-01    2.831562189e-03
     2496500000   -2.156873643e-01   -1.639298908e-02
     2497250000   -2.132989615e-01   -3.415828198e-02
     2498000000   -2.112850100e-01   -5.297202617e-02
     2498750000   -2.068683207e-01   -7.232709974e-02
     2499500000   -2.003328502e-01   -8.912292868e-02
     2500250000   -1.929589808e-01   -1.075776145e-01
     2501000000   -1.843821853e-01   -1.249348223e-01
     2501750000   -1.739486158e-01   -1.417565793e-01
     2502500000   -1.604344994e-01   -1.550904363e-01
     2503250000   -1.471822709e-01   -1.707301587e-01
     2504000000   -1.321718991e-01   -1.839364767e-01
     2504750000   -1.157874763e-01   -1.954790652e-01
     2505500000   -9.883677959e-02   -2.046338320e-01
     2506250000   -8.109378815e-02   -2.148563713e-01
     2507000000   -6.078152731e-02   -2.227490842e-01
     2507750000   -4.217130318e-02   -2.260464281e-01
     2508500000   -2.104523033e-02   -2.318169773e-01
     2509250000   -3.959894530e-04   -2.330984026e-01
     2510000000    2.009581402e-02   -2.331888825e-01
     2510750000    4.200594500e-02   -2.311583757e-01
     2511500000    6.305060536e-02   -2.279366404e-01
     2512250000    8.391978592e-02   -2.222191244e-01
     2513000000    1.044481918e-01   -2.154202014e-01
     2513750000    1.235145703e-01   -2.065108418e-01
     2514500000    1.425377280e-01   -1.954477131e-01
     2515250000    1.613249779e-01   -1.829427630e-01
     2516000000    1.764209121e-01   -1.688061357e-01
     2516750000    1.934051514e-01   -1.532089859e-01
     2517500000    2.065140456e-01   -1.356427073e-01
     2518250000    2.190261781e-01   -1.172232479e-01
     2519000000    2.295768559e-01   -9.772541374e-02
     2519750000    2.398966700e-01   -7.685361058e-02
     2520500000    2.469028682e-01   -5.551889911e-02
     2521250000    2.518078685e-01   -3.344129398e-02
     2522000000    2.551725507e-01   -1.044503041e-02
     2522750000    2.566416860e-01    1.260875724e-02
     2523500000    2.560417652e-01    3.534241021e-02
     2524250000    2.535058260e-01    5.908618122e-02
     2525000000    2.478563339e-01    8.159890771e-02
     2525750000    2.414516211e-01    1.053578779e-01
     2526500000    2.326557934e-01    1.271806806e-01
     2527250000    2.214831263e-01    1.479182839e-01
     2528000000    2.091137171e-01    1.678696871e-01
     2528750000    1.948422492e-01    1.869134009e-01
     2529500000    1.779188365e-01    2.053073794e-01
     2530250000    1.603613496e-01    2.211405933e-01
     2531000000    1.407420188e-01    2.355307639e-01
     2531750000    1.198449805e-01    2.489797175e-01
     2532500000    9.834242612e-02    2.596720457e-01
     2533250000    7.510390133e-02    2.690921426e-01
     2534000000    5.104331300e-02    2.752414644e-01
     2534750000    2.700271271e-02    2.806346118e-01
     2535500000    2.050364856e-03    2.830825746e-01
     2536250000   -2.314091660e-02    2.824911177e-01
     2537000000   -4.832361639e-02    2.806504667e-01
     2537750000   -7.308461517e-02    2.765293717e-01
     2538500000   -9.842293710e-02    2.700785100e-01
     2539250000   -1.220697686e-01    2.607890069e-01
     2540000000   -1.454503834e-01    2.493613660e-01
     2540750000   -1.677386463e-01    2.363024950e-01
     2541500000   -1.889139861e-01    2.213923037e-01
     2542250000   -2.094559371e-01    2.040288895e-01
     2543000000   -2.276013345e-01    1.850096285e-01
     2543750000   -2.427969575e-01    1.646995991e-01
     2544500000   -2.597056031e-01    1.427143365e-01
     2545250000   -2.718502581e-01    1.189136654e-01
     2546000000   -2.821245492e-01    9.522232413e-02
     2546750000   -2.901064157e-01    6.929345429e-02
     2547500000   -2.974878252e-01    4.242266715e-02
     2548250000   -3.011661172e-01    1.536002755e-02
     2549000000   -3.019653261e-01   -1.127867866e-02
     2549750000   -3.004976213e-01   -3.921097890e-02
     2550500000   -2.983098030e-01   -6.714062393e-02
     2551250000   -2.910900414e-01   -9.499128908e-02
     2552000000   -2.825793326e-01   -1.177786887e-01
     2552750000   -2.719579637e-01   -1.442073584e-01
     2553500000   -2.583517432e-01   -1.706505269e-01
     2554250000   -2.425804883e-01   -1.964285225e-01
     2555000000   -2.256351262e-01   -2.151618004e-01
     2555750000   -2.054312974e-01   -2.347360402e-01
     2556500000   -1.844466925e-01   -2.541812956e-01
     2557250000   -1.604347974e-01   -2.731330097e-01
     2558000000   -1.363808066e-01   -2.849243283e-01
     2558750000   -1.105327308e-01   -2.986179590e-01
     2559500000   -8.423980325e-02   -3.062654734e-01
     2560250000   -5.418701097e-02   -3.164956868e-01
     2561000000   -2.681898698e-02   -3.205716014e-01
     2561750000    4.081437830e-03   -3.236850798e-01
     2562500000    3.132441640e-02   -3.225134611e-01
     2563250000    6.270149350e-02   -3.212461770e-01
     2564000000    9.134653211e-02   -3.149764836e-01
     2564750000    1.187903062e-01   -3.063938916e-01
     2565500000    1.477990299e-01   -2.962822020e-01
     2566250000    1.715879887e-01   -2.826278508e-01
     2567000000    2.012739927e-01   -2.664531171e-01
     2567750000    2.242736071e-01   -2.484759390e-01
     2568500000    2.458411008e-01   -2.294572145e-01
     2569250000    2.674061358e-01   -2.057658881e-01
     2570000000    2.842096388e-01   -1.830751002e-01
     2570750000    3.009319603e-01   -1.570117325e-01
     2571500000    3.147040009e-01   -1.310565621e-01
     2572250000    3.271817863e-01   -1.016945764e-01
     2573000000    3.356793523e-01   -7.231979072e-02
     2573750000    3.423642516e-01   -4.197358340e-02
     2574500000    3.454003334e-01   -1.096727978e-02
     2575250000    3.456059694e-01    2.013901435e-02
     2576000000    3.435572982e-01    5.090550706e-02
     2576750000    3.386723101e-01    8.109103888e-02
     2577500000    3.309087753e-01    1.108927056e-01
     2578250000    3.208130598e-01    1.404773742e-01
     2579000000    3.073648512e-01    1.698147506e-01
     2579750000    2.914762199e-01    1.971764714e-01
     2580500000    2.733834982e-01    2.224364877e-01
     2581250000    2.526525557e-01    2.471803129e-01
     2582000000    2.298768759e-01    2.705243528e-01
     2582750000    2.050735801e-01    2.916770875e-01
     2583500000    1.779271215e-01    3.087628186e-01
     2584250000    1.496147513e-01    3.251225650e-01
     2585000000    1.187033206e-01    3.405251205e-01
     2585750000    8.825493604e-02    3.502981961e-01
     2586500000    5.750153586e-02    3.574528694e-01
     2587250000    2.364684083e-02    3.629871309e-01
     2588000000   -8.399449289e-03    3.652890027e-01
     2588750000   -4.281212389e-02    3.647705019e-01
     2589500000   -7.583831996e-02    3.608314693e-01
     2590250000   -1.074133441e-01    3.537532091e-01
     2591000000   -1.358709186e-01    3.430341780e-01
     2591750000   -1.726121157e-01    3.310652971e-01
     2592500000   -2.020426840e-01    3.153192997e-01
     2593250000   -2.306728214e-01    2.972431481e-01
     2594000000   -2.603825331e-01    2.745262086e-01
     2594750000   -2.837345898e-01    2.517406046e-01
     2595500000   -3.047142625e-01    2.271813750e-01
     2596250000   -3.286202252e-01    1.971156597e-01
     2597000000   -3.476890624e-01    1.679540277e-01
     2597750000   -3.612495959e-01    1.377281845e-01
     2598500000   -3.738138676e-01    1.045182869e-01
     2599250000   -3.824497759e-01    7.241679728e-02
     2600000000   -3.908709586e-01    3.546445072e-02
