! NanoVNA-App
! Date: 2026-05-22 16:07:51
! Start: 2.3GHz Stop: 2.6GHz Points: 401
! S-Parameter data: F S11
# Hz S RI R 50
!     Frequency           S11_Real           S11_Imag
     2300000000    8.664732426e-02    3.010391891e-01
     2300750000    6.147935987e-02    3.049111962e-01
     2301500000    3.363921121e-02    3.071017265e-01
     2302250000    6.205344107e-03    3.086597919e-01
     2303000000   -2.100221254e-02    3.053761721e-01
     2303750000   -4.730911180e-02    3.013097942e-01
     2304500000   -7.258715481e-02    2.944881320e-01
     2305250000   -9.619648755e-02    2.852776349e-01
     2306000000   -1.214140207e-01    2.745052278e-01
     2306750000   -1.446929276e-01    2.619190514e-01
     2307500000   -1.655331701e-01    2.479469180e-01
     2308250000   -1.854639649e-01    2.314316928e-01
              0    1.578276157e-01    1.026565656e-01
              0    1.577159017e-01    1.030668616e-01
     2310500000   -2.348103374e-01    1.740013957e-01
     2311250000   -2.474810034e-01    1.526539475e-01
     2312000000   -2.591905892e-01    1.293898225e-01
     2312750000   -2.668685615e-01    1.073814109e-01
     2313500000   -2.747888863e-01    8.299551159e-02
     2314250000   -2.770857811e-01    6.148605421e-02
     2315000000   -2.806551158e-01    3.634414449e-02
     2315750000   -2.805781066e-01    1.179186627e-02
     2316500000   -2.790628672e-01   -1.117242780e-02
     2317250000   -2.749434114e-01   -3.427771106e-02
     2318000000   -2.690053880e-01   -5.754950270e-02
     2318750000   -2.616192997e-01   -8.176329732e-02
     2319500000   -2.521659434e-01   -1.033095866e-01
     2320250000   -2.411337197e-01   -1.208595335e-01
     2321000000   -2.278686017e-01   -1.424336433e-01
     2321750000   -2.138732672e-01   -1.577290148e-01
     2322500000   -1.990123540e-01   -1.730871797e-01
     2323250000   -1.819958091e-01   -1.887386441e-01
     2324000000   -1.623478830e-01   -2.037233710e-01
     2324750000   -1.443634927e-01   -2.139312029e-01
     2325500000   -1.259257644e-01   -2.217285782e-01
     2326250000   -1.036581546e-01   -2.316019684e-01
     2327000000   -8.228273690e-02   -2.383276820e-01
     2327750000   -6.002423167e-02   -2.429684103e-01
     2328500000   -4.019707814e-02   -2.442519814e-01
     2329250000   -1.933061145e-02   -2.441550195e-01
     2330000000    6.124656647e-04   -2.425703853e-01
     2330750000    2.577251568e-02   -2.399323732e-01
     2331500000    4.291562736e-02   -2.349958122e-01
     2332250000    6.448728591e-02   -2.275501639e-01
     2333000000    8.119722456e-02   -2.197152227e-01
     2333750000    1.000276282e-01   -2.098924667e-01
     2334500000    1.187976450e-01   -1.986781210e-01
     2335250000    1.307186484e-01   -1.870708466e-01
     2336000000    1.481286138e-01   -1.727943271e-01
     2336750000    1.616643518e-01   -1.578799635e-01
     2337500000    1.734133512e-01   -1.424474567e-01
     2338250000    1.836542934e-01   -1.258615404e-01
     2339000000    1.930000633e-01   -1.087376475e-01
     2339750000    2.007324398e-01   -9.072723985e-02
     2340500000    2.064578235e-01   -7.315793633e-02
     2341250000    2.104414999e-01   -5.511743948e-02
     2342000000    2.128974795e-01   -3.665881231e-02
     2342750000    2.138485014e-01   -1.851701736e-02
     2343500000    2.138029039e-01    5.422250251e-04
     2344250000    2.114736289e-01    1.874092966e-02
     2345000000    2.070970386e-01    3.752554208e-02
     2345750000    2.024062723e-01    5.149441212e-02
     2346500000    1.952611655e-01    7.152654231e-02
     2347250000    1.884783208e-01    8.233578503e-02
     2348000000    1.790887713e-01    9.921575338e-02
     2348750000    1.665959656e-01    1.171320006e-01
     2349500000    1.580040306e-01    1.243428662e-01
     2350250000    1.459046602e-01    1.361431926e-01
     2351000000    1.310273707e-01    1.494331360e-01
     2351750000    1.171739101e-01    1.589757353e-01
     2352500000    1.019983068e-01    1.672643721e-01
     2353250000    8.906991780e-02    1.726470441e-01
     2354000000    6.929893047e-02    1.801285446e-01
     2354750000    5.904815346e-02    1.817367822e-01
     2355500000    4.185447469e-02    1.854777187e-01
     2356250000    2.071575634e-02    1.874451637e-01
     2357000000    7.155100815e-03    1.872467697e-01
     2357750000   -5.017279647e-03    1.861925274e-01
     2358500000   -2.315554209e-02    1.838565469e-01
     2359250000   -3.794892132e-02    1.800585836e-01
     2360000000   -5.239253119e-02    1.752562076e-01
     2360750000   -6.637316942e-02    1.698677093e-01
     2361500000   -7.944709808e-02    1.626393199e-01
     2362250000   -9.216301143e-02    1.549197286e-01
     2363000000   -1.043462232e-01    1.459564120e-01
     2363750000   -1.158410162e-01    1.355127990e-01
     2364500000   -1.244421229e-01    1.258701384e-01
     2365250000   -1.336197853e-01    1.144097969e-01
     2366000000   -1.411481798e-01    1.030673087e-01
     2366750000   -1.478535831e-01    9.114319831e-02
     2367500000   -1.529754251e-01    7.893966138e-02
     2368250000   -1.573176533e-01    6.657160819e-02
     2369000000   -1.609089226e-01    5.224284530e-02
     2369750000   -1.630566865e-01    3.934964538e-02
     2370500000   -1.642154753e-01    2.549291588e-02
     2371250000   -1.637706310e-01    1.243351493e-02
     2372000000   -1.623528004e-01   -1.421532215e-04
     2372750000   -1.607863754e-01   -1.303317398e-02
     2373500000   -1.581048816e-01   -2.466369607e-02
     2374250000   -1.534689516e-01   -3.948825970e-02
     2375000000   -1.488440931e-01   -5.067110062e-02
     2375750000   -1.424279958e-01   -6.228772178e-02
     2376500000   -1.361988932e-01   -7.347247750e-02
     2377250000   -1.288694292e-01   -8.311741054e-02
     2378000000   -1.213461384e-01   -9.234356880e-02
     2378750000   -1.131104380e-01   -1.007071361e-01
     2379500000   -1.030280367e-01   -1.093926653e-01
     2380250000   -9.323456138e-02   -1.162703410e-01
     2381000000   -8.507803828e-02   -1.213383302e-01
     2381750000   -7.417856157e-02   -1.268070340e-01
     2382500000   -6.341621280e-02   -1.310619861e-01
     2383250000   -5.095687136e-02   -1.351426691e-01
     2384000000   -3.940171748e-02   -1.372869760e-01
     2384750000   -3.025317192e-02   -1.394413412e-01
     2385500000   -1.876513474e-02   -1.404807419e-01
     2386250000   -5.420810077e-03   -1.393077075e-01
     2387000000    4.208050668e-03   -1.392131001e-01
     2387750000    1.390926912e-02   -1.378420889e-01
     2388500000    2.580271102e-02   -1.348184943e-01
     2389250000    3.684051335e-02   -1.313460320e-01
     2390000000    4.575463757e-02   -1.280457973e-01
     2390750000    5.618926883e-02   -1.230462790e-01
     2391500000    6.504191458e-02   -1.179415584e-01
     2392250000    7.423346490e-02   -1.115883440e-01
     2393000000    8.229433000e-02   -1.060418859e-01
     2393750000    8.968785405e-02   -9.896480292e-02
     2394500000    9.716884792e-02   -9.146577865e-02
     2395250000    1.033910215e-01   -8.460108936e-02
     2396000000    1.089323014e-01   -7.598743588e-02
     2396750000    1.148639321e-01   -6.759098172e-02
     2397500000    1.188537627e-01   -5.915688723e-02
     2398250000    1.225882992e-01   -5.016513541e-02
     2399000000    1.256196648e-01   -4.049531743e-02
     2399750000    1.284500808e-01   -3.155038133e-02
     2400500000    1.301411390e-01   -2.199779637e-02
     2401250000    1.320597231e-01   -1.324065309e-02
     2402000000    1.319575012e-01   -2.960608341e-03
     2402750000    1.313787252e-01    7.234225050e-03
     2403500000    1.315466911e-01    1.594605297e-02
     2404250000    1.301134080e-01    2.542320080e-02
     2405000000    1.286262721e-01    3.412533924e-02
     2405750000    1.249012947e-01    4.380709305e-02
     2406500000    1.232065558e-01    5.173739046e-02
     2407250000    1.194837838e-01    5.943297595e-02
     2408000000    1.157127023e-01    6.738145649e-02
     2408750000    1.104930863e-01    7.496850193e-02
     2409500000    1.051690802e-01    8.227323741e-02
     2410250000    9.902873635e-02    8.904695511e-02
     2411000000    9.223975986e-02    9.531757236e-02
     2411750000    8.624766767e-02    1.011439487e-01
     2412500000    7.978747785e-02    1.067277044e-01
     2413250000    7.242144644e-02    1.115030199e-01
     2414000000    6.459580362e-02    1.161363870e-01
     2414750000    5.693791062e-02    1.204331666e-01
     2415500000    4.856505617e-02    1.239575148e-01
     2416250000    4.043816403e-02    1.265380979e-01
     2417000000    3.250794485e-02    1.295658499e-01
     2417750000    2.341146581e-02    1.309060156e-01
     2418500000    1.495451946e-02    1.319697499e-01
     2419250000    6.225241348e-03    1.324593723e-01
     2420000000   -2.230801852e-03    1.316580474e-01
     2420750000   -1.090309396e-02    1.312874556e-01
     2421500000   -1.957653277e-02    1.294927746e-01
     2422250000   -2.786679380e-02    1.274140030e-01
     2423000000   -3.629768640e-02    1.241340190e-01
     2423750000   -4.468300194e-02    1.219480187e-01
     2424500000   -5.277539045e-02    1.169065684e-01
     2425250000   -6.064335257e-02    1.134660468e-01
     2426000000   -6.812915206e-02    1.072506309e-01
     2426750000   -7.551659644e-02    1.019085646e-01
     2427500000   -8.166943491e-02    9.448979795e-02
     2428250000   -8.854234219e-02    8.883601427e-02
     2429000000   -9.528011829e-02    8.178675175e-02
     2429750000   -9.987776726e-02    7.217134535e-02
     2430500000   -1.052122936e-01    6.465307623e-02
     2431250000   -1.107370406e-01    5.648523197e-02
     2432000000   -1.139072627e-01    4.719638824e-02
     2432750000   -1.189085692e-01    3.849205375e-02
     2433500000   -1.207383499e-01    2.813411132e-02
     2434250000   -1.239117235e-01    1.945703849e-02
     2435000000   -1.260527670e-01    9.256791323e-03
     2435750000   -1.263329387e-01   -8.973833756e-04
     2436500000   -1.252545863e-01   -1.122103818e-02
     2437250000   -1.245303750e-01   -2.161670290e-02
     2438000000   -1.236612350e-01   -3.156868741e-02
     2438750000   -1.220019162e-01   -4.205724224e-02
     2439500000   -1.174138635e-01   -5.156562477e-02
     2440250000   -1.146617606e-01   -6.176128611e-02
     2441000000   -1.096556187e-01   -7.118810713e-02
     2441750000   -1.043661535e-01   -8.017924428e-02
     2442500000   -9.849371016e-02   -8.935249597e-02
     2443250000   -9.124220163e-02   -9.780552983e-02
     2444000000   -8.355681598e-02   -1.047621518e-01
     2444750000   -7.580568641e-02   -1.136214137e-01
     2445500000   -6.711596996e-02   -1.203797758e-01
     2446250000   -5.762964115e-02   -1.260335296e-01
     2447000000   -4.806986451e-02   -1.312613189e-01
     2447750000   -3.770321608e-02   -1.359537840e-01
     2448500000   -2.733126655e-02   -1.405795664e-01
     2449250000   -1.609129459e-02   -1.434300691e-01
     2450000000   -4.798793700e-03   -1.460002065e-01
     2450750000    6.280352362e-03   -1.470315754e-01
     2451500000    1.808987558e-02   -1.479444355e-01
     2452250000    3.000610322e-02   -1.474757493e-01
     2453000000    4.157861695e-02   -1.460914016e-01
     2453750000    5.355331674e-02   -1.437574178e-01
     2454500000    6.513431668e-02   -1.407343894e-01
     2455250000    7.643100619e-02   -1.365075856e-01
     2456000000    8.743725717e-02   -1.315402389e-01
     2456750000    9.865377843e-02   -1.252669990e-01
     2457500000    1.087852940e-01   -1.184905991e-01
     2458250000    1.184775084e-01   -1.106129289e-01
     2459000000    1.284318417e-01   -1.018396989e-01
     2459750000    1.369580925e-01   -9.279144555e-02
     2460500000    1.445842832e-01   -8.271889389e-02
     2461250000    1.519631743e-01   -7.176515460e-02
     2462000000    1.579489708e-01   -5.989856645e-02
     2462750000    1.634216607e-01   -4.769979417e-02
     2463500000    1.615666449e-01   -3.940582648e-02
     2464250000    1.650847048e-01   -2.612179890e-02
     2465000000    1.680417955e-01   -1.251114439e-02
     2465750000    1.699607223e-01    2.222680720e-03
     2466500000    1.700595319e-01    1.633610949e-02
     2467250000    1.692868769e-01    3.055519052e-02
     2468000000    1.675417721e-01    4.449781403e-02
     2468750000    1.643176973e-01    5.908800662e-02
     2469500000    1.602222174e-01    7.308512181e-02
     2470250000    1.547555327e-01    8.682245016e-02
     2471000000    1.484177262e-01    1.006467938e-01
     2471750000    1.405675560e-01    1.130709574e-01
     2472500000    1.320877224e-01    1.252517998e-01
     2473250000    1.218345463e-01    1.367807090e-01
     2474000000    1.109354869e-01    1.478471458e-01
     2474750000    9.904023260e-02    1.580422223e-01
     2475500000    8.654269576e-02    1.672332585e-01
     2476250000    7.290849090e-02    1.751292497e-01
     2477000000    5.891720578e-02    1.817783862e-01
     2477750000    4.374627769e-02    1.877139360e-01
     2478500000    2.862637118e-02    1.920167357e-01
     2479250000    1.321886014e-02    1.954242736e-01
     2480000000   -2.530010650e-03    1.970763057e-01
     2480750000   -1.930638030e-02    1.976816058e-01
     2481500000   -3.570739180e-02    1.962559521e-01
     2482250000   -5.201023445e-02    1.937337816e-01
     2483000000   -6.800581515e-02    1.899061352e-01
     2483750000   -8.392837644e-02    1.850064695e-01
     2484500000   -9.987331182e-02    1.782434434e-01
     2485250000   -1.147104800e-01    1.701510400e-01
     2486000000   -1.296120584e-01    1.608863622e-01
     2486750000   -1.430986673e-01    1.501552761e-01
     2487500000   -1.559900045e-01    1.384837925e-01
     2488250000   -1.680470407e-01    1.257080883e-01
     2489000000   -1.788870096e-01    1.116632596e-01
     2489750000   -1.890657991e-01    9.641956538e-02
     2490500000   -1.975651830e-01    8.115506172e-02
     2491250000   -2.048001438e-01    6.517969072e-02
     2492000000   -2.105053663e-01    4.775360599e-02
     2492750000   -2.146196365e-01    3.016208112e-02
     2493500000   -2.177544087e-01    1.183589082e-02
     2494250000   -2.191690952e-01   -6.361692213e-03
     2495000000   -2.180587500e-01   -2.476361394e-02
     2495750000   -2.164500207e-01   -4.320678487e-02
     2496500000   -2.132756859e-01   -6.159225851e-02
     2497250000   -2.083648294e-01   -8.015020192e-02
     2498000000   -2.013226897e-01   -9.630367905e-02
     2498750000   -1.933974177e-01   -1.152920946e-01
     2499500000   -1.834646463e-01   -1.305542439e-01
     2500250000   -1.726243347e-01   -1.465703249e-01
     2501000000   -1.600692719e-01   -1.617683172e-01
     2501750000   -1.464364976e-01   -1.748809665e-01
     2502500000   -1.312024146e-01   -1.866638660e-01
     2503250000   -1.147747040e-01   -1.987760812e-01
     2504000000   -9.792900831e-02   -2.076170743e-01
     2504750000   -7.950934768e-02   -2.170473933e-01
     2505500000   -6.108132750e-02   -2.230383605e-01
     2506250000   -4.258196056e-02   -2.275822312e-01
     2507000000   -2.119871229e-02   -2.314865142e-01
     2507750000   -1.762176049e-03   -2.328815162e-01
     2508500000    1.839581691e-02   -2.325903475e-01
     2509250000    3.872114792e-02   -2.300012112e-01
     2510000000    5.905985087e-02   -2.272108644e-01
     2510750000    7.934784144e-02   -2.211567760e-01
     2511500000    9.895261377e-02   -2.145548463e-01
     2512250000    1.178605333e-01   -2.055676877e-01
     2513000000    1.353744566e-01   -1.950250566e-01
     2513750000    1.528709829e-01   -1.831039339e-01
     2514500000    1.686712801e-01   -1.700529158e-01
     2515250000    1.843800843e-01   -1.546097100e-01
     2516000000    1.978304684e-01   -1.383714527e-01
     2516750000    2.087273896e-01   -1.210408732e-01
     2517500000    2.202616036e-01   -1.017413363e-01
     2518250000    2.287291586e-01   -8.265304565e-02
     2519000000    2.355607003e-01   -6.223967671e-02
     2519750000    2.409112304e-01   -4.149996862e-02
     2520500000    2.448537946e-01   -2.014113590e-02
     2521250000    2.459992766e-01    1.830516267e-03
     2522000000    2.457516193e-01    2.430161461e-02
     2522750000    2.434606552e-01    4.516711086e-02
     2523500000    2.390131354e-01    6.661361456e-02
     2524250000    2.332444489e-01    8.833666146e-02
     2525000000    2.251663804e-01    1.097965613e-01
     2525750000    2.153353244e-01    1.300339252e-01
     2526500000    2.034777254e-01    1.480074525e-01
     2527250000    1.902041584e-01    1.666744500e-01
     2528000000    1.752650291e-01    1.831379384e-01
     2528750000    1.590543538e-01    1.990591884e-01
     2529500000    1.410742849e-01    2.138614208e-01
     2530250000    1.227817312e-01    2.252959907e-01
     2531000000    1.023423895e-01    2.363859862e-01
     2531750000    8.143796772e-02    2.457894087e-01
     2532500000    5.939534679e-02    2.531102598e-01
     2533250000    3.733176738e-02    2.586275935e-01
     2534000000    1.502404176e-02    2.605042756e-01
     2534750000   -8.075152524e-03    2.617141306e-01
     2535500000   -3.197091445e-02    2.607039511e-01
     2536250000   -5.421353132e-02    2.569441199e-01
     2537000000   -7.748318464e-02    2.523537278e-01
     2537750000   -1.002706140e-01    2.452597767e-01
     2538500000   -1.217631102e-01    2.358343452e-01
     2539250000   -1.420193464e-01    2.248405367e-01
     2540000000   -1.614436656e-01    2.117394209e-01
     2540750000   -1.805385351e-01    1.965072751e-01
     2541500000   -1.979664862e-01    1.803801507e-01
     2542250000   -2.135300487e-01    1.621414423e-01
     2543000000   -2.277570218e-01    1.425850689e-01
     2543750000   -2.398086041e-01    1.217724159e-01
     2544500000   -2.506913245e-01    1.002394408e-01
     2545250000   -2.601960003e-01    7.702288032e-02
     2546000000   -2.656253576e-01    5.404973030e-02
     2546750000   -2.698588967e-01    2.962876111e-02
     2547500000   -2.729465663e-01    4.993207287e-03
     2548250000   -2.724495232e-01   -1.975379139e-02
     2549000000   -2.705887556e-01   -4.450848699e-02
     2549750000   -2.658345401e-01   -7.021615654e-02
     2550500000   -2.591872215e-01   -9.291107953e-02
     2551250000   -2.503180504e-01   -1.173858121e-01
     2552000000   -2.394095957e-01   -1.392474025e-01
     2552750000   -2.272496372e-01   -1.612820774e-01
     2553500000   -2.124768794e-01   -1.823821962e-01
     2554250000   -1.954232156e-01   -2.017736584e-01
     2555000000   -1.776174009e-01   -2.182245702e-01
     2555750000   -1.572404206e-01   -2.345468402e-01
     2556500000   -1.367950290e-01   -2.476027161e-01
     2557250000   -1.150089577e-01   -2.598481476e-01
     2558000000   -9.091380984e-02   -2.705723643e-01
     2558750000   -6.614790112e-02   -2.788916528e-01
     2559500000   -4.217062145e-02   -2.830035985e-01
     2560250000   -1.472088601e-02   -2.890090346e-01
     2561000000    9.725261480e-03   -2.882131636e-01
     2561750000    3.705688193e-02   -2.877906263e-01
     2562500000    6.309855729e-02   -2.845568657e-01
     2563250000    8.826711029e-02   -2.785345018e-01
     2564000000    1.134297475e-01   -2.701614797e-01
     2564750000    1.387653500e-01   -2.602480352e-01
     2565500000    1.618471593e-01   -2.472817600e-01
     2566250000    1.831953377e-01   -2.331183702e-01
     2567000000    2.038590461e-01   -2.164176255e-01
     2567750000    2.225745618e-01   -1.976363212e-01
     2568500000    2.404231131e-01   -1.775796413e-01
     2569250000    2.569861710e-01   -1.550181508e-01
     2570000000    2.696492374e-01   -1.326475292e-01
     2570750000    2.819385827e-01   -1.079924926e-01
     2571500000    2.905772626e-01   -8.378462493e-02
     2572250000    2.985137403e-01   -5.665550753e-02
     2573000000    3.030858040e-01   -2.978810482e-02
     2573750000    3.047958910e-01   -2.574450336e-03
     2574500000    3.040504456e-01    2.453607135e-02
     2575250000    3.004057705e-01    5.137992278e-02
     2576000000    2.958110273e-01    7.883203775e-02
     2576750000    2.875619531e-01    1.051227525e-01
     2577500000    2.777360678e-01    1.315055788e-01
     2578250000    2.646583617e-01    1.558521539e-01
     2579000000    2.498779297e-01    1.793820709e-01
     2579750000    2.325579673e-01    2.020221353e-01
     2580500000    2.141299099e-01    2.226414233e-01
     2581250000    1.930218190e-01    2.405892760e-01
     2582000000    1.696666181e-01    2.588018477e-01
     2582750000    1.468279362e-01    2.734261155e-01
     2583500000    1.199770421e-01    2.877454162e-01
     2584250000    9.431443363e-02    2.965730131e-01
     2585000000    6.588011235e-02    3.060444295e-01
     2585750000    3.775508329e-02    3.112194836e-01
     2586500000    9.731305763e-03    3.142161965e-01
     2587250000   -1.879606023e-02    3.144395947e-01
     2588000000   -4.806431010e-02    3.131131232e-01
     2588750000   -7.604587078e-02    3.078001738e-01
     2589500000   -1.040124968e-01    3.004825115e-01
     2590250000   -1.309517771e-01    2.901670933e-01
     2591000000   -1.584728807e-01    2.782011926e-01
     2591750000   -1.825878918e-01    2.630698979e-01
     2592500000   -2.075137645e-01    2.461880445e-01
     2593250000   -2.307610214e-01    2.270380110e-01
     2594000000   -2.508294284e-01    2.047961503e-01
     2594750000   -2.681916058e-01    1.819346100e-01
     2595500000   -2.828430533e-01    1.592554152e-01
     2596250000   -2.998611033e-01    1.314216554e-01
     2597000000   -3.108389676e-01    1.038580686e-01
     2597750000   -3.205884099e-01    7.528924942e-02
     2598500000   -3.260480464e-01    4.783670977e-02
     2599250000   -3.312000334e-01    1.638320647e-02
     2600000000   -3.322712481e-01   -1.171334740e-02
