! NanoVNA-App
! Date: 2026-05-22 16:33:38
! Start: 4.8GHz Stop: 6GHz Points: 401
! S-Parameter data: F S11
# Hz S RI R 50
!     Frequency           S11_Real           S11_Imag
     4800000000   -1.517523974e-01   -1.695359647e-01
     4803000000   -7.497680187e-02   -2.163961083e-01
     4806000000    3.871965921e-03   -2.207941562e-01
     4809000000    8.945898712e-02   -2.043055892e-01
     4812000000    1.473163962e-01   -1.548408866e-01
     4815000000    1.945325136e-01   -8.814118803e-02
     4818000000    2.066939175e-01   -1.610234194e-02
     4821000000    1.953675598e-01    5.955459923e-02
     4824000000    1.577390283e-01    1.248931214e-01
     4827000000    9.984091669e-02    1.687397659e-01
     4830000000    2.830286324e-02    1.938714683e-01
     4833000000   -3.749496862e-02    1.850796342e-01
     4836000000   -1.014223024e-01    1.565044671e-01
     4839000000   -1.494307071e-01    1.060312316e-01
     4842000000   -1.747573763e-01    4.479157180e-02
     4845000000   -1.759993732e-01   -1.925806887e-02
     4848000000   -1.561270654e-01   -8.352229744e-02
     4851000000   -1.139569357e-01   -1.333439648e-01
     4854000000   -6.116893142e-02   -1.594346762e-01
     4857000000    1.641018782e-03   -1.723660380e-01
     4860000000    5.633453652e-02   -1.551133841e-01
     4863000000    1.075727418e-01   -1.224318817e-01
     4866000000    1.336058825e-01   -7.677844167e-02
     4869000000    1.524677724e-01   -1.843790524e-02
     4872000000    1.460065693e-01    3.203355148e-02
     4875000000    1.226986796e-01    7.601902634e-02
     4878000000    8.558233082e-02    1.138828546e-01
     4881000000    3.465906531e-02    1.379316449e-01
     4884000000   -8.708166890e-03    1.355578154e-01
     4887000000   -5.042595044e-02    1.213871464e-01
     4890000000   -9.516590834e-02    9.160310775e-02
     4893000000   -1.124434695e-01    5.399031192e-02
     4896000000   -1.210479215e-01    9.835497476e-03
     4899000000   -1.136099249e-01   -2.881194279e-02
     4902000000   -9.218078107e-02   -6.394344568e-02
     4905000000   -6.215305254e-02   -8.604981005e-02
     4908000000   -2.583150007e-02   -9.921706468e-02
     4911000000    7.878383622e-03   -9.644895047e-02
     4914000000    3.867257386e-02   -8.434695005e-02
     4917000000    6.629005820e-02   -5.968643352e-02
     4920000000    7.551828027e-02   -3.824546561e-02
     4923000000    8.142191917e-02   -7.795332931e-03
     4926000000    7.520084828e-02    2.382043563e-02
     4929000000    6.394606084e-02    3.750948980e-02
     4932000000    4.237462953e-02    5.689116195e-02
     4935000000    1.899683289e-02    6.543892622e-02
     4938000000    4.623032175e-03    6.394189596e-02
     4941000000   -2.108986117e-02    5.582068488e-02
     4944000000   -2.885266021e-02    5.011501163e-02
     4947000000   -4.537700489e-02    2.793743275e-02
     4950000000   -4.802773893e-02    1.353477687e-02
     4953000000   -4.945005849e-02    1.748502487e-03
     4956000000   -4.581296071e-02   -1.034962852e-02
     4959000000   -3.692810237e-02   -2.246568911e-02
     4962000000   -3.074091859e-02   -3.041159734e-02
     4965000000   -2.186895348e-02   -3.643513471e-02
     4968000000   -1.188600436e-02   -3.920515999e-02
     4971000000   -1.879571239e-03   -4.000448436e-02
     4974000000    8.003205992e-03   -3.926702216e-02
     4977000000    1.767657697e-02   -3.739335388e-02
     4980000000    2.576084062e-02   -3.105322085e-02
     4983000000    3.516893834e-02   -2.348220535e-02
     4986000000    4.111601785e-02   -1.231642719e-02
     4989000000    4.737076536e-02    7.359783049e-04
     4992000000    4.589841515e-02    1.511503104e-02
     4995000000    3.874664754e-02    2.611151151e-02
     4998000000    3.312884644e-02    4.333344474e-02
     5001000000    1.790268719e-02    5.760049447e-02
     5004000000   -1.108768047e-04    6.307072192e-02
     5007000000   -1.397508755e-02    5.906732380e-02
     5010000000   -4.150893167e-02    5.613680556e-02
     5013000000   -6.010174006e-02    4.109957442e-02
     5016000000   -7.494761795e-02    1.984849013e-02
     5019000000   -8.032309264e-02   -4.161500838e-03
     5022000000   -7.884520292e-02   -3.529851511e-02
     5025000000   -6.450277567e-02   -6.244909391e-02
     5028000000   -4.308786988e-02   -8.281778544e-02
     5031000000   -1.024922263e-02   -9.744194895e-02
     5034000000    2.267339267e-02   -1.003197655e-01
     5037000000    5.337516963e-02   -9.055676311e-02
     5040000000    8.732398599e-02   -6.823878735e-02
     5043000000    1.112791449e-01   -3.350729123e-02
     5046000000    1.197791994e-01    4.999363329e-03
     5049000000    1.138770133e-01    4.662590101e-02
     5052000000    9.313609451e-02    8.661722392e-02
     5055000000    5.989384279e-02    1.178753227e-01
     5058000000    1.546677761e-02    1.370589137e-01
     5061000000   -3.268520162e-02    1.379288584e-01
     5064000000   -7.933655381e-02    1.238450855e-01
     5067000000   -1.208874881e-01    9.004798532e-02
     5070000000   -1.472175866e-01    4.525136948e-02
     5073000000   -1.564471573e-01   -1.040062122e-02
     5076000000   -1.465047151e-01   -6.599581987e-02
     5079000000   -1.175547540e-01   -1.173452884e-01
     5082000000   -7.273860276e-02   -1.552767754e-01
     5085000000   -1.127479505e-02   -1.753371656e-01
     5088000000    5.006568506e-02   -1.736104190e-01
     5091000000    1.098524481e-01   -1.486515999e-01
     5094000000    1.582923234e-01   -1.070408225e-01
     5097000000    1.877650470e-01   -4.216309637e-02
     5100000000    1.951285303e-01    2.408810891e-02
     5103000000    1.780628413e-01    9.256791323e-02
     5106000000    1.426018178e-01    1.486249715e-01
     5109000000    7.829093933e-02    1.914737076e-01
     5112000000    9.680852294e-03    2.115802020e-01
     5115000000   -6.758952886e-02    2.008385211e-01
     5118000000   -1.354321092e-01    1.681033075e-01
     5121000000   -1.903263330e-01    1.116732955e-01
     5124000000   -2.238008529e-01    4.177096859e-02
     5127000000   -2.240076810e-01   -4.015387222e-02
     5130000000   -1.976340264e-01   -1.169300005e-01
     5133000000   -1.474169642e-01   -1.800377667e-01
     5136000000   -7.731663436e-02   -2.247672677e-01
     5139000000    7.636789698e-03   -2.411407530e-01
     5142000000    8.905167133e-02   -2.205604315e-01
     5145000000    1.649004966e-01   -1.780421883e-01
     5148000000    2.187397927e-01   -1.080647111e-01
     5151000000    2.460290045e-01   -2.345124073e-02
     5154000000    2.426486015e-01    6.470631808e-02
     5157000000    2.041203678e-01    1.447837502e-01
     5160000000    1.456181109e-01    2.133592218e-01
     5163000000    6.285224855e-02    2.552043796e-01
     5166000000   -2.981512994e-02    2.610759735e-01
     5169000000   -1.207964644e-01    2.422461212e-01
     5172000000   -1.939764321e-01    1.829512417e-01
     5175000000   -2.510896325e-01    1.049361899e-01
     5178000000   -2.715561986e-01    1.081231050e-02
     5181000000   -2.617113590e-01   -8.535259962e-02
     5184000000   -2.203500569e-01   -1.761990786e-01
     5187000000   -1.456658691e-01   -2.378855944e-01
     5190000000   -5.370075256e-02   -2.696652710e-01
     5193000000    4.254228249e-02   -2.738524079e-01
     5196000000    1.384654939e-01   -2.460903078e-01
     5199000000    2.186427116e-01   -1.837773472e-01
     5202000000    2.639544308e-01   -9.849768132e-02
     5205000000    2.884477079e-01    2.686263761e-03
     5208000000    2.682828009e-01    1.026642770e-01
     5211000000    2.155611664e-01    1.859388798e-01
     5214000000    1.387300491e-01    2.578149140e-01
     5217000000    4.439555109e-02    2.852779925e-01
     5220000000   -5.752492324e-02    2.822239399e-01
     5223000000   -1.528701037e-01    2.435693890e-01
     5226000000   -2.259120494e-01    1.761640459e-01
     5229000000   -2.735183239e-01    8.639193326e-02
     5232000000   -2.813477218e-01   -7.623116486e-03
     5235000000   -2.617436647e-01   -1.112820059e-01
     5238000000   -2.069114894e-01   -1.974444240e-01
     5241000000   -1.263898611e-01   -2.540539801e-01
     5244000000   -2.790910751e-02   -2.813305557e-01
     5247000000    6.726273149e-02   -2.705589533e-01
     5250000000    1.561534107e-01   -2.306791246e-01
     5253000000    2.312520593e-01   -1.593430042e-01
     5256000000    2.693679333e-01   -7.217651606e-02
     5259000000    2.798442245e-01    3.362329677e-02
     5262000000    2.459789664e-01    1.196144000e-01
     5265000000    1.909418851e-01    1.973760575e-01
     5268000000    1.115482226e-01    2.429350466e-01
     5271000000    8.905956522e-03    2.741779089e-01
     5274000000   -7.605584711e-02    2.519321442e-01
     5277000000   -1.523691863e-01    2.119940817e-01
     5280000000   -2.278171331e-01    1.348106861e-01
     5283000000   -2.505936027e-01    5.185664445e-02
     5286000000   -2.515393198e-01   -3.706864640e-02
     5289000000   -2.197805792e-01   -1.247880608e-01
     5292000000   -1.600690782e-01   -1.919281036e-01
     5295000000   -8.347153664e-02   -2.326176912e-01
     5298000000    6.615282968e-03   -2.428700328e-01
     5301000000    9.032192826e-02   -2.241061330e-01
     5304000000    1.624712944e-01   -1.754580736e-01
     5307000000    2.092436701e-01   -1.054309681e-01
     5310000000    2.318492532e-01   -2.239357308e-02
     5313000000    2.225951999e-01    5.332490429e-02
     5316000000    1.866804361e-01    1.298256069e-01
     5319000000    1.270036548e-01    1.867952794e-01
     5322000000    5.350718275e-02    2.158956975e-01
     5325000000   -3.212394565e-02    2.196467817e-01
     5328000000   -1.040816829e-01    1.898091435e-01
     5331000000   -1.621657908e-01    1.393461078e-01
     5334000000   -2.035073936e-01    6.896543503e-02
     5337000000   -2.108388692e-01   -6.052252837e-03
     5340000000   -1.953435093e-01   -7.520174980e-02
     5343000000   -1.500726938e-01   -1.452424228e-01
     5346000000   -8.628264070e-02   -1.896081716e-01
     5349000000   -1.913886704e-02   -2.017714679e-01
     5352000000    5.367915332e-02   -1.941139549e-01
     5355000000    1.193003282e-01   -1.602956802e-01
     5358000000    1.645285785e-01   -1.086467132e-01
     5361000000    1.929033399e-01   -3.365083039e-02
     5364000000    1.918427497e-01    1.166444179e-02
     5367000000    1.678545177e-01    8.702663332e-02
     5370000000    1.137630492e-01    1.558582336e-01
     5373000000    5.902631581e-02    1.795357615e-01
     5376000000    3.924153280e-03    1.874922961e-01
     5379000000   -6.594077498e-02    1.706621945e-01
     5382000000   -1.193872094e-01    1.397286952e-01
     5385000000   -1.700778604e-01    6.763639301e-02
     5388000000   -1.780176312e-01    2.739894390e-02
     5391000000   -1.703350395e-01   -4.177477583e-02
     5394000000   -1.427625120e-01   -1.000404805e-01
     5397000000   -1.008802578e-01   -1.399164796e-01
     5400000000   -4.866755754e-02   -1.643411070e-01
     5403000000    2.572774142e-02   -1.651213765e-01
     5406000000    7.080149651e-02   -1.498033553e-01
     5409000000    1.193392500e-01   -1.108243316e-01
     5412000000    1.506820172e-01   -6.151868775e-02
     5415000000    1.605246514e-01   -1.317912433e-02
     5418000000    1.447598338e-01    5.641774088e-02
     5421000000    1.251855493e-01    9.591046721e-02
     5424000000    8.036376536e-02    1.309582442e-01
     5427000000    1.400359254e-02    1.451610476e-01
     5430000000   -1.569061168e-02    1.505119801e-01
     5433000000   -7.220639288e-02    1.280909330e-01
     5436000000   -1.089493334e-01    8.989761025e-02
     5439000000   -1.341325790e-01    4.226854816e-02
     5442000000   -1.403058171e-01    5.941049196e-03
     5445000000   -1.253434569e-01   -4.801961407e-02
     5448000000   -9.076157212e-02   -8.792195469e-02
     5451000000   -5.628705025e-02   -1.109328344e-01
     5454000000   -1.503021456e-02   -1.237608343e-01
     5457000000    2.823791094e-02   -1.170371175e-01
     5460000000    6.534645706e-02   -1.050494537e-01
     5463000000    9.544868022e-02   -6.857126951e-02
     5466000000    1.090250090e-01   -2.928953059e-02
     5469000000    1.205580384e-01    1.724282920e-04
     5472000000    9.890837967e-02    4.440461844e-02
     5475000000    7.379383594e-02    7.508870214e-02
     5478000000    4.193571955e-02    9.158461541e-02
     5481000000    1.503529772e-02    1.082635298e-01
     5484000000   -2.688192576e-02    9.314844757e-02
     5487000000   -5.794571713e-02    8.018237352e-02
     5490000000   -8.121487498e-02    5.581635609e-02
     5493000000   -9.021110833e-02    2.021404542e-02
     5496000000   -9.317293763e-02   -1.052725688e-02
     5499000000   -8.161202073e-02   -4.031753168e-02
     5502000000   -6.607920676e-02   -6.968282908e-02
     5505000000   -3.648627549e-02   -8.467575908e-02
     5508000000    9.116852016e-05   -8.405464888e-02
     5511000000    2.650922723e-02   -8.379594237e-02
     5514000000    5.403004587e-02   -7.134541124e-02
     5517000000    7.149943709e-02   -4.214511812e-02
     5520000000    8.405797184e-02   -1.751346141e-02
     5523000000    8.196938038e-02    1.205569226e-02
     5526000000    8.064844459e-02    4.165930673e-02
     5529000000    5.317766592e-02    5.683177710e-02
     5532000000    3.515681624e-02    8.479627222e-02
     5535000000    7.687762380e-03    7.290612161e-02
     5538000000   -2.373398468e-02    8.800335974e-02
     5541000000   -4.077983648e-02    6.474648416e-02
     5544000000   -6.571265310e-02    5.001409724e-02
     5547000000   -6.767614186e-02    2.633544616e-02
     5550000000   -8.659941703e-02   -5.419053137e-03
     5553000000   -7.452367991e-02   -2.302051708e-02
     5556000000   -6.565234065e-02   -5.647069588e-02
     5559000000   -4.473062977e-02   -7.368251681e-02
     5562000000   -1.839120872e-02   -8.404596150e-02
     5565000000    1.016126294e-02   -8.550178260e-02
     5568000000    3.690055758e-02   -7.692369074e-02
     5571000000    6.724149734e-02   -6.021013483e-02
     5574000000    7.732126862e-02   -4.060177132e-02
     5577000000    8.538062125e-02   -1.370725408e-02
     5580000000    8.838087320e-02    2.192829363e-02
     5583000000    7.827160507e-02    4.864876717e-02
     5586000000    5.907328799e-02    6.737110019e-02
     5589000000    2.806091867e-02    8.987763524e-02
     5592000000    6.187170744e-03    9.232495725e-02
     5595000000   -3.369538486e-02    8.963484317e-02
     5598000000   -5.399485677e-02    7.821775228e-02
     5601000000   -8.523453772e-02    4.934459180e-02
     5604000000   -9.814485162e-02    2.273350209e-02
     5607000000   -1.024353281e-01   -9.566584602e-03
     5610000000   -9.168788791e-02   -4.720460996e-02
     5613000000   -7.803101838e-02   -7.256777585e-02
     5616000000   -4.424804449e-02   -9.792390466e-02
     5619000000   -9.341660887e-03   -1.092710495e-01
     5622000000    2.789488435e-02   -1.078098714e-01
     5625000000    6.277583539e-02   -9.527128190e-02
     5628000000    9.310375154e-02   -5.974832550e-02
     5631000000    1.131545156e-01   -3.549849242e-02
     5634000000    1.141547561e-01    1.740456745e-02
     5637000000    1.117925718e-01    5.322917923e-02
     5640000000    8.036965132e-02    8.985140175e-02
     5643000000    4.998536780e-02    1.135462821e-01
     5646000000    1.430932432e-02    1.316606700e-01
     5649000000   -3.287305310e-02    1.271521747e-01
     5652000000   -7.580925524e-02    1.030058786e-01
     5655000000   -1.112025753e-01    7.492810488e-02
     5658000000   -1.316509247e-01    3.162056208e-02
     5661000000   -1.331123710e-01   -1.729243249e-02
     5664000000   -1.198398322e-01   -6.454983354e-02
     5667000000   -9.227291495e-02   -1.057319641e-01
     5670000000   -5.412336066e-02   -1.387114525e-01
     5673000000    1.354447915e-03   -1.489728689e-01
     5676000000    5.668427795e-02   -1.358511150e-01
     5679000000    1.026805118e-01   -1.165988296e-01
     5682000000    1.418367475e-01   -7.479898632e-02
     5685000000    1.588131785e-01   -2.159056813e-02
     5688000000    1.687258035e-01    3.482209146e-02
     5691000000    1.349490434e-01    9.229564667e-02
     5694000000    9.213830531e-02    1.336229742e-01
     5697000000    4.217813909e-02    1.645010412e-01
     5700000000   -1.965189911e-02    1.743344218e-01
     5703000000   -7.999301702e-02    1.537844837e-01
     5706000000   -1.406251043e-01    1.254397333e-01
     5709000000   -1.740770489e-01    6.665045023e-02
     5712000000   -1.931208670e-01    1.070495928e-03
     5715000000   -1.783895195e-01   -6.663537025e-02
     5718000000   -1.446599215e-01   -1.252954751e-01
     5721000000   -9.289345145e-02   -1.755426526e-01
     5724000000   -2.475289069e-02   -2.038393915e-01
     5727000000    4.471679032e-02   -1.914673299e-01
     5730000000    1.165995672e-01   -1.677554101e-01
     5733000000    1.703421623e-01   -1.153900474e-01
     5736000000    2.025929093e-01   -4.597026110e-02
     5739000000    2.159688324e-01    3.156912699e-02
     5742000000    1.936193705e-01    1.082031652e-01
     5745000000    1.431270987e-01    1.720608175e-01
     5748000000    7.525805384e-02    2.168444395e-01
     5751000000   -8.262541145e-03    2.268861979e-01
     5754000000   -9.340282530e-02    2.182805687e-01
     5757000000   -1.721984893e-01    1.734039932e-01
     5760000000   -2.183723748e-01    1.017002836e-01
     5763000000   -2.436425537e-01    1.729075611e-02
     5766000000   -2.420544624e-01   -7.443417609e-02
     5769000000   -1.963511854e-01   -1.491661817e-01
     5772000000   -1.315925568e-01   -2.248757333e-01
     5775000000   -4.870267957e-02   -2.490534335e-01
     5778000000    4.662448168e-02   -2.575664818e-01
     5781000000    1.342736036e-01   -2.247040123e-01
     5784000000    2.137756646e-01   -1.625719517e-01
     5787000000    2.724913955e-01   -7.174382359e-02
     5790000000    2.741686106e-01    2.485622466e-02
     5793000000    2.535170615e-01    1.243599355e-01
     5796000000    1.942744404e-01    2.089330554e-01
     5799000000    1.076387689e-01    2.731483579e-01
     5802000000    3.407339100e-03    2.929972410e-01
     5805000000   -9.990203381e-02    2.773226500e-01
     5808000000   -2.017660439e-01    2.271417230e-01
     5811000000   -2.738383710e-01    1.406050324e-01
     5814000000   -3.089168966e-01    3.476589918e-02
     5817000000   -3.059209287e-01   -8.262946457e-02
     5820000000   -2.573481500e-01   -1.875418127e-01
     5823000000   -1.723526567e-01   -2.745112479e-01
     5826000000   -7.224421203e-02   -3.120678067e-01
     5829000000    4.523159564e-02   -3.206076026e-01
     5832000000    1.688958704e-01   -2.865153849e-01
     5835000000    2.482812256e-01   -2.114514410e-01
     5838000000    3.216858208e-01   -1.026018187e-01
     5841000000    3.395203054e-01    2.002540603e-02
     5844000000    3.144083619e-01    1.437575370e-01
     5847000000    2.432034463e-01    2.538072467e-01
     5850000000    1.408662051e-01    3.238046467e-01
     5853000000    1.761987805e-02    3.547067940e-01
     5856000000   -1.136571765e-01    3.400128782e-01
     5859000000   -2.339942604e-01    2.799128592e-01
     5862000000   -3.228716850e-01    1.780135036e-01
     5865000000   -3.658814132e-01    5.304377899e-02
     5868000000   -3.636833727e-01   -8.148292452e-02
     5871000000   -3.119260073e-01   -2.194811553e-01
     5874000000   -2.137349993e-01   -3.224916160e-01
     5877000000   -8.879236877e-02   -3.786572218e-01
     5880000000    6.264952570e-02   -3.942382634e-01
     5883000000    1.848957688e-01   -3.513125479e-01
     5886000000    3.074047267e-01   -2.600335777e-01
     5889000000    3.894219697e-01   -1.216616631e-01
     5892000000    4.045220315e-01    3.846505657e-03
     5895000000    3.786855638e-01    1.340080649e-01
     5898000000    2.938674688e-01    2.951544821e-01
     5901000000    1.819405258e-01    3.723402619e-01
     5904000000    2.319983393e-02    4.184846580e-01
     5907000000   -1.274222434e-01    4.037813842e-01
     5910000000   -2.782887220e-01    3.289516568e-01
     5913000000   -3.815521002e-01    2.047563791e-01
     5916000000   -4.262707531e-01    7.598607242e-02
     5919000000   -4.310441017e-01   -1.018820852e-01
     5922000000   -3.701492846e-01   -2.376044393e-01
     5925000000   -2.585336566e-01   -3.663391173e-01
     5928000000   -1.107976884e-01   -4.362801909e-01
     5931000000    5.650521442e-02   -4.479479492e-01
     5934000000    2.109872252e-01   -4.045705497e-01
     5937000000    3.638688624e-01   -2.857908607e-01
     5940000000    4.394666851e-01   -1.523262113e-01
     5943000000    4.685887396e-01    1.886224374e-02
     5946000000    4.359071553e-01    1.770491749e-01
     5949000000    3.318465650e-01    3.463430107e-01
     5952000000    2.111992836e-01    4.298073053e-01
     5955000000    2.451007254e-02    4.863606393e-01
     5958000000   -1.486013383e-01    4.647323787e-01
     5961000000   -3.117254078e-01    3.815699518e-01
     5964000000   -4.270109236e-01    2.505210936e-01
     5967000000   -4.922913909e-01    8.836450428e-02
     5970000000   -4.928114712e-01   -1.086033806e-01
     5973000000   -4.198804200e-01   -2.800514102e-01
     5976000000   -2.961611748e-01   -4.139382541e-01
     5979000000   -1.351274997e-01   -4.940616190e-01
     5982000000    6.470878422e-02   -5.086967349e-01
     5985000000    2.467783988e-01   -4.558208883e-01
     5988000000    3.977827430e-01   -3.386540711e-01
     5991000000    4.930291772e-01   -1.810613722e-01
     5994000000    5.268848538e-01    1.317218412e-02
     5997000000    4.941563010e-01    1.978512853e-01
     6000000000    3.879246712e-01    3.653284311e-01
