! NanoVNA-App
! Date: 2026-05-22 16:32:43
! Start: 2.3GHz Stop: 2.6GHz Points: 401
! S-Parameter data: F S11
# Hz S RI R 50
!     Frequency           S11_Real           S11_Imag
     2300000000   -3.065689504e-01    1.757445280e-03
     2300750000   -3.040960729e-01   -2.586929873e-02
     2301500000   -2.985083759e-01   -5.186160281e-02
     2302250000   -2.907114625e-01   -7.764937729e-02
     2303000000   -2.809301317e-01   -1.031008139e-01
     2303750000   -2.698016167e-01   -1.263520867e-01
     2304500000   -2.558453679e-01   -1.487239003e-01
     2305250000   -2.405289412e-01   -1.703162193e-01
     2306000000   -2.231507599e-01   -1.888045967e-01
     2306750000   -2.045102566e-01   -2.067904621e-01
     2307500000   -1.843843758e-01   -2.223414630e-01
     2308250000   -1.636238992e-01   -2.363701314e-01
     2309000000   -1.410413533e-01   -2.482471913e-01
     2309750000   -1.180891991e-01   -2.576848865e-01
     2310500000   -9.510879219e-02   -2.649343610e-01
     2311250000   -7.066685706e-02   -2.699447572e-01
     2312000000   -4.677470401e-02   -2.729972303e-01
     2312750000   -2.232015505e-02   -2.739428580e-01
     2313500000    1.830954337e-03   -2.729121447e-01
     2314250000    2.474562451e-02   -2.692629397e-01
     2315000000    4.804920778e-02   -2.639258504e-01
     2315750000    7.068467140e-02   -2.562909126e-01
     2316500000    9.121338278e-02   -2.467892766e-01
     2317250000    1.112745553e-01   -2.361918688e-01
     2318000000    1.309291124e-01   -2.231194228e-01
     2318750000    1.491274089e-01   -2.084165215e-01
     2319500000    1.637793034e-01   -1.926295608e-01
     2320250000    1.778927147e-01   -1.754456311e-01
     2321000000    1.923213601e-01   -1.574531794e-01
     2321750000    2.025345415e-01   -1.381637305e-01
     2322500000    2.119759172e-01   -1.183434576e-01
     2323250000    2.190338075e-01   -9.876512736e-02
     2324000000    2.250965387e-01   -7.673941553e-02
     2324750000    2.275115848e-01   -5.709251016e-02
     2325500000    2.296686321e-01   -3.519063443e-02
     2326250000    2.292059362e-01   -1.409318764e-02
     2327000000    2.277049124e-01    7.029811386e-03
     2327750000    2.230861038e-01    2.698473260e-02
     2328500000    2.186882496e-01    4.662766680e-02
     2329250000    2.101344019e-01    6.597983092e-02
     2330000000    2.014086097e-01    8.336873353e-02
     2330750000    1.912906170e-01    1.006162837e-01
     2331500000    1.793334484e-01    1.162975132e-01
     2332250000    1.665316373e-01    1.308706999e-01
     2333000000    1.521185488e-01    1.442312449e-01
     2333750000    1.373023242e-01    1.559873372e-01
     2334500000    1.210679486e-01    1.664848924e-01
     2335250000    1.043233499e-01    1.746330261e-01
     2336000000    8.745151758e-02    1.822758764e-01
     2336750000    7.000599056e-02    1.873684973e-01
     2337500000    5.217963457e-02    1.908785850e-01
     2338250000    3.447949514e-02    1.927399337e-01
     2339000000    1.674066857e-02    1.934319437e-01
     2339750000   -7.129317964e-04    1.927513480e-01
     2340500000   -1.830491610e-02    1.896818131e-01
     2341250000   -3.477662429e-02    1.854284704e-01
     2342000000   -5.068512633e-02    1.794839799e-01
     2342750000   -6.627468020e-02    1.734147221e-01
     2343500000   -8.031339943e-02    1.642806530e-01
     2344250000   -9.421957284e-02    1.552938521e-01
     2345000000   -1.060517207e-01    1.441451758e-01
     2345750000   -1.176762655e-01    1.326613873e-01
     2346500000   -1.279244423e-01    1.203843132e-01
     2347250000   -1.357734352e-01    1.068674549e-01
     2348000000   -1.439171433e-01    9.316397458e-02
     2348750000   -1.512116194e-01    7.881569117e-02
     2349500000   -1.556008309e-01    6.424550712e-02
     2350250000   -1.573247313e-01    4.887439683e-02
     2351000000   -1.609568745e-01    3.444388136e-02
     2351750000   -1.612676084e-01    1.938869059e-02
     2352500000   -1.595773697e-01    5.261236802e-03
     2353250000   -1.580380797e-01   -9.752731770e-03
     2354000000   -1.550137103e-01   -2.438447066e-02
     2354750000   -1.519617587e-01   -3.835721686e-02
     2355500000   -1.453677714e-01   -5.092418566e-02
     2356250000   -1.390591860e-01   -6.354921311e-02
     2357000000   -1.317248344e-01   -7.450026274e-02
     2357750000   -1.232228503e-01   -8.537250757e-02
     2358500000   -1.252334118e-01   -9.117992222e-02
     2359250000   -1.161238775e-01   -1.003618836e-01
     2360000000   -1.064585149e-01   -1.085563526e-01
     2360750000   -9.586380422e-02   -1.161504611e-01
     2361500000   -8.466378599e-02   -1.214076504e-01
     2362250000   -7.350959629e-02   -1.265394986e-01
     2363000000   -6.183753908e-02   -1.307471246e-01
     2363750000   -5.049697310e-02   -1.329762340e-01
     2364500000   -3.893404454e-02   -1.342347860e-01
     2365250000   -2.707092091e-02   -1.353670061e-01
     2366000000   -1.544903964e-02   -1.341603398e-01
     2366750000   -4.479364026e-03   -1.329280734e-01
     2367500000    6.105292588e-03   -1.301156282e-01
     2368250000    1.632410102e-02   -1.267532259e-01
     2369000000    2.631863393e-02   -1.219861209e-01
     2369750000    3.567309305e-02   -1.166134626e-01
     2370500000    4.482017085e-02   -1.113516837e-01
     2371250000    5.211017281e-02   -1.030674800e-01
     2372000000    6.033259258e-02   -9.753926098e-02
     2372750000    6.690403074e-02   -8.904203773e-02
     2373500000    7.228973508e-02   -8.109425008e-02
     2374250000    7.756589353e-02   -7.324696332e-02
     2375000000    8.185204118e-02   -6.470329314e-02
     2375750000    8.609677851e-02   -5.646128207e-02
     2376500000    8.787964284e-02   -4.778952524e-02
     2377250000    8.923873305e-02   -3.882062808e-02
     2378000000    9.150082618e-02   -3.045286052e-02
     2378750000    9.089072794e-02   -2.190131135e-02
     2379500000    9.195932001e-02   -1.317531709e-02
     2380250000    9.090440720e-02   -5.133504048e-03
     2381000000    8.765634894e-02    2.086651511e-03
     2381750000    8.533262461e-02    9.804151021e-03
     2382500000    8.354572207e-02    1.689559221e-02
     2383250000    7.966114581e-02    2.390999347e-02
     2384000000    7.566382736e-02    2.966835350e-02
     2384750000    7.130155712e-02    3.496443853e-02
     2385500000    6.746328622e-02    4.035858437e-02
     2386250000    6.173476577e-02    4.389734939e-02
     2387000000    5.701283365e-02    4.867390171e-02
     2387750000    5.121982843e-02    5.067425594e-02
     2388500000    4.492190853e-02    5.215927213e-02
     2389250000    4.064118862e-02    5.716210976e-02
     2390000000    3.484800085e-02    5.783133581e-02
     2390750000    2.914948948e-02    5.908569321e-02
     2391500000    2.396886982e-02    5.910670012e-02
     2392250000    1.925336383e-02    5.943190306e-02
     2393000000    1.396156289e-02    5.968913436e-02
     2393750000    8.852934465e-03    5.921521783e-02
     2394500000    4.559987225e-03    5.853920057e-02
     2395250000    1.130952034e-03    5.596126989e-02
     2396000000   -3.106903285e-03    5.546593666e-02
     2396750000   -6.486267783e-03    5.422449484e-02
     2397500000   -9.711792693e-03    5.270193890e-02
     2398250000   -1.264319848e-02    5.103151500e-02
     2399000000   -1.440828759e-02    4.833094403e-02
     2399750000   -1.660786755e-02    4.682922736e-02
     2400500000   -1.955009624e-02    4.534531757e-02
     2401250000   -1.983790845e-02    4.333963245e-02
     2402000000   -2.129954100e-02    4.136029258e-02
     2402750000   -2.217822336e-02    3.998197988e-02
     2403500000   -2.356889099e-02    3.888823837e-02
     2404250000   -2.304151654e-02    3.717292100e-02
     2405000000   -2.604481950e-02    3.619538248e-02
     2405750000   -2.556319349e-02    3.557555750e-02
     2406500000   -2.503486723e-02    3.429669887e-02
     2407250000   -2.496460080e-02    3.406468779e-02
     2408000000   -2.748776600e-02    3.330321983e-02
     2408750000   -2.649131417e-02    3.360772505e-02
     2409500000   -2.735301852e-02    3.288696706e-02
     2410250000   -2.689514868e-02    3.302550316e-02
     2411000000   -2.795259841e-02    3.283647448e-02
     2411750000   -2.881090529e-02    3.230366111e-02
     2412500000   -2.888993919e-02    3.270533681e-02
     2413250000   -3.049785085e-02    3.205182403e-02
     2414000000   -3.071166202e-02    3.243094683e-02
     2414750000   -3.225198016e-02    3.208721802e-02
     2415500000   -3.366722539e-02    3.154730424e-02
     2416250000   -3.549375013e-02    3.058249690e-02
     2417000000   -3.683416918e-02    2.995521389e-02
     2417750000   -3.945142776e-02    2.763420902e-02
     2418500000   -4.041999951e-02    2.736413293e-02
     2419250000   -4.275561124e-02    2.642626315e-02
     2420000000   -4.425593466e-02    2.440700121e-02
     2420750000   -4.631908610e-02    2.230887115e-02
     2421500000   -4.868428409e-02    1.938521862e-02
     2422250000   -5.046283826e-02    1.763555221e-02
     2423000000   -5.266997591e-02    1.522453688e-02
     2423750000   -5.406694487e-02    1.084012352e-02
     2424500000   -5.609050393e-02    7.883916609e-03
     2425250000   -5.744988099e-02    3.530651098e-03
     2426000000   -5.900131911e-02    4.001577327e-05
     2426750000   -6.035583094e-02   -4.491053987e-03
     2427500000   -6.139805540e-02   -8.569819853e-03
     2428250000   -6.181107461e-02   -1.367087103e-02
     2429000000   -6.300094724e-02   -1.896618493e-02
     2429750000   -6.095742434e-02   -2.546709776e-02
     2430500000   -6.077474728e-02   -3.057890944e-02
     2431250000   -6.197681278e-02   -3.598622978e-02
     2432000000   -5.841002613e-02   -4.301909357e-02
     2432750000   -5.779779702e-02   -4.857989773e-02
     2433500000   -5.594036728e-02   -5.505573377e-02
     2434250000   -5.153319240e-02   -6.074715033e-02
     2435000000   -4.940264300e-02   -6.700058281e-02
     2435750000   -4.431231692e-02   -7.220710069e-02
     2436500000   -4.083446041e-02   -7.790048420e-02
     2437250000   -3.527471796e-02   -8.319319785e-02
     2438000000   -2.851111814e-02   -8.738739043e-02
     2438750000   -2.211575769e-02   -9.152038395e-02
     2439500000   -1.614627615e-02   -9.614373744e-02
     2440250000   -7.946073078e-03   -9.895186871e-02
     2441000000   -5.827397217e-06   -1.019054130e-01
     2441750000    8.733247407e-03   -1.034095287e-01
     2442500000    1.760211401e-02   -1.049862131e-01
     2443250000    2.740262263e-02   -1.044392213e-01
     2444000000    3.620843589e-02   -1.040229350e-01
     2444750000    4.596478492e-02   -1.044546440e-01
     2445500000    5.637233704e-02   -1.002898812e-01
     2446250000    6.586342305e-02   -9.854751080e-02
     2447000000    7.542480528e-02   -9.460049868e-02
     2447750000    8.548466116e-02   -8.855520934e-02
     2448500000    9.476369619e-02   -8.266767859e-02
     2449250000    1.039931476e-01   -7.720996439e-02
     2450000000    1.126356274e-01   -6.942807883e-02
     2450750000    1.205138937e-01   -6.093154475e-02
     2451500000    1.279949397e-01   -5.138991028e-02
     2452250000    1.352587342e-01   -4.111227393e-02
     2453000000    1.406948268e-01   -3.082389757e-02
     2453750000    1.453253031e-01   -1.933733560e-02
     2454500000    1.505506486e-01   -8.196342736e-03
     2455250000    1.530261487e-01    4.350199830e-03
     2456000000    1.546154320e-01    1.732251421e-02
     2456750000    1.552090198e-01    3.087426536e-02
     2457500000    1.547863185e-01    4.368112236e-02
     2458250000    1.530081779e-01    5.733825639e-02
     2459000000    1.520744860e-01    7.046233118e-02
     2459750000    1.466833055e-01    8.400788903e-02
     2460500000    1.416650563e-01    9.726177901e-02
     2461250000    1.347889006e-01    1.096877605e-01
     2462000000    1.279810667e-01    1.226160005e-01
     2462750000    1.170700788e-01    1.339547187e-01
     2463500000    1.056561172e-01    1.446665525e-01
     2464250000    9.675773233e-02    1.555828452e-01
     2465000000    8.346977830e-02    1.650276184e-01
     2465750000    6.857186556e-02    1.725927144e-01
     2466500000    5.540093407e-02    1.803852618e-01
     2467250000    4.126756638e-02    1.875904948e-01
     2468000000    2.495110407e-02    1.914150417e-01
     2468750000    7.684607524e-03    1.939766407e-01
     2469500000   -7.498900406e-03    1.973417699e-01
     2470250000   -2.537440509e-02    1.968114078e-01
     2471000000   -4.148020223e-02    1.970725656e-01
     2471750000   -5.921319127e-02    1.934790015e-01
     2472500000   -7.572639734e-02    1.892753094e-01
     2473250000   -9.289225191e-02    1.845436096e-01
     2474000000   -1.092184633e-01    1.761675775e-01
     2474750000   -1.252534389e-01    1.668962091e-01
     2475500000   -1.402423382e-01    1.556124389e-01
     2476250000   -1.540631056e-01    1.450365484e-01
     2477000000   -1.678526700e-01    1.311937571e-01
     2477750000   -1.797295362e-01    1.164959371e-01
     2478500000   -1.910139322e-01    1.003487408e-01
     2479250000   -2.002475411e-01    8.291069418e-02
     2480000000   -2.098525912e-01    6.655805558e-02
     2480750000   -2.156365663e-01    4.635238647e-02
     2481500000   -2.205477953e-01    2.673884109e-02
     2482250000   -2.243143469e-01    6.348237395e-03
     2483000000   -2.267469019e-01   -1.412353013e-02
     2483750000   -2.261168659e-01   -3.500997648e-02
     2484500000   -2.239607275e-01   -5.652549490e-02
     2485250000   -2.206567377e-01   -7.717854530e-02
     2486000000   -2.148978263e-01   -9.769584239e-02
     2486750000   -2.073563188e-01   -1.183470115e-01
     2487500000   -1.980429590e-01   -1.377422810e-01
     2488250000   -1.868443042e-01   -1.566366255e-01
     2489000000   -1.739753038e-01   -1.745163202e-01
     2489750000   -1.591052264e-01   -1.915863901e-01
     2490500000   -1.442792714e-01   -2.071195245e-01
     2491250000   -1.267897636e-01   -2.213835418e-01
     2492000000   -1.082261130e-01   -2.342479825e-01
     2492750000   -8.886753023e-02   -2.454044223e-01
     2493500000   -6.793612987e-02   -2.548634112e-01
     2494250000   -4.608214274e-02   -2.617938817e-01
     2495000000   -2.344455384e-02   -2.677308917e-01
     2495750000   -3.299975360e-04   -2.709651589e-01
     2496500000    2.256241627e-02   -2.731053233e-01
     2497250000    4.631849378e-02   -2.717491090e-01
     2498000000    6.953394413e-02   -2.683290839e-01
     2498750000    9.367166460e-02   -2.637651563e-01
     2499500000    1.169111580e-01   -2.553689778e-01
     2500250000    1.390231699e-01   -2.463050485e-01
     2501000000    1.604000479e-01   -2.361648828e-01
     2501750000    1.812320501e-01   -2.214910388e-01
     2502500000    2.011354566e-01   -2.058126032e-01
     2503250000    2.195647657e-01   -1.904041767e-01
     2504000000    2.362083346e-01   -1.690010875e-01
     2504750000    2.516500056e-01   -1.497188658e-01
     2505500000    2.650001347e-01   -1.294268817e-01
     2506250000    2.758668959e-01   -1.049740836e-01
     2507000000    2.863388360e-01   -8.051319420e-02
     2507750000    2.931489050e-01   -5.493228510e-02
     2508500000    2.982426286e-01   -2.988823503e-02
     2509250000    3.011098206e-01   -2.516601002e-03
     2510000000    3.016461432e-01    2.286406793e-02
     2510750000    3.001899719e-01    5.040830001e-02
     2511500000    2.953400910e-01    7.704722136e-02
     2512250000    2.889900208e-01    1.029603481e-01
     2513000000    2.808085382e-01    1.281950176e-01
     2513750000    2.691342533e-01    1.533818543e-01
     2514500000    2.543708384e-01    1.773544550e-01
     2515250000    2.389727086e-01    2.007765025e-01
     2516000000    2.208535522e-01    2.222460359e-01
     2516750000    2.013713866e-01    2.418564558e-01
     2517500000    1.785963476e-01    2.602793574e-01
     2518250000    1.559525877e-01    2.764961123e-01
     2519000000    1.317044050e-01    2.913319170e-01
     2519750000    1.051668227e-01    3.032876551e-01
     2520500000    7.754503191e-02    3.128250539e-01
     2521250000    4.988235235e-02    3.203809857e-01
     2522000000    2.048061788e-02    3.250991702e-01
     2522750000   -8.147987537e-03    3.274970055e-01
     2523500000   -3.844666481e-02    3.270097673e-01
     2524250000   -6.759280711e-02    3.240466416e-01
     2525000000   -9.672995657e-02    3.185928166e-01
     2525750000   -1.257168651e-01    3.107327819e-01
     2526500000   -1.535981596e-01    3.006406426e-01
     2527250000   -1.804320961e-01    2.880789340e-01
     2528000000   -2.072517723e-01    2.698040903e-01
     2528750000   -2.316372842e-01    2.529156506e-01
     2529500000   -2.550592124e-01    2.322797179e-01
     2530250000   -2.755250335e-01    2.103318721e-01
     2531000000   -2.945546210e-01    1.864204258e-01
     2531750000   -3.116863370e-01    1.608474702e-01
     2532500000   -3.260115683e-01    1.339899302e-01
     2533250000   -3.382133543e-01    1.048761606e-01
     2534000000   -3.478820026e-01    7.516958565e-02
     2534750000   -3.542413712e-01    4.564984515e-02
     2535500000   -3.580314815e-01    1.414003782e-02
     2536250000   -3.588260710e-01   -1.751002669e-02
     2537000000   -3.568118811e-01   -4.992648587e-02
     2537750000   -3.518705964e-01   -8.081283420e-02
     2538500000   -3.440580666e-01   -1.121808589e-01
     2539250000   -3.341329396e-01   -1.419063061e-01
     2540000000   -3.202559948e-01   -1.723425984e-01
     2540750000   -3.041313291e-01   -2.007417679e-01
     2541500000   -2.853953242e-01   -2.278628945e-01
     2542250000   -2.645945549e-01   -2.532164156e-01
     2543000000   -2.409665287e-01   -2.774317861e-01
     2543750000   -2.166418880e-01   -2.986284494e-01
     2544500000   -1.892602593e-01   -3.173742890e-01
     2545250000   -1.596728116e-01   -3.346551955e-01
     2546000000   -1.296035349e-01   -3.486503661e-01
     2546750000   -9.830536693e-02   -3.602778614e-01
     2547500000   -6.584045291e-02   -3.685961366e-01
     2548250000   -3.149524704e-02   -3.745310009e-01
     2549000000    9.024412720e-04   -3.775877655e-01
     2549750000    3.617152944e-02   -3.764493465e-01
     2550500000    6.986823678e-02   -3.725430667e-01
     2551250000    1.029439420e-01   -3.664066195e-01
     2552000000    1.346577406e-01   -3.574006855e-01
     2552750000    1.676464677e-01   -3.435277939e-01
     2553500000    1.974988133e-01   -3.290400505e-01
     2554250000    2.277658582e-01   -3.088506162e-01
     2555000000    2.529977858e-01   -2.907000184e-01
     2555750000    2.801618278e-01   -2.653481066e-01
     2556500000    3.031565249e-01   -2.406407446e-01
     2557250000    3.236266077e-01   -2.127149552e-01
     2558000000    3.421279788e-01   -1.837536395e-01
     2558750000    3.578976095e-01   -1.513524055e-01
     2559500000    3.710417449e-01   -1.194615290e-01
     2560250000    3.808108568e-01   -8.651524782e-02
     2561000000    3.878421485e-01   -5.074927211e-02
     2561750000    3.921474814e-01   -1.507759653e-02
     2562500000    3.923874497e-01    2.086130530e-02
     2563250000    3.903297484e-01    5.403609946e-02
     2564000000    3.856278956e-01    8.960146457e-02
     2564750000    3.755610287e-01    1.247755811e-01
     2565500000    3.634986281e-01    1.592798233e-01
     2566250000    3.493968844e-01    1.914724112e-01
     2567000000    3.313475251e-01    2.228130400e-01
     2567750000    3.107531369e-01    2.526562512e-01
     2568500000    2.876147628e-01    2.797393799e-01
     2569250000    2.612191141e-01    3.060624003e-01
     2570000000    2.332507670e-01    3.292175829e-01
     2570750000    2.035098076e-01    3.494870663e-01
     2571500000    1.720627099e-01    3.670470119e-01
     2572250000    1.388570070e-01    3.829439878e-01
     2573000000    1.042327210e-01    3.946754336e-01
     2573750000    6.867803633e-02    4.032292962e-01
     2574500000    3.215164319e-02    4.089851081e-01
     2575250000   -4.167731851e-03    4.107730985e-01
     2576000000   -4.120062664e-02    4.096562564e-01
     2576750000   -7.805748284e-02    4.055449665e-01
     2577500000   -1.136401296e-01    3.977117836e-01
     2578250000   -1.492604315e-01    3.868394792e-01
     2579000000   -1.830082685e-01    3.728405535e-01
     2579750000   -2.171033472e-01    3.548349738e-01
     2580500000   -2.476021498e-01    3.350647986e-01
     2581250000   -2.771272063e-01    3.111395240e-01
     2582000000   -3.047325909e-01    2.854844630e-01
     2582750000   -3.296540082e-01    2.567680180e-01
     2583500000   -3.510777056e-01    2.278152257e-01
     2584250000   -3.709590733e-01    1.951030791e-01
     2585000000   -3.878814578e-01    1.603811979e-01
     2585750000   -4.009976983e-01    1.249574721e-01
     2586500000   -4.107761085e-01    8.947181702e-02
     2587250000   -4.173657894e-01    5.093813688e-02
     2588000000   -4.217274487e-01    1.376417745e-02
     2588750000   -4.211578965e-01   -2.451200038e-02
     2589500000   -4.170352817e-01   -6.340046972e-02
     2590250000   -4.105260968e-01   -9.892344475e-02
     2591000000   -3.991602957e-01   -1.387842149e-01
     2591750000   -3.858799934e-01   -1.721521616e-01
     2592500000   -3.691014946e-01   -2.066453695e-01
     2593250000   -3.487530649e-01   -2.385361195e-01
     2594000000   -3.247010708e-01   -2.711666822e-01
     2594750000   -2.987068892e-01   -2.990039587e-01
     2595500000   -2.695643604e-01   -3.263519406e-01
     2596250000   -2.382919937e-01   -3.501477242e-01
     2597000000   -2.063868940e-01   -3.698194027e-01
     2597750000   -1.712118834e-01   -3.877674639e-01
     2598500000   -1.337639391e-01   -4.034937918e-01
     2599250000   -9.722249955e-02   -4.146009684e-01
     2600000000   -5.873062089e-02   -4.227471352e-01
