! NanoVNA-App
! Date: 2026-05-22 16:33:24
! Start: 2.3GHz Stop: 2.6GHz Points: 401
! S-Parameter data: F S11
# Hz S RI R 50
!     Frequency           S11_Real           S11_Imag
     2300000000   -2.725536227e-01    3.949407861e-02
     2300750000   -2.730883956e-01    1.531099156e-02
     2301500000   -2.717853785e-01   -8.877218701e-03
     2302250000   -2.683199048e-01   -3.219088539e-02
     2303000000   -2.626782954e-01   -5.603942648e-02
     2303750000   -2.553469241e-01   -7.860457897e-02
     2304500000   -2.459159344e-01   -9.912689030e-02
     2305250000   -2.350858599e-01   -1.204771399e-01
     2306000000   -2.223267108e-01   -1.402783245e-01
     2306750000   -2.078941613e-01   -1.566781700e-01
     2307500000   -1.922422647e-01   -1.733088642e-01
     2308250000   -1.756514758e-01   -1.880891323e-01
     2309000000   -1.570285410e-01   -2.009273916e-01
     2309750000   -1.381386518e-01   -2.121017575e-01
     2310500000   -1.186108589e-01   -2.218980342e-01
     2311250000   -9.774151444e-02   -2.293090969e-01
     2312000000   -7.716771215e-02   -2.352135032e-01
     2312750000   -5.578063428e-02   -2.391133755e-01
     2313500000   -3.452936932e-02   -2.408004850e-01
     2314250000   -1.365327928e-02   -2.411617637e-01
     2315000000    7.356060203e-03   -2.393567562e-01
     2315750000    2.836100385e-02   -2.357176989e-01
     2316500000    4.797757789e-02   -2.299386561e-01
     2317250000    6.702782959e-02   -2.236720771e-01
     2318000000    8.533644676e-02   -2.145513594e-01
     2318750000    1.031172648e-01   -2.043783069e-01
     2319500000    1.196729615e-01   -1.936727315e-01
     2320250000    1.337555498e-01   -1.801786721e-01
     2321000000    1.481221318e-01   -1.665102988e-01
     2321750000    1.595823467e-01   -1.512314379e-01
     2322500000    1.704071462e-01   -1.357319951e-01
     2323250000    1.794339120e-01   -1.187814400e-01
     2324000000    1.863005012e-01   -1.012336686e-01
     2324750000    1.928779781e-01   -8.391039073e-02
     2325500000    1.976559162e-01   -6.578590721e-02
     2326250000    1.995340884e-01   -4.733876139e-02
     2327000000    2.009220421e-01   -2.917085029e-02
     2327750000    1.994511932e-01   -1.100622769e-02
     2328500000    1.986572146e-01    6.573158782e-03
     2329250000    1.940171719e-01    2.455935255e-02
     2330000000    1.889659315e-01    4.059106857e-02
     2330750000    1.816811115e-01    5.655366555e-02
     2331500000    1.749484837e-01    7.299821824e-02
     2332250000    1.656368673e-01    8.743000031e-02
     2333000000    1.556899101e-01    1.008908600e-01
     2333750000    1.445988119e-01    1.133071035e-01
     2334500000    1.327004880e-01    1.244347692e-01
     2335250000    1.194213182e-01    1.344871819e-01
     2336000000    1.066326573e-01    1.437725723e-01
     2336750000    9.226090461e-02    1.499509364e-01
     2337500000    7.771182060e-02    1.561080515e-01
     2338250000    6.232205033e-02    1.610256135e-01
     2339000000    4.754139856e-02    1.648034751e-01
     2339750000    3.284201026e-02    1.658748835e-01
     2340500000    1.796264388e-02    1.666627377e-01
     2341250000    3.548289416e-03    1.653782874e-01
     2342000000   -1.133943256e-02    1.638916284e-01
     2342750000   -2.534391917e-02    1.603064537e-01
     2343500000   -3.863800317e-02    1.550465077e-01
     2344250000   -5.193286762e-02    1.502880454e-01
     2345000000   -6.381817162e-02    1.432104856e-01
     2345750000   -7.499247044e-02    1.350335181e-01
     2346500000   -8.581252396e-02    1.267561018e-01
     2347250000   -9.545250982e-02    1.172144488e-01
     2348000000   -1.047319397e-01    1.076532081e-01
     2348750000   -1.110724807e-01    9.583140165e-02
     2349500000   -1.185860187e-01    8.544179797e-02
     2350250000   -1.241211370e-01    7.421815395e-02
     2351000000   -1.277476102e-01    6.254256517e-02
     2351750000   -1.312914789e-01    5.041592568e-02
     2352500000   -1.351952255e-01    3.895875812e-02
     2353250000   -1.351647824e-01    2.675389498e-02
     2354000000   -1.343759894e-01    1.452726685e-02
     2354750000   -1.344945133e-01    3.148585325e-03
     2355500000   -1.334521025e-01   -9.002997540e-03
     2356250000   -1.297856420e-01   -1.940518059e-02
     2357000000   -1.260945499e-01   -2.939921618e-02
     2357750000   -1.218007058e-01   -4.022457078e-02
     2358500000   -1.157807112e-01   -4.929641634e-02
     2359250000   -1.105920002e-01   -5.863204226e-02
     2360000000   -1.031935811e-01   -6.537394971e-02
     2360750000   -9.731045365e-02   -7.401377708e-02
     2361500000   -8.959364146e-02   -8.065463603e-02
     2362250000   -8.134510368e-02   -8.567501605e-02
     2363000000   -7.361748070e-02   -9.120821953e-02
     2363750000   -6.515689194e-02   -9.451615810e-02
     2364500000   -5.625830218e-02   -9.822651744e-02
     2365250000   -4.789314419e-02   -1.007341519e-01
     2366000000   -3.906440735e-02   -1.024337411e-01
     2366750000   -3.071194328e-02   -1.037128046e-01
     2367500000   -2.219520696e-02   -1.034219712e-01
     2368250000   -1.410428993e-02   -1.025812179e-01
     2369000000   -6.027617026e-03   -1.010607854e-01
     2369750000    2.120658522e-03   -9.957096726e-02
     2370500000    9.020154364e-03   -9.648460150e-02
     2371250000    1.657355204e-02   -9.302280843e-02
     2372000000    2.232000604e-02   -8.878064156e-02
     2372750000    2.922398224e-02   -8.430714160e-02
     2373500000    3.534777835e-02   -8.076700568e-02
     2374250000    4.079564661e-02   -7.582288980e-02
     2375000000    4.516523704e-02   -7.092005014e-02
     2375750000    4.965826496e-02   -6.561687589e-02
     2376500000    5.216725916e-02   -5.995180458e-02
     2377250000    5.602235347e-02   -5.468300357e-02
     2378000000    5.682587996e-02   -4.860573635e-02
     2378750000    5.909396335e-02   -4.278482497e-02
     2379500000    6.251667440e-02   -3.701375425e-02
     2380250000    6.259778887e-02   -3.161143884e-02
     2381000000    6.257663667e-02   -2.603659965e-02
     2381750000    6.266802549e-02   -2.093137056e-02
     2382500000    6.464876235e-02   -1.523604244e-02
     2383250000    6.231142208e-02   -1.100054383e-02
     2384000000    6.271555275e-02   -5.305614788e-03
     2384750000    6.057710573e-02   -2.234051935e-03
     2385500000    5.873897672e-02    1.650901046e-03
     2386250000    5.945551395e-02    7.594363764e-03
     2387000000    5.556710064e-02    9.496379644e-03
     2387750000    5.540043116e-02    1.470107026e-02
     2388500000    5.275243893e-02    1.556982938e-02
     2389250000    5.001665652e-02    1.830022037e-02
     2390000000    4.842691869e-02    2.184049413e-02
     2390750000    4.593784362e-02    2.250106819e-02
     2391500000    4.407769442e-02    2.672422491e-02
     2392250000    4.182260111e-02    2.826633863e-02
     2393000000    3.968670592e-02    2.947868593e-02
     2393750000    3.742985427e-02    3.114454448e-02
     2394500000    3.543311357e-02    3.360107914e-02
     2395250000    3.333916888e-02    3.388604149e-02
     2396000000    3.125421703e-02    3.550942242e-02
     2396750000    2.969717421e-02    3.641480953e-02
     2397500000    2.742111124e-02    3.884930536e-02
     2398250000    2.568197809e-02    4.007727653e-02
     2399000000    2.365191095e-02    4.130703211e-02
     2399750000    2.163248695e-02    4.271820560e-02
     2400500000    2.084927447e-02    4.380767792e-02
     2401250000    1.841545850e-02    4.559491575e-02
     2402000000    1.980507560e-02    4.730342329e-02
     2402750000    1.527110673e-02    4.887085781e-02
     2403500000    1.381347235e-02    5.053641275e-02
     2404250000    1.329362486e-02    5.216789246e-02
     2405000000    9.270153940e-03    5.440239608e-02
     2405750000    7.852661423e-03    5.668768659e-02
     2406500000    6.238691974e-03    5.811797082e-02
     2407250000    3.680811496e-03    6.023601070e-02
     2408000000    1.955340384e-03    6.203870475e-02
     2408750000   -1.656891196e-03    6.356640160e-02
     2409500000   -4.694561474e-03    6.531196833e-02
     2410250000   -7.431626320e-03    6.681628525e-02
     2411000000   -1.019751001e-02    6.843692809e-02
     2411750000   -1.405436080e-02    6.931986660e-02
     2412500000   -1.817953028e-02    6.991738081e-02
     2413250000   -2.206321061e-02    7.065503299e-02
     2414000000   -2.591858804e-02    7.132919878e-02
     2414750000   -3.043620475e-02    7.166753709e-02
     2415500000   -3.539685905e-02    7.149907947e-02
     2416250000   -4.008113220e-02    7.115792483e-02
     2417000000   -4.482050985e-02    6.962365657e-02
     2417750000   -4.996196181e-02    6.827294081e-02
     2418500000   -5.492802337e-02    6.704208255e-02
     2419250000   -5.993536860e-02    6.400735676e-02
     2420000000   -6.523151696e-02    6.116338074e-02
     2420750000   -6.997684389e-02    5.743627995e-02
     2421500000   -7.558017224e-02    5.359673873e-02
     2422250000   -7.973226905e-02    4.941598698e-02
     2423000000   -8.433937281e-02    4.434571415e-02
     2423750000   -8.870461583e-02    3.809907287e-02
     2424500000   -9.249086678e-02    3.200794756e-02
     2425250000   -9.646284580e-02    2.586094290e-02
     2426000000   -9.874758869e-02    1.762103103e-02
     2426750000   -1.019873619e-01    1.155086141e-02
     2427500000   -1.031491458e-01    2.264165087e-03
     2428250000   -1.058036685e-01   -5.189634394e-03
     2429000000   -1.052774489e-01   -1.454782765e-02
     2429750000   -1.062226072e-01   -2.249064296e-02
     2430500000   -1.056201607e-01   -3.141634539e-02
     2431250000   -1.039637402e-01   -4.088709876e-02
     2432000000   -1.031079441e-01   -4.984981567e-02
     2432750000   -9.708487988e-02   -6.046970934e-02
     2433500000   -9.677492827e-02   -6.883333623e-02
     2434250000   -8.986575902e-02   -7.822311670e-02
     2435000000   -8.716588467e-02   -8.653644472e-02
     2435750000   -7.848648727e-02   -9.463776648e-02
     2436500000   -7.199483365e-02   -1.022891477e-01
     2437250000   -6.812221557e-02   -1.106705964e-01
     2438000000   -5.619281158e-02   -1.167528555e-01
     2438750000   -4.580293596e-02   -1.220327690e-01
     2439500000   -3.691602126e-02   -1.282383949e-01
     2440250000   -2.512490749e-02   -1.318199039e-01
     2441000000   -1.493625902e-02   -1.355017424e-01
     2441750000   -3.633564338e-03   -1.386859715e-01
     2442500000    9.192572907e-03   -1.408405304e-01
     2443250000    2.145358548e-02   -1.414941400e-01
     2444000000    3.418564424e-02   -1.403716952e-01
     2444750000    4.751775786e-02   -1.396538019e-01
     2445500000    6.054988131e-02   -1.368738115e-01
     2446250000    7.356452197e-02   -1.317990422e-01
     2447000000    8.606393635e-02   -1.287309825e-01
     2447750000    9.850033373e-02   -1.220115498e-01
     2448500000    1.112258062e-01   -1.157558784e-01
     2449250000    1.228092685e-01   -1.069338471e-01
     2450000000    1.340802163e-01   -9.810616821e-02
     2450750000    1.440998167e-01   -8.790344000e-02
     2451500000    1.538207084e-01   -7.781005651e-02
     2452250000    1.623326093e-01   -6.438040733e-02
     2453000000    1.703726798e-01   -5.188509822e-02
     2453750000    1.771431118e-01   -3.844721615e-02
     2454500000    1.823620051e-01   -2.436558716e-02
     2455250000    1.863263100e-01   -9.347604588e-03
     2456000000    1.894392073e-01    5.736904219e-03
     2456750000    1.904582530e-01    2.218146250e-02
     2457500000    1.897093207e-01    3.760560974e-02
     2458250000    1.890347302e-01    5.338761955e-02
     2459000000    1.868203282e-01    6.967022270e-02
     2459750000    1.807248443e-01    8.595072478e-02
     2460500000    1.768418103e-01    1.011958867e-01
     2461250000    1.686678231e-01    1.166717261e-01
     2462000000    1.600137800e-01    1.315927207e-01
     2462750000    1.497504264e-01    1.457607895e-01
     2463500000    1.381058246e-01    1.588557214e-01
     2464250000    1.261323839e-01    1.713931561e-01
     2465000000    1.123516485e-01    1.829617918e-01
     2465750000    9.495408833e-02    1.926231980e-01
     2466500000    7.943459600e-02    2.017927468e-01
     2467250000    6.477203220e-02    2.106212676e-01
     2468000000    4.582775012e-02    2.161706239e-01
     2468750000    2.672377788e-02    2.198957950e-01
     2469500000    8.136945777e-03    2.232895195e-01
     2470250000   -9.832364507e-03    2.263653129e-01
     2471000000   -3.028327040e-02    2.248207629e-01
     2471750000   -4.887166992e-02    2.235742360e-01
     2472500000   -6.872844696e-02    2.188192904e-01
     2473250000   -8.821099997e-02    2.137794048e-01
     2474000000   -1.066354513e-01    2.073271126e-01
     2474750000   -1.254292727e-01    1.966200620e-01
     2475500000   -1.427608430e-01    1.863257289e-01
     2476250000   -1.591122448e-01    1.755741388e-01
     2477000000   -1.748972982e-01    1.606813818e-01
     2477750000   -1.899014413e-01    1.450619400e-01
     2478500000   -2.032800615e-01    1.286848783e-01
     2479250000   -2.148378938e-01    1.108416170e-01
     2480000000   -2.247075886e-01    9.090559185e-02
     2480750000   -2.341284901e-01    7.148370892e-02
     2481500000   -2.406390458e-01    5.001232401e-02
     2482250000   -2.462655455e-01    2.883135900e-02
     2483000000   -2.494951338e-01    6.713278592e-03
     2483750000   -2.504692972e-01   -1.612457633e-02
     2484500000   -2.511914670e-01   -3.833437338e-02
     2485250000   -2.477588952e-01   -6.192272529e-02
     2486000000   -2.428568155e-01   -8.429322392e-02
     2486750000   -2.354078144e-01   -1.071976945e-01
     2487500000   -2.284138203e-01   -1.283374876e-01
     2488250000   -2.167632431e-01   -1.496284455e-01
     2489000000   -2.042777389e-01   -1.698948890e-01
     2489750000   -1.906762123e-01   -1.890552640e-01
     2490500000   -1.747639775e-01   -2.067132294e-01
     2491250000   -1.568468660e-01   -2.232834995e-01
     2492000000   -1.389739662e-01   -2.385438383e-01
     2492750000   -1.190299019e-01   -2.517695427e-01
     2493500000   -9.597351402e-02   -2.624434531e-01
     2494250000   -7.403701544e-02   -2.724402845e-01
     2495000000   -5.055561662e-02   -2.798080742e-01
     2495750000   -2.712048031e-02   -2.855535150e-01
     2496500000   -1.800718717e-03   -2.882478833e-01
     2497250000    2.209029533e-02   -2.895773649e-01
     2498000000    4.756190255e-02   -2.869490981e-01
     2498750000    7.335355133e-02   -2.837687731e-01
     2499500000    9.800189734e-02   -2.774741054e-01
     2500250000    1.221655160e-01   -2.691788375e-01
     2501000000    1.447853893e-01   -2.600007951e-01
     2501750000    1.682195216e-01   -2.457522452e-01
     2502500000    1.897889972e-01   -2.320583910e-01
     2503250000    2.101648748e-01   -2.151333839e-01
     2504000000    2.287563682e-01   -1.959931254e-01
     2504750000    2.462870926e-01   -1.767844856e-01
     2505500000    2.616348267e-01   -1.546871513e-01
     2506250000    2.748159468e-01   -1.322171688e-01
     2507000000    2.872468233e-01   -1.050309390e-01
     2507750000    2.964421511e-01   -8.128044754e-02
     2508500000    3.032718897e-01   -5.486053228e-02
     2509250000    3.086274862e-01   -2.789000422e-02
     2510000000    3.096422255e-01    4.369419476e-04
     2510750000    3.103847504e-01    2.889902517e-02
     2511500000    3.072859347e-01    5.646052584e-02
     2512250000    3.032313883e-01    8.349370956e-02
     2513000000    2.940246463e-01    1.114888638e-01
     2513750000    2.856872380e-01    1.370856315e-01
     2514500000    2.726379931e-01    1.632443964e-01
     2515250000    2.583311796e-01    1.878011674e-01
     2516000000    2.409840971e-01    2.111684680e-01
     2516750000    2.214611173e-01    2.323407531e-01
     2517500000    2.014319301e-01    2.527235448e-01
     2518250000    1.785820574e-01    2.709473670e-01
     2519000000    1.532290727e-01    2.867980599e-01
     2519750000    1.280509979e-01    3.009067178e-01
     2520500000    1.009337157e-01    3.126659095e-01
     2521250000    7.321725041e-02    3.219279349e-01
     2522000000    4.352079704e-02    3.283692300e-01
     2522750000    1.439999603e-02    3.322106600e-01
     2523500000   -1.584431529e-02    3.337819576e-01
     2524250000   -4.617756233e-02    3.315802813e-01
     2525000000   -7.563425601e-02    3.284896016e-01
     2525750000   -1.061357707e-01    3.210991323e-01
     2526500000   -1.342960149e-01    3.127980828e-01
     2527250000   -1.632766128e-01    2.999734282e-01
     2528000000   -1.902894974e-01    2.853253484e-01
     2528750000   -2.162016630e-01    2.693757117e-01
     2529500000   -2.414082587e-01    2.494260520e-01
     2530250000   -2.632354200e-01    2.288048565e-01
     2531000000   -2.841037512e-01    2.059983760e-01
     2531750000   -3.027642369e-01    1.797481626e-01
     2532500000   -3.187378645e-01    1.543781310e-01
     2533250000   -3.326402605e-01    1.258377582e-01
     2534000000   -3.436601758e-01    9.609772265e-02
     2534750000   -3.518637419e-01    6.615725160e-02
     2535500000   -3.576679826e-01    3.526635841e-02
     2536250000   -3.607688546e-01    3.755936865e-03
     2537000000   -3.601062000e-01   -2.889397368e-02
     2537750000   -3.569667041e-01   -5.978101864e-02
     2538500000   -3.508878052e-01   -9.168723971e-02
     2539250000   -3.418336511e-01   -1.223801672e-01
     2540000000   -3.307998180e-01   -1.528012455e-01
     2540750000   -3.163478076e-01   -1.821564436e-01
     2541500000   -2.988941669e-01   -2.100858688e-01
     2542250000   -2.792856693e-01   -2.367576212e-01
     2543000000   -2.580112219e-01   -2.618240118e-01
     2543750000   -2.340613604e-01   -2.839882374e-01
     2544500000   -2.078622431e-01   -3.040996492e-01
     2545250000   -1.794776171e-01   -3.229705989e-01
     2546000000   -1.501388550e-01   -3.387790322e-01
     2546750000   -1.197379008e-01   -3.516872823e-01
     2547500000   -8.813580126e-02   -3.619122803e-01
     2548250000   -5.462867767e-02   -3.694621325e-01
     2549000000   -2.215183899e-02   -3.740319610e-01
     2549750000    1.430297177e-02   -3.753695190e-01
     2550500000    4.518497363e-02   -3.739652932e-01
     2551250000    8.070130646e-02   -3.691298962e-01
     2552000000    1.122958064e-01   -3.615040779e-01
     2552750000    1.455357075e-01   -3.506084681e-01
     2553500000    1.770482808e-01   -3.364962935e-01
     2554250000    2.076967508e-01   -3.193915188e-01
     2555000000    2.349244654e-01   -3.018040359e-01
     2555750000    2.622910440e-01   -2.798260152e-01
     2556500000    2.874535620e-01   -2.537800968e-01
     2557250000    3.084791303e-01   -2.298585176e-01
     2558000000    3.287389874e-01   -2.008520067e-01
     2558750000    3.464561403e-01   -1.702291071e-01
     2559500000    3.609788418e-01   -1.388357580e-01
     2560250000    3.730172515e-01   -1.044390798e-01
     2561000000    3.819049597e-01   -7.179182023e-02
     2561750000    3.876193166e-01   -3.462325782e-02
     2562500000    3.902191818e-01   -1.015009984e-04
     2563250000    3.893740773e-01    3.451654315e-02
     2564000000    3.861865699e-01    7.019555569e-02
     2564750000    3.786118329e-01    1.054116189e-01
     2565500000    3.686350882e-01    1.396031082e-01
     2566250000    3.557633758e-01    1.720802933e-01
     2567000000    3.395395279e-01    2.050977498e-01
     2567750000    3.211657405e-01    2.338924855e-01
     2568500000    2.985709310e-01    2.638525069e-01
     2569250000    2.751820385e-01    2.897526920e-01
     2570000000    2.477080822e-01    3.147133291e-01
     2570750000    2.190179080e-01    3.366645277e-01
     2571500000    1.888506562e-01    3.551591635e-01
     2572250000    1.568420082e-01    3.715201616e-01
     2573000000    1.230607182e-01    3.850155175e-01
     2573750000    8.797788620e-02    3.951984048e-01
     2574500000    5.315748602e-02    4.022013545e-01
     2575250000    1.594463736e-02    4.055744708e-01
     2576000000   -2.007724717e-02    4.066236913e-01
     2576750000   -5.633160472e-02    4.037547112e-01
     2577500000   -9.230400622e-02    3.973318934e-01
     2578250000   -1.281581819e-01    3.878087997e-01
     2579000000   -1.632737368e-01    3.742677867e-01
     2579750000   -1.962062418e-01    3.581430614e-01
     2580500000   -2.278273106e-01    3.399145901e-01
     2581250000   -2.584326863e-01    3.180254400e-01
     2582000000   -2.858717442e-01    2.931773365e-01
     2582750000   -3.122538626e-01    2.658658922e-01
     2583500000   -3.345586061e-01    2.379117608e-01
     2584250000   -3.558745086e-01    2.061823905e-01
     2585000000   -3.736190498e-01    1.723446995e-01
     2585750000   -3.883214295e-01    1.381044835e-01
     2586500000   -3.993985057e-01    1.037818938e-01
     2587250000   -4.079137444e-01    6.499759853e-02
     2588000000   -4.123682082e-01    2.843828872e-02
     2588750000   -4.135899842e-01   -1.012582332e-02
     2589500000   -4.112287164e-01   -4.685917869e-02
     2590250000   -4.059283137e-01   -8.376459777e-02
     2591000000   -3.970512748e-01   -1.197722778e-01
     2591750000   -3.849731684e-01   -1.566872746e-01
     2592500000   -3.684982061e-01   -1.907496452e-01
     2593250000   -3.502888083e-01   -2.235955596e-01
     2594000000   -3.271020353e-01   -2.567285597e-01
     2594750000   -3.031965792e-01   -2.847411335e-01
     2595500000   -2.767764926e-01   -3.114567697e-01
     2596250000   -2.449814230e-01   -3.380707502e-01
     2597000000   -2.151387185e-01   -3.579272330e-01
     2597750000   -1.807161421e-01   -3.770064414e-01
     2598500000   -1.439720690e-01   -3.936702609e-01
     2599250000   -1.082124859e-01   -4.060356021e-01
     2600000000   -7.192959636e-02   -4.148886800e-01
