! NanoVNA-App
! Date: 2026-06-16 00:34:57
! Start: 4.8GHz Stop: 6GHz Points: 401
! S-Parameter data: F S11
# Hz S RI R 50
!     Frequency           S11_Real           S11_Imag
     4800000000   -1.082446426e-01    3.767266572e-01
     4803000000   -2.457979620e-01    3.028256893e-01
     4806000000   -3.420888186e-01    1.863021702e-01
     4809000000   -3.866050541e-01    3.969178721e-02
     4812000000   -3.756685257e-01   -1.098417342e-01
     4815000000   -3.028143942e-01   -2.482195199e-01
     4818000000   -1.897674054e-01   -3.469795585e-01
     4821000000   -4.253052920e-02   -3.944905102e-01
     4824000000    1.081721112e-01   -3.860030174e-01
     4827000000    2.554454207e-01   -3.124504685e-01
     4830000000    3.566366136e-01   -1.991041154e-01
     4833000000    4.090389609e-01   -5.281228200e-02
     4836000000    4.003927410e-01    1.122704074e-01
     4839000000    3.351191282e-01    2.576438785e-01
     4842000000    2.203838676e-01    3.688059747e-01
     4845000000    6.427022815e-02    4.318938553e-01
     4848000000   -1.033414677e-01    4.301355779e-01
     4851000000   -2.604403794e-01    3.653556406e-01
     4854000000   -3.826339841e-01    2.516464591e-01
     4857000000   -4.551267922e-01    9.124419093e-02
     4860000000   -4.641661644e-01   -8.484971523e-02
     4863000000   -4.132220745e-01   -2.455471009e-01
     4866000000   -2.904155850e-01   -3.881964982e-01
     4869000000   -1.224159375e-01   -4.776266515e-01
     4872000000    4.444894195e-02   -5.003664494e-01
     4875000000    2.384939045e-01   -4.461870193e-01
     4878000000    3.902133107e-01   -3.396484852e-01
     4881000000    4.896716177e-01   -1.884529740e-01
     4884000000    5.259943604e-01    2.115686424e-02
     4887000000    4.955143631e-01    2.059371620e-01
     4890000000    3.954211771e-01    3.749677539e-01
     4893000000    2.359413654e-01    4.976320863e-01
     4896000000    4.549210891e-02    5.566897988e-01
     4899000000   -1.653097719e-01    5.367440581e-01
     4902000000   -3.482018113e-01    4.497695267e-01
     4905000000   -4.914610088e-01    2.966006100e-01
     4908000000   -5.714551210e-01    9.889926761e-02
     4911000000   -5.716263652e-01   -1.157465577e-01
     4914000000   -5.022433400e-01   -3.118051887e-01
     4917000000   -3.561685681e-01   -4.776320159e-01
     4920000000   -1.601936072e-01   -5.800518990e-01
     4923000000    6.040535495e-02   -6.022405028e-01
     4926000000    2.699129581e-01   -5.502609611e-01
     4929000000    4.552543163e-01   -4.143568277e-01
     4932000000    5.743702054e-01   -2.378659546e-01
     4935000000    6.258997321e-01   -1.604603603e-02
     4938000000    5.890641809e-01    2.166983783e-01
     4941000000    4.821862578e-01    4.124614000e-01
     4944000000    2.992168665e-01    5.627202392e-01
     4947000000    8.022863418e-02    6.305123568e-01
     4950000000   -1.624834090e-01    6.222226620e-01
     4953000000   -3.729603887e-01    5.291528702e-01
     4956000000   -5.326184034e-01    3.737025857e-01
     4959000000   -6.356703639e-01    1.582288146e-01
     4962000000   -6.496505141e-01   -8.593729138e-02
     4965000000   -5.769796968e-01   -3.138439357e-01
     4968000000   -4.323426187e-01   -5.012546182e-01
     4971000000   -2.252633721e-01   -6.251930594e-01
     4974000000    1.139400061e-02   -6.653915048e-01
     4977000000    2.509632111e-01   -6.181989312e-01
     4980000000    4.576096535e-01   -4.859197140e-01
     4983000000    6.019248962e-01   -2.891380191e-01
     4986000000    6.681661010e-01   -5.870660022e-02
     4989000000    6.538836956e-01    1.765257418e-01
     4992000000    5.332112908e-01    4.096938074e-01
     4995000000    3.665302396e-01    5.684267282e-01
     4998000000    1.258588731e-01    6.615539193e-01
     5001000000   -1.148756817e-01    6.702425480e-01
     5004000000   -3.489424288e-01    5.839825869e-01
     5007000000   -5.270309448e-01    4.258607924e-01
     5010000000   -6.456136703e-01    2.045225352e-01
     5013000000   -6.783036590e-01   -4.609484971e-02
     5016000000   -6.196096539e-01   -2.803087831e-01
     5019000000   -4.819453359e-01   -4.841028154e-01
     5022000000   -2.712633312e-01   -6.223165989e-01
     5025000000   -3.164068982e-02   -6.801790595e-01
     5028000000    2.149664313e-01   -6.489661336e-01
     5031000000    4.306171834e-01   -5.270122886e-01
     5034000000    5.944268703e-01   -3.400532901e-01
     5037000000    6.741814613e-01   -1.024144664e-01
     5040000000    6.694526672e-01    1.458688080e-01
     5043000000    5.732945800e-01    3.734452128e-01
     5046000000    4.016592801e-01    5.554698110e-01
     5049000000    1.781313568e-01    6.623806953e-01
     5052000000   -7.410112768e-02    6.813205481e-01
     5055000000   -3.100333810e-01    6.121726632e-01
     5058000000   -5.111981630e-01    4.597421288e-01
     5061000000   -6.381527185e-01    2.429850399e-01
     5064000000   -6.847878695e-01   -1.193230972e-03
     5067000000   -6.421514153e-01   -2.437637150e-01
     5070000000   -5.107106566e-01   -4.571790993e-01
     5073000000   -3.105878532e-01   -6.111221313e-01
     5076000000   -7.157086581e-02   -6.833339334e-01
     5079000000    1.758683324e-01   -6.644690633e-01
     5082000000    4.000088871e-01   -5.575853586e-01
     5085000000    5.743715763e-01   -3.780214190e-01
     5088000000    6.719658375e-01   -1.487444043e-01
     5091000000    6.787174940e-01    1.039390489e-01
     5094000000    5.993878841e-01    3.397927284e-01
     5097000000    4.345393181e-01    5.322231650e-01
     5100000000    2.210622430e-01    6.546007395e-01
     5103000000   -3.018963151e-02    6.872247458e-01
     5106000000   -2.701496780e-01    6.310639977e-01
     5109000000   -4.809225202e-01    4.956012368e-01
     5112000000   -6.257380247e-01    2.887598872e-01
     5115000000   -6.878851056e-01    4.510325566e-02
     5118000000   -6.524648666e-01   -2.064021379e-01
     5121000000   -5.450322032e-01   -4.250571728e-01
     5124000000   -3.542532921e-01   -5.907868743e-01
     5127000000   -1.180694699e-01   -6.808692813e-01
     5130000000    1.326957494e-01   -6.766664386e-01
     5133000000    3.667179644e-01   -5.857930779e-01
     5136000000    5.486710072e-01   -4.218782485e-01
     5139000000    6.672214866e-01   -1.916224360e-01
     5142000000    6.882452369e-01    6.070682406e-02
     5145000000    6.239618659e-01    3.035904169e-01
     5148000000    4.747965932e-01    5.057632327e-01
     5151000000    2.646020949e-01    6.418032646e-01
     5154000000    1.696096733e-02    6.936876774e-01
     5157000000   -2.323971242e-01    6.537244916e-01
     5160000000   -4.498084784e-01    5.293690562e-01
     5163000000   -6.098632216e-01    3.326923251e-01
     5166000000   -6.906382442e-01    9.591853619e-02
     5169000000   -6.760324836e-01   -1.589658707e-01
     5172000000   -5.772904754e-01   -3.905888200e-01
     5175000000   -3.983825743e-01   -5.723496079e-01
     5178000000   -1.684018075e-01   -6.772409678e-01
     5181000000    8.600480109e-02   -6.926875114e-01
     5184000000    3.257750571e-01   -6.154170632e-01
     5187000000    5.247227550e-01   -4.607658982e-01
     5190000000    6.573678255e-01   -2.402828485e-01
     5193000000    6.981771588e-01    8.213769644e-03
     5196000000    6.498185396e-01    2.572854459e-01
     5199000000    5.174666643e-01    4.729177654e-01
     5202000000    3.129467666e-01    6.268523335e-01
     5205000000    7.060891390e-02    6.970188618e-01
     5208000000   -1.836481094e-01    6.760821342e-01
     5211000000   -4.173944890e-01    5.654374957e-01
     5214000000   -5.895314217e-01    3.822961152e-01
     5217000000   -6.877299547e-01    1.456670016e-01
     5220000000   -6.949180961e-01   -1.103892401e-01
     5223000000   -6.093191504e-01   -3.526605368e-01
     5226000000   -4.443203509e-01   -5.460352302e-01
     5229000000   -2.202356905e-01   -6.690803766e-01
     5232000000    3.373774886e-02   -7.041123509e-01
     5235000000    2.818536758e-01   -6.470053196e-01
     5238000000    4.934595823e-01   -5.047816634e-01
     5241000000    6.377268434e-01   -2.975396812e-01
     5244000000    7.038847208e-01   -4.714355618e-02
     5247000000    6.760792136e-01    2.095989883e-01
     5250000000    5.569701791e-01    4.339973330e-01
     5253000000    3.654513061e-01    6.053719521e-01
     5256000000    1.277144849e-01    6.944338679e-01
     5259000000   -1.346611828e-01    6.961473227e-01
     5262000000   -3.675351143e-01    6.004235148e-01
     5265000000   -5.648296475e-01    4.300900698e-01
     5268000000   -6.757230759e-01    2.033837438e-01
     5271000000   -7.059204578e-01   -5.665455014e-02
     5274000000   -6.390175223e-01   -3.025996685e-01
     5277000000   -4.898751080e-01   -5.055417418e-01
     5280000000   -2.749317884e-01   -6.544122100e-01
     5283000000   -2.133531123e-02   -7.111204863e-01
     5286000000    2.316788882e-01   -6.713300347e-01
     5289000000    4.509464502e-01   -5.448889732e-01
     5292000000    6.137620807e-01   -3.483639956e-01
     5295000000    7.090183496e-01   -9.870173037e-02
     5298000000    6.936032176e-01    1.535309404e-01
     5301000000    5.920761228e-01    3.877986372e-01
     5304000000    4.162999988e-01    5.759917498e-01
     5307000000    1.823004037e-01    6.882362366e-01
     5310000000   -7.556734979e-02    7.105053663e-01
     5313000000   -3.184898496e-01    6.337701678e-01
     5316000000   -5.167383552e-01    4.787385762e-01
     5319000000   -6.622306108e-01    2.603370547e-01
     5322000000   -7.097566128e-01    8.583041839e-03
     5325000000   -6.661096811e-01   -2.439199537e-01
     5328000000   -5.350133181e-01   -4.632405043e-01
     5331000000   -3.325726986e-01   -6.255623698e-01
     5334000000   -8.778987080e-02   -7.036451101e-01
     5337000000    1.643439382e-01   -6.864024401e-01
     5340000000    3.948580921e-01   -5.826252699e-01
     5343000000    5.797035098e-01   -4.005374312e-01
     5346000000    6.824352145e-01   -1.678378731e-01
     5349000000    6.987875104e-01    8.778248727e-02
     5352000000    6.184996367e-01    3.281715214e-01
     5355000000    4.623717964e-01    5.291585922e-01
     5358000000    2.402610630e-01    6.610105634e-01
     5361000000   -1.341320295e-02    7.044363022e-01
     5364000000   -2.576467395e-01    6.547664404e-01
     5367000000   -4.665750563e-01    5.207794905e-01
     5370000000   -6.141220331e-01    3.228473067e-01
     5373000000   -6.940022111e-01    7.545820624e-02
     5376000000   -6.751586795e-01   -1.879462749e-01
     5379000000   -5.629061460e-01   -4.094858766e-01
     5382000000   -3.898641765e-01   -5.753495097e-01
     5385000000   -1.499662697e-01   -6.846556664e-01
     5388000000    1.058779880e-01   -6.910808682e-01
     5391000000    3.284173906e-01   -6.020836830e-01
     5394000000    5.467863083e-01   -4.479632080e-01
     5397000000    6.374245882e-01   -2.348964363e-01
     5400000000    6.981219053e-01    3.055565059e-02
     5403000000    6.413941979e-01    2.647870481e-01
     5406000000    5.002310276e-01    4.601123333e-01
     5409000000    3.010817468e-01    6.102492213e-01
     5412000000    6.425239146e-02    6.789922118e-01
     5415000000   -1.933219582e-01    6.579653621e-01
     5418000000   -3.815211356e-01    5.450067520e-01
     5421000000   -5.757811069e-01    3.619347513e-01
     5424000000   -6.575046778e-01    1.422929764e-01
     5427000000   -6.686635017e-01   -1.224063337e-01
     5430000000   -5.805107951e-01   -3.223744631e-01
     5433000000   -4.206025898e-01   -5.233536959e-01
     5436000000   -2.143829167e-01   -6.290178299e-01
     5439000000    4.350873083e-02   -6.715329885e-01
     5442000000    2.462027371e-01   -6.095510721e-01
     5445000000    4.726615548e-01   -4.743761718e-01
     5448000000    5.955631137e-01   -2.899956107e-01
     5451000000    6.657949686e-01   -4.081406072e-02
     5454000000    6.311184764e-01    1.725933254e-01
     5457000000    5.253519416e-01    3.888756931e-01
     5460000000    3.485719860e-01    5.506818891e-01
     5463000000    1.355703026e-01    6.327272654e-01
     5466000000   -1.132320389e-01    6.418861747e-01
     5469000000   -3.359471560e-01    5.555666089e-01
     5472000000   -4.940725863e-01    4.094198346e-01
     5475000000   -6.126069427e-01    1.954838037e-01
     5478000000   -6.288346648e-01   -5.093450658e-03
     5481000000   -5.838637352e-01   -2.712226808e-01
     5484000000   -4.600187242e-01   -4.356114864e-01
     5487000000   -2.732619941e-01   -5.681595206e-01
     5490000000   -5.317021906e-02   -6.264966130e-01
     5493000000    1.636378020e-01   -5.973109007e-01
     5496000000    3.749970198e-01   -4.953151941e-01
     5499000000    5.083088875e-01   -3.364238143e-01
     5502000000    6.019480824e-01   -1.218205914e-01
     5505000000    5.948008895e-01    7.169181854e-02
     5508000000    5.184600949e-01    3.107403517e-01
     5511000000    3.811732829e-01    4.564536512e-01
     5514000000    2.008106112e-01    5.533782840e-01
     5517000000   -1.656363532e-02    5.837337971e-01
     5520000000   -2.176776379e-01    5.343626142e-01
     5523000000   -3.815436661e-01    4.249374568e-01
     5526000000   -5.280132890e-01    2.360241264e-01
     5529000000   -5.543708205e-01    7.811611146e-02
     5532000000   -5.398073196e-01   -1.610765457e-01
     5535000000   -4.468038380e-01   -3.319942355e-01
     5538000000   -3.038516641e-01   -4.537851810e-01
     5541000000   -1.349097341e-01   -5.220029354e-01
     5544000000    8.683335781e-02   -5.315001011e-01
     5547000000    2.515034974e-01   -4.667661190e-01
     5550000000    4.014631510e-01   -3.398472369e-01
     5553000000    4.735688567e-01   -1.989226788e-01
     5556000000    5.137184262e-01    2.309313416e-02
     5559000000    4.714105129e-01    1.803193092e-01
     5562000000    3.685694635e-01    3.356323540e-01
     5565000000    2.167717665e-01    4.462649226e-01
     5568000000    5.205663666e-02    4.847643673e-01
     5571000000   -1.229465902e-01    4.691721201e-01
     5574000000   -2.842032313e-01    3.852232695e-01
     5577000000   -3.913961947e-01    2.600750327e-01
     5580000000   -4.532785416e-01    1.007659584e-01
     5583000000   -4.527603686e-01   -5.262172595e-02
     5586000000   -3.845189214e-01   -2.275104970e-01
     5589000000   -2.831349969e-01   -3.362644315e-01
     5592000000   -1.412026733e-01   -4.060585797e-01
     5595000000    1.538691577e-02   -4.270824790e-01
     5598000000    1.489810497e-01   -3.946386576e-01
     5601000000    2.844187021e-01   -3.020935059e-01
     5604000000    3.669677079e-01   -1.782569140e-01
     5607000000    4.009275734e-01   -3.475669399e-02
     5610000000    3.834344149e-01    1.124629825e-01
     5613000000    3.005388379e-01    2.447091192e-01
     5616000000    2.091299295e-01    3.226987422e-01
     5619000000    6.891693920e-02    3.715850711e-01
     5622000000   -7.427845150e-02    3.598254919e-01
     5625000000   -1.914888769e-01    3.095876575e-01
     5628000000   -2.852198184e-01    2.130964249e-01
     5631000000   -3.364686072e-01    1.008137539e-01
     5634000000   -3.419454098e-01   -3.430278599e-02
     5637000000   -2.958675921e-01   -1.620081216e-01
     5640000000   -2.246188521e-01   -2.502241731e-01
     5643000000   -1.168853194e-01   -3.106240332e-01
     5646000000    1.754024625e-02   -3.241187036e-01
     5649000000    1.093704253e-01   -3.079793453e-01
     5652000000    2.281139344e-01   -2.158980519e-01
     5655000000    2.830051482e-01   -1.412668973e-01
     5658000000    3.070403934e-01   -2.332827635e-02
     5661000000    2.858412564e-01    9.260474145e-02
     5664000000    2.405402064e-01    1.792656034e-01
     5667000000    1.398441792e-01    2.534189224e-01
     5670000000    3.431095183e-02    2.831249237e-01
     5673000000   -7.270433754e-02    2.687974274e-01
     5676000000   -1.612838358e-01    2.243142128e-01
     5679000000   -2.324344218e-01    1.470658332e-01
     5682000000   -2.693682313e-01    4.838819802e-02
     5685000000   -2.661089301e-01   -5.130528659e-02
     5688000000   -2.239023149e-01   -1.486146748e-01
     5691000000   -1.624964774e-01   -2.167154700e-01
     5694000000   -6.969460100e-02   -2.590333223e-01
     5697000000    3.599183634e-02   -2.635771632e-01
     5700000000    1.341093481e-01   -2.246376276e-01
     5703000000    2.037725002e-01   -1.691887379e-01
     5706000000    2.512434125e-01   -8.145843446e-02
     5709000000    2.648723125e-01    1.167493500e-02
     5712000000    2.240250707e-01    1.210003719e-01
     5715000000    1.797869503e-01    1.880824566e-01
     5718000000    1.043864265e-01    2.444062680e-01
     5721000000   -3.335043322e-03    2.559863627e-01
     5724000000   -9.716509283e-02    2.361723930e-01
     5727000000   -1.769750714e-01    1.891347915e-01
     5730000000   -2.357949913e-01    1.182710007e-01
     5733000000   -2.593023181e-01    1.866474748e-02
     5736000000   -2.536284029e-01   -7.605735213e-02
     5739000000   -1.957309842e-01   -1.678747237e-01
     5742000000   -1.377130598e-01   -2.305793911e-01
     5745000000   -2.817302383e-02   -2.557461858e-01
     5748000000    5.680952594e-02   -2.611018717e-01
     5751000000    1.531417221e-01   -2.243261188e-01
     5754000000    2.214418352e-01   -1.386918873e-01
     5757000000    2.609495521e-01   -5.473256111e-02
     5760000000    2.674192786e-01    4.337320849e-02
     5763000000    2.543658912e-01    1.322128922e-01
     5766000000    1.670286208e-01    2.147473991e-01
     5769000000    8.472040296e-02    2.672125399e-01
     5772000000   -2.827621624e-02    2.707282901e-01
     5775000000   -1.101354659e-01    2.778699696e-01
     5778000000   -2.017356753e-01    1.852571666e-01
     5781000000   -2.662489116e-01    1.367818564e-01
     5784000000   -2.841927409e-01    1.301709190e-02
     5787000000   -2.738200128e-01   -8.576817811e-02
     5790000000   -2.406766266e-01   -1.785941869e-01
     5793000000   -1.388007700e-01   -2.482557297e-01
     5796000000   -5.517268926e-02   -2.921339869e-01
     5799000000    5.737900361e-02   -2.888112664e-01
     5802000000    1.560370922e-01   -2.566768229e-01
     5805000000    2.394107431e-01   -1.890189350e-01
     5808000000    2.822437286e-01   -8.357475698e-02
     5811000000    3.096759617e-01    1.452236809e-02
     5814000000    2.780818045e-01    1.247734576e-01
     5817000000    2.191969901e-01    2.191020846e-01
     5820000000    1.151976138e-01    2.761838436e-01
     5823000000    2.686420456e-02    3.212809563e-01
     5826000000   -9.321835637e-02    3.032692969e-01
     5829000000   -1.934017241e-01    2.436747551e-01
     5832000000   -2.695547640e-01    1.613803655e-01
     5835000000   -3.197446764e-01    6.571304053e-02
     5838000000   -3.307022452e-01   -4.936343059e-02
     5841000000   -2.824334502e-01   -1.604265869e-01
     5844000000   -2.103964090e-01   -2.496805787e-01
     5847000000   -1.044567451e-01   -3.050228059e-01
     5850000000    4.453523550e-03   -3.374082148e-01
     5853000000    1.230809614e-01   -3.065440357e-01
     5856000000    2.230473161e-01   -2.466283292e-01
     5859000000    2.947628200e-01   -1.524516195e-01
     5862000000    3.265661299e-01   -3.684301674e-02
     5865000000    3.280332685e-01    7.953063399e-02
     5868000000    2.785092592e-01    1.915416569e-01
     5871000000    1.926009208e-01    2.754175365e-01
     5874000000    8.307056129e-02    3.233408332e-01
     5877000000   -3.754727915e-02    3.434003890e-01
     5880000000   -1.529434472e-01    3.057791889e-01
     5883000000   -2.543745339e-01    2.365977317e-01
     5886000000   -3.192752004e-01    1.237744689e-01
     5889000000   -3.500975668e-01    6.489172578e-03
     5892000000   -3.252202272e-01   -1.166938171e-01
     5895000000   -2.647902668e-01   -2.220264077e-01
     5898000000   -1.721935719e-01   -3.047686815e-01
     5901000000   -5.527657643e-02   -3.504052162e-01
     5904000000    7.536821812e-02   -3.538817465e-01
     5907000000    1.922988296e-01   -3.050051033e-01
     5910000000    2.823139131e-01   -2.186466306e-01
     5913000000    3.500201404e-01   -1.059416458e-01
     5916000000    3.526196778e-01    1.674469188e-02
     5919000000    3.319667876e-01    1.493003517e-01
     5922000000    2.584038079e-01    2.547069490e-01
     5925000000    1.541192085e-01    3.309215009e-01
     5928000000    2.994917333e-02    3.628875017e-01
     5931000000   -1.004052758e-01    3.540522754e-01
     5934000000   -2.201663405e-01    2.968811989e-01
     5937000000   -3.089011014e-01    2.026200742e-01
     5940000000   -3.609456420e-01    8.252547681e-02
     5943000000   -3.707209527e-01   -5.538062751e-02
     5946000000   -3.265128434e-01   -1.729758233e-01
     5949000000   -2.439102530e-01   -2.777650654e-01
     5952000000   -1.280929744e-01   -3.555986881e-01
     5955000000   -3.164160531e-03   -3.752811849e-01
     5958000000    1.339380443e-01   -3.529221117e-01
     5961000000    2.441679388e-01   -2.837475836e-01
     5964000000    3.301225007e-01   -1.831779033e-01
     5967000000    3.692954183e-01   -5.745485425e-02
     5970000000    3.688548505e-01    7.933221757e-02
     5973000000    3.183189929e-01    1.967317760e-01
     5976000000    2.213791311e-01    3.008596003e-01
     5979000000    1.028729230e-01    3.569131196e-01
     5982000000   -2.697913162e-02    3.710930943e-01
     5985000000   -1.608076096e-01    3.369153142e-01
     5988000000   -2.685538530e-01    2.618178129e-01
     5991000000   -3.424496055e-01    1.524586231e-01
     5994000000   -3.746324480e-01    2.358569019e-02
     5997000000   -3.591959178e-01   -1.106506959e-01
     6000000000   -2.990796268e-01   -2.269314975e-01
