! NanoVNA-App
! Date: 2026-06-16 00:34:41
! Start: 2.3GHz Stop: 2.6GHz Points: 401
! S-Parameter data: F S11
# Hz S RI R 50
!     Frequency           S11_Real           S11_Imag
     2300000000   -5.075235963e-01   -2.064831257e-01
     2300750000   -4.864389300e-01   -2.468718439e-01
     2301500000   -4.594165683e-01   -2.908346355e-01
     2302250000   -4.310567975e-01   -3.275339901e-01
     2303000000   -3.990074992e-01   -3.622249067e-01
     2303750000   -3.641012013e-01   -3.947245777e-01
     2304500000   -3.265721500e-01   -4.234057367e-01
     2305250000   -2.871740460e-01   -4.482543468e-01
     2306000000   -2.441291958e-01   -4.702445865e-01
     2306750000   -2.007838786e-01   -4.881623685e-01
     2307500000   -1.576405913e-01   -5.016902089e-01
     2308250000   -1.120253280e-01   -5.110677481e-01
     2309000000   -6.489121914e-02   -5.172266364e-01
     2309750000   -2.032351121e-02   -5.187371373e-01
     2310500000    2.809925564e-02   -5.163453221e-01
     2311250000    7.323011011e-02   -5.100482106e-01
     2312000000    1.171336472e-01   -4.991473258e-01
     2312750000    1.612558961e-01   -4.850416481e-01
     2313500000    2.035689950e-01   -4.666622281e-01
     2314250000    2.439105064e-01   -4.452858269e-01
     2315000000    2.794615328e-01   -4.215119183e-01
     2315750000    3.171044886e-01   -3.926376700e-01
     2316500000    3.499111533e-01   -3.614598811e-01
     2317250000    3.792609572e-01   -3.286404014e-01
     2318000000    4.076408148e-01   -2.915998101e-01
     2318750000    4.309614897e-01   -2.522708178e-01
     2319500000    4.500217140e-01   -2.155443132e-01
     2320250000    4.674998522e-01   -1.720376462e-01
     2321000000    4.801554382e-01   -1.298667938e-01
     2321750000    4.881202281e-01   -8.890272677e-02
     2322500000    4.936325252e-01   -4.420361668e-02
     2323250000    4.942618012e-01   -1.606624457e-03
     2324000000    4.916763008e-01    4.414718226e-02
     2324750000    4.849407077e-01    8.328187466e-02
     2325500000    4.745110571e-01    1.248826757e-01
     2326250000    4.601922035e-01    1.679536998e-01
     2327000000    4.424775839e-01    2.063200325e-01
     2327750000    4.226288795e-01    2.417410314e-01
     2328500000    3.980702460e-01    2.780396938e-01
     2329250000    3.706518114e-01    3.102456927e-01
     2330000000    3.431041837e-01    3.387691081e-01
     2330750000    3.092134893e-01    3.681950867e-01
     2331500000    2.766396701e-01    3.907155693e-01
     2332250000    2.389753461e-01    4.129191637e-01
     2333000000    2.011048943e-01    4.310258329e-01
     2333750000    1.640363485e-01    4.438910782e-01
     2334500000    1.247894168e-01    4.545133114e-01
     2335250000    8.218977600e-02    4.622092843e-01
     2336000000    4.299706966e-02    4.649593830e-01
     2336750000    2.403271152e-03    4.650484324e-01
     2337500000   -3.996628895e-02    4.620922804e-01
     2338250000   -7.984373719e-02    4.548501372e-01
     2339000000   -1.172257811e-01    4.440366626e-01
     2339750000   -1.556306332e-01    4.305637777e-01
     2340500000   -1.919929832e-01    4.133102596e-01
     2341250000   -2.267642468e-01    3.928860128e-01
     2342000000   -2.578821182e-01    3.709230423e-01
     2342750000   -2.899051607e-01    3.445611596e-01
     2343500000   -3.158205748e-01    3.171884418e-01
     2344250000   -3.420279324e-01    2.864139378e-01
     2345000000   -3.638781011e-01    2.545369864e-01
     2345750000   -3.814838827e-01    2.225614786e-01
     2346500000   -3.987210691e-01    1.865695417e-01
     2347250000   -4.108295739e-01    1.507982016e-01
     2348000000   -4.213753045e-01    1.127449200e-01
     2348750000   -4.262906015e-01    7.652006298e-02
     2349500000   -4.300819337e-01    3.749078885e-02
     2350250000   -4.293693304e-01    1.081666909e-03
     2351000000   -4.261326492e-01   -3.641815484e-02
     2351750000   -4.189922214e-01   -7.287271321e-02
     2352500000   -4.096142948e-01   -1.091361567e-01
     2353250000   -3.961735666e-01   -1.441930234e-01
     2354000000   -3.797525167e-01   -1.767292619e-01
     2354750000   -3.614549339e-01   -2.056134343e-01
     2355500000   -3.391457200e-01   -2.384013236e-01
     2356250000   -3.167107403e-01   -2.644239664e-01
     2357000000   -2.912178636e-01   -2.891398966e-01
     2357750000   -2.631490231e-01   -3.109782040e-01
     2358500000   -2.329743505e-01   -3.322727084e-01
     2359250000   -2.024668902e-01   -3.499155343e-01
     2360000000   -1.721024662e-01   -3.621186316e-01
     2360750000   -1.380021721e-01   -3.748993278e-01
     2361500000   -1.042640805e-01   -3.840350211e-01
     2362250000   -7.111062109e-02   -3.883030713e-01
     2363000000   -3.701129928e-02   -3.902953267e-01
     2363750000   -2.290544100e-03   -3.910310566e-01
     2364500000    3.106520325e-02   -3.868365288e-01
     2365250000    6.229685247e-02   -3.799070716e-01
     2366000000    9.475016594e-02   -3.710592091e-01
     2366750000    1.249366477e-01   -3.590425253e-01
     2367500000    1.554710120e-01   -3.444668949e-01
     2368250000    1.833911389e-01   -3.281070292e-01
     2369000000    2.086474895e-01   -3.093651235e-01
     2369750000    2.331699282e-01   -2.875876427e-01
     2370500000    2.548290491e-01   -2.647762299e-01
     2371250000    2.747900784e-01   -2.397641242e-01
     2372000000    2.914216816e-01   -2.147018760e-01
     2372750000    3.067550659e-01   -1.866511852e-01
     2373500000    3.193026781e-01   -1.577284932e-01
     2374250000    3.288518190e-01   -1.287740171e-01
     2375000000    3.354473412e-01   -9.989161789e-02
     2375750000    3.394847214e-01   -7.057078183e-02
     2376500000    3.426109850e-01   -3.891772032e-02
     2377250000    3.394342661e-01   -1.046065893e-02
     2378000000    3.373050988e-01    2.017003670e-02
     2378750000    3.301290572e-01    4.722833633e-02
     2379500000    3.224077523e-01    7.626790553e-02
     2380250000    3.117229044e-01    1.023640111e-01
     2381000000    2.986667752e-01    1.289416254e-01
     2381750000    2.834877074e-01    1.530548334e-01
     2382500000    2.669804692e-01    1.740900576e-01
     2383250000    2.474117726e-01    1.961346120e-01
     2384000000    2.277002633e-01    2.177185118e-01
     2384750000    2.063011676e-01    2.324360013e-01
     2385500000    1.841789931e-01    2.443316579e-01
     2386250000    1.594339460e-01    2.606427670e-01
     2387000000    1.352901608e-01    2.708832622e-01
     2387750000    1.110727191e-01    2.777970433e-01
     2388500000    8.559856564e-02    2.839589715e-01
     2389250000    5.821336433e-02    2.904308736e-01
     2390000000    3.544640914e-02    2.894268632e-01
     2390750000    9.674076922e-03    2.886357903e-01
     2391500000   -1.573203690e-02    2.868400812e-01
     2392250000   -3.928518668e-02    2.814914584e-01
     2393000000   -6.304580718e-02    2.741735876e-01
     2393750000   -8.387906104e-02    2.643297315e-01
     2394500000   -1.061552837e-01    2.540800869e-01
     2395250000   -1.264826804e-01    2.419904917e-01
     2396000000   -1.433510929e-01    2.271116078e-01
     2396750000   -1.607277542e-01    2.114810646e-01
     2397500000   -1.744211614e-01    1.942099333e-01
     2398250000   -1.888051033e-01    1.773028821e-01
     2399000000   -1.999718249e-01    1.578031480e-01
     2399750000   -2.098107338e-01    1.382139772e-01
     2400500000   -2.165690809e-01    1.185876206e-01
     2401250000   -2.232039422e-01    9.808643162e-02
     2402000000   -2.269112617e-01    7.760898024e-02
     2402750000   -2.292930782e-01    5.768297240e-02
     2403500000   -2.299317271e-01    3.721220046e-02
     2404250000   -2.271842808e-01    1.793826744e-02
     2405000000   -2.268482000e-01   -4.091053735e-03
     2405750000   -2.207632214e-01   -2.241663635e-02
     2406500000   -2.140573412e-01   -3.955555707e-02
     2407250000   -2.073462009e-01   -5.758542940e-02
     2408000000   -1.976649314e-01   -7.292056829e-02
     2408750000   -1.864440888e-01   -8.742254227e-02
     2409500000   -1.759613603e-01   -1.023118645e-01
     2410250000   -1.634047627e-01   -1.153611019e-01
     2411000000   -1.498592794e-01   -1.246175617e-01
     2411750000   -1.358492821e-01   -1.349793226e-01
     2412500000   -1.214076579e-01   -1.437314749e-01
     2413250000   -1.063204855e-01   -1.492068321e-01
     2414000000   -9.105140716e-02   -1.556230485e-01
     2414750000   -7.512014359e-02   -1.584085822e-01
     2415500000   -5.994204059e-02   -1.610618830e-01
     2416250000   -4.466556013e-02   -1.611047983e-01
     2417000000   -2.936994657e-02   -1.602192968e-01
     2417750000   -1.433673594e-02   -1.589298248e-01
     2418500000    4.897875478e-04   -1.561782360e-01
     2419250000    1.405193843e-02   -1.517008990e-01
     2420000000    2.632430568e-02   -1.451323330e-01
     2420750000    3.906048089e-02   -1.390935928e-01
     2421500000    4.989195615e-02   -1.312332600e-01
     2422250000    6.068567187e-02   -1.228342354e-01
     2423000000    6.916349381e-02   -1.130940691e-01
     2423750000    7.696760446e-02   -1.035431027e-01
     2424500000    8.493239433e-02   -9.340157360e-02
     2425250000    9.077591449e-02   -8.317393810e-02
     2426000000    9.660360217e-02   -7.343909889e-02
     2426750000    9.855940938e-02   -6.144198403e-02
     2427500000    1.027972251e-01   -5.095389858e-02
     2428250000    1.026525721e-01   -4.016490281e-02
     2429000000    1.031627208e-01   -2.946698293e-02
     2429750000    1.034637243e-01   -1.875719242e-02
     2430500000    1.022118777e-01   -8.904934861e-03
     2431250000    9.853230417e-02    3.175339662e-04
     2432000000    9.486041218e-02    8.140475489e-03
     2432750000    9.131471813e-02    1.760019176e-02
     2433500000    8.733511716e-02    2.567433752e-02
     2434250000    8.027028292e-02    3.039996512e-02
     2435000000    7.406700402e-02    3.603683785e-02
     2435750000    6.854642928e-02    4.275090992e-02
     2436500000    6.238497421e-02    4.752137512e-02
     2437250000    5.476961285e-02    4.944720864e-02
     2438000000    4.754162207e-02    5.221739039e-02
     2438750000    4.131382704e-02    5.405595154e-02
     2439500000    3.412992880e-02    5.377268046e-02
     2440250000    2.742136084e-02    5.380983651e-02
     2441000000    2.124134637e-02    5.465821922e-02
     2441750000    1.500326116e-02    5.304739624e-02
     2442500000    9.608922526e-03    4.882284254e-02
     2443250000    4.134892486e-03    4.704006389e-02
     2444000000   -1.300734468e-03    4.459483549e-02
     2444750000   -5.437171087e-03    4.033545777e-02
     2445500000   -8.950936608e-03    3.545935079e-02
     2446250000   -1.185265277e-02    3.139349073e-02
     2447000000   -1.472025644e-02    2.701372094e-02
     2447750000   -1.627288759e-02    2.231243066e-02
     2448500000   -1.744208299e-02    1.730900817e-02
     2449250000   -1.811647229e-02    1.282377727e-02
     2450000000   -1.917462051e-02    8.327995427e-03
     2450750000   -1.667706855e-02    3.882210236e-03
     2451500000   -1.502452325e-02   -1.029276522e-03
     2452250000   -1.235402655e-02   -4.885266069e-03
     2453000000   -1.052916516e-02   -8.392090909e-03
     2453750000   -7.378482725e-03   -1.138101891e-02
     2454500000   -4.356756341e-03   -1.406188402e-02
     2455250000   -3.617469338e-04   -1.579845883e-02
     2456000000    3.300496144e-03   -1.707014441e-02
     2456750000    6.830336060e-03   -1.776086912e-02
     2457500000    1.149343606e-02   -1.772906072e-02
     2458250000    1.568061300e-02   -1.735314168e-02
     2459000000    1.937468536e-02   -1.610808447e-02
     2459750000    2.351004258e-02   -1.391781587e-02
     2460500000    2.727827616e-02   -1.084605604e-02
     2461250000    3.112172522e-02   -7.137897890e-03
     2462000000    3.295018896e-02   -3.939470742e-03
     2462750000    3.570400551e-02    6.289647717e-05
     2463500000    3.767970949e-02    5.168496631e-03
     2464250000    3.970713168e-02    1.099856663e-02
     2465000000    4.024957120e-02    1.573226228e-02
     2465750000    4.057966545e-02    2.232558839e-02
     2466500000    4.024043307e-02    2.845073864e-02
     2467250000    3.869410977e-02    3.445086256e-02
     2468000000    3.680748120e-02    4.149043933e-02
     2468750000    3.417609259e-02    4.540615901e-02
     2469500000    3.052250668e-02    5.247577280e-02
     2470250000    2.534243278e-02    5.859783664e-02
     2471000000    2.116358466e-02    6.221127510e-02
     2471750000    1.523692533e-02    6.751751900e-02
     2472500000    8.426512592e-03    7.217656821e-02
     2473250000    9.119171300e-04    7.646627724e-02
     2474000000   -6.346181501e-03    7.799507678e-02
     2474750000   -1.583154500e-02    8.188360184e-02
     2475500000   -2.455737069e-02    8.338668942e-02
     2476250000   -3.363652155e-02    8.353382349e-02
     2477000000   -4.248581454e-02    8.322478086e-02
     2477750000   -5.238736793e-02    8.271578699e-02
     2478500000   -6.262196600e-02    8.075138927e-02
     2479250000   -7.080110908e-02    7.734571397e-02
     2480000000   -8.175458014e-02    7.407652587e-02
     2480750000   -9.024902433e-02    6.852791458e-02
     2481500000   -9.893154353e-02    6.270784885e-02
     2482250000   -1.075947061e-01    5.513816699e-02
     2483000000   -1.150091738e-01    4.762995616e-02
     2483750000   -1.219221801e-01    3.840900213e-02
     2484500000   -1.287708730e-01    2.865610644e-02
     2485250000   -1.340976655e-01    1.825575344e-02
     2486000000   -1.387793273e-01    6.809753366e-03
     2486750000   -1.422534734e-01   -5.284575745e-03
     2487500000   -1.447512656e-01   -1.734161936e-02
     2488250000   -1.457118541e-01   -3.002510034e-02
     2489000000   -1.457784325e-01   -4.329449311e-02
     2489750000   -1.443718225e-01   -5.692525208e-02
     2490500000   -1.418884993e-01   -6.983336806e-02
     2491250000   -1.380652189e-01   -8.277785778e-02
     2492000000   -1.332447827e-01   -9.659592807e-02
     2492750000   -1.266255379e-01   -1.090678647e-01
     2493500000   -1.184907109e-01   -1.212022677e-01
     2494250000   -1.099019498e-01   -1.331602782e-01
     2495000000   -9.915127605e-02   -1.435882300e-01
     2495750000   -8.839184791e-02   -1.545465440e-01
     2496500000   -7.519748807e-02   -1.631031930e-01
     2497250000   -6.219860539e-02   -1.711424440e-01
     2498000000   -4.833949357e-02   -1.783144474e-01
     2498750000   -3.211485595e-02   -1.840458065e-01
     2499500000   -1.706609875e-02   -1.881445497e-01
     2500250000   -2.142005687e-04   -1.906698048e-01
     2501000000    1.664034650e-02   -1.915154606e-01
     2501750000    3.361470625e-02   -1.921687722e-01
     2502500000    5.070199072e-02   -1.890789717e-01
     2503250000    6.881137192e-02   -1.859312952e-01
     2504000000    8.590520173e-02   -1.802024245e-01
     2504750000    1.026479751e-01   -1.733429730e-01
     2505500000    1.192409322e-01   -1.645842046e-01
     2506250000    1.346146166e-01   -1.552624255e-01
     2507000000    1.509503275e-01   -1.426613629e-01
     2507750000    1.646471322e-01   -1.302144378e-01
     2508500000    1.771455109e-01   -1.149323806e-01
     2509250000    1.898199022e-01   -9.901934862e-02
     2510000000    2.001334280e-01   -8.299920708e-02
     2510750000    2.087415606e-01   -6.306379288e-02
     2511500000    2.163896561e-01   -4.459119588e-02
     2512250000    2.221112847e-01   -2.503513359e-02
     2513000000    2.266726792e-01   -4.434090108e-03
     2513750000    2.276416421e-01    1.705567911e-02
     2514500000    2.283640355e-01    3.802420944e-02
     2515250000    2.266214043e-01    6.006290764e-02
     2516000000    2.223778218e-01    8.208050579e-02
     2516750000    2.163077593e-01    1.030443236e-01
     2517500000    2.087455541e-01    1.244937032e-01
     2518250000    1.985078156e-01    1.451159865e-01
     2519000000    1.880097389e-01    1.647287011e-01
     2519750000    1.735473871e-01    1.836152375e-01
     2520500000    1.585777849e-01    2.008690536e-01
     2521250000    1.415628791e-01    2.171353847e-01
     2522000000    1.225173622e-01    2.314919084e-01
     2522750000    1.026313975e-01    2.447740138e-01
     2523500000    8.100587130e-02    2.561923862e-01
     2524250000    5.781434849e-02    2.658645213e-01
     2525000000    3.455393761e-02    2.733528912e-01
     2525750000    9.638070129e-03    2.790916562e-01
     2526500000   -1.466477010e-02    2.825489938e-01
     2527250000   -4.094489291e-02    2.837143540e-01
     2528000000   -6.666438282e-02    2.825795412e-01
     2528750000   -9.215682000e-02    2.789490521e-01
     2529500000   -1.173555553e-01    2.733408213e-01
     2530250000   -1.425731033e-01    2.650408447e-01
     2531000000   -1.673757136e-01    2.546920180e-01
     2531750000   -1.903423965e-01    2.417194843e-01
     2532500000   -2.136769742e-01    2.265922427e-01
     2533250000   -2.345080823e-01    2.095645815e-01
     2534000000   -2.544880807e-01    1.903061569e-01
     2534750000   -2.722836733e-01    1.696914881e-01
     2535500000   -2.888124585e-01    1.465577930e-01
     2536250000   -3.027332425e-01    1.220948324e-01
     2537000000   -3.146720827e-01    9.599449486e-02
     2537750000   -3.239001632e-01    6.945563108e-02
     2538500000   -3.316933215e-01    4.207621887e-02
     2539250000   -3.361976743e-01    1.354658697e-02
     2540000000   -3.377807140e-01   -1.631315053e-02
     2540750000   -3.369826376e-01   -4.646661505e-02
     2541500000   -3.344788253e-01   -7.619174570e-02
     2542250000   -3.280353546e-01   -1.055520400e-01
     2543000000   -3.191474080e-01   -1.360052079e-01
     2543750000   -3.081570864e-01   -1.642871052e-01
     2544500000   -2.946327031e-01   -1.924263090e-01
     2545250000   -2.783561051e-01   -2.197232246e-01
     2546000000   -2.592674494e-01   -2.452146709e-01
     2546750000   -2.379635274e-01   -2.692331672e-01
     2547500000   -2.151812762e-01   -2.910242677e-01
     2548250000   -1.900763363e-01   -3.113478124e-01
     2549000000   -1.636743098e-01   -3.290719986e-01
     2549750000   -1.336798668e-01   -3.443049490e-01
     2550500000   -1.036599129e-01   -3.571058512e-01
     2551250000   -7.241932303e-02   -3.674440682e-01
     2552000000   -4.076394439e-02   -3.744383454e-01
     2552750000   -7.120238617e-03   -3.784696758e-01
     2553500000    2.785958722e-02   -3.799950182e-01
     2554250000    6.137632951e-02   -3.779878914e-01
     2555000000    9.383948892e-02   -3.741143942e-01
     2555750000    1.283631623e-01   -3.656251729e-01
     2556500000    1.618947089e-01   -3.545329869e-01
     2557250000    1.954427361e-01   -3.409283757e-01
     2558000000    2.245804369e-01   -3.245435059e-01
     2558750000    2.546136975e-01   -3.052137196e-01
     2559500000    2.835876644e-01   -2.823955715e-01
     2560250000    3.085031509e-01   -2.583756745e-01
     2561000000    3.337395787e-01   -2.302856296e-01
     2561750000    3.552855253e-01   -2.012035400e-01
     2562500000    3.733015656e-01   -1.712753922e-01
     2563250000    3.894861639e-01   -1.376676112e-01
     2564000000    4.039720595e-01   -1.024908200e-01
     2564750000    4.135437310e-01   -6.828200817e-02
     2565500000    4.210308790e-01   -3.146751598e-02
     2566250000    4.251543283e-01    6.969702896e-03
     2567000000    4.260934889e-01    4.486318305e-02
     2567750000    4.231663346e-01    8.051341027e-02
     2568500000    4.174786508e-01    1.196865365e-01
     2569250000    4.079416096e-01    1.542309970e-01
     2570000000    3.948099315e-01    1.919669658e-01
     2570750000    3.789742887e-01    2.262953818e-01
     2571500000    3.596591353e-01    2.600122392e-01
     2572250000    3.386109471e-01    2.903167307e-01
     2573000000    3.121952415e-01    3.212487102e-01
     2573750000    2.845561802e-01    3.488022387e-01
     2574500000    2.552881837e-01    3.729116321e-01
     2575250000    2.216840088e-01    3.954010010e-01
     2576000000    1.869704723e-01    4.154694378e-01
     2576750000    1.503547281e-01    4.318687916e-01
     2577500000    1.132356748e-01    4.450391531e-01
     2578250000    7.434389740e-02    4.546136558e-01
     2579000000    3.225639462e-02    4.612413347e-01
     2579750000   -7.269818801e-03    4.633399546e-01
     2580500000   -4.767505080e-02    4.625975788e-01
     2581250000   -8.879235387e-02    4.580439329e-01
     2582000000   -1.304961294e-01    4.495846927e-01
     2582750000   -1.697245091e-01    4.375380874e-01
     2583500000   -2.066189498e-01    4.227968752e-01
     2584250000   -2.459660769e-01    4.038547873e-01
     2585000000   -2.825136781e-01    3.806824386e-01
     2585750000   -3.151071072e-01    3.558916748e-01
     2586500000   -3.453125656e-01    3.287867308e-01
     2587250000   -3.756306469e-01    2.962333858e-01
     2588000000   -4.007843733e-01    2.634177506e-01
     2588750000   -4.241002202e-01    2.264601290e-01
     2589500000   -4.443412423e-01    1.880370975e-01
     2590250000   -4.594807327e-01    1.496382803e-01
     2591000000   -4.724282026e-01    1.066914797e-01
     2591750000   -4.804939628e-01    6.602738798e-02
     2592500000   -4.864233434e-01    1.996499673e-02
     2593250000   -4.883242846e-01   -2.346934751e-02
     2594000000   -4.846957326e-01   -6.808200479e-02
     2594750000   -4.778329730e-01   -1.091152132e-01
     2595500000   -4.679256976e-01   -1.566848159e-01
     2596250000   -4.539128244e-01   -1.953395307e-01
     2597000000   -4.365295768e-01   -2.344479412e-01
     2597750000   -4.141200781e-01   -2.776400447e-01
     2598500000   -3.897044659e-01   -3.127296567e-01
     2599250000   -3.598901033e-01   -3.516288102e-01
     2600000000   -3.300427198e-01   -3.810486495e-01
