! NanoVNA-App
! Date: 2026-06-16 00:34:13
! Start: 4.8GHz Stop: 6GHz Points: 401
! S-Parameter data: F S11
# Hz S RI R 50
!     Frequency           S11_Real           S11_Imag
     4800000000   -2.416573651e-02    6.326113343e-01
     4803000000   -2.482787967e-01    5.741742849e-01
     4806000000   -4.302631319e-01    4.449537098e-01
     4809000000   -5.515363216e-01    2.619583309e-01
     4812000000   -6.026469469e-01    3.979792446e-02
     4815000000   -5.704042315e-01   -1.772663295e-01
     4818000000   -4.656964242e-01   -3.610684574e-01
     4821000000   -2.971600890e-01   -4.974891841e-01
     4824000000   -9.771329910e-02   -5.618606210e-01
     4827000000    1.056719124e-01   -5.545849204e-01
     4830000000    2.959623635e-01   -4.689427018e-01
     4833000000    4.377858043e-01   -3.200513721e-01
     4836000000    5.164971352e-01   -1.392416060e-01
     4839000000    5.213199258e-01    5.766677484e-02
     4842000000    4.559540153e-01    2.398672998e-01
     4845000000    3.332838118e-01    3.821416199e-01
     4848000000    1.630299687e-01    4.677158892e-01
     4851000000   -1.700798608e-02    4.853637516e-01
     4854000000   -1.969960183e-01    4.310425222e-01
     4857000000   -3.330352604e-01    3.285396993e-01
     4860000000   -4.233642817e-01    1.776293218e-01
     4863000000   -4.539869726e-01    7.415036671e-03
     4866000000   -4.147748053e-01   -1.584877968e-01
     4869000000   -3.165951967e-01   -3.003093600e-01
     4872000000   -1.852330118e-01   -3.884608746e-01
     4875000000   -1.169059239e-02   -4.160382748e-01
     4878000000    1.387072504e-01   -3.930097818e-01
     4881000000    2.778910697e-01   -2.901031673e-01
     4884000000    3.630458117e-01   -1.679196805e-01
     4887000000    3.994284272e-01   -1.930010878e-02
     4890000000    3.673296273e-01    1.399427652e-01
     4893000000    2.823418975e-01    2.675485015e-01
     4896000000    1.546888649e-01    3.551676273e-01
     4899000000    1.145955734e-02    3.891760409e-01
     4902000000   -1.422681361e-01    3.600482941e-01
     4905000000   -2.712198794e-01    2.787663341e-01
     4908000000   -3.591620624e-01    1.537694037e-01
     4911000000   -3.933113813e-01    3.603569465e-03
     4914000000   -3.676725626e-01   -1.493453979e-01
     4917000000   -2.819315791e-01   -2.821630239e-01
     4920000000   -1.566746831e-01   -3.741147220e-01
     4923000000   -6.225361489e-03   -4.118970931e-01
     4926000000    1.564174443e-01   -3.883720040e-01
     4929000000    2.967885733e-01   -2.939258814e-01
     4932000000    3.921046853e-01   -1.804481447e-01
     4935000000    4.325501919e-01   -1.203428674e-02
     4938000000    4.167962968e-01    1.474270970e-01
     4941000000    3.345405459e-01    2.980921566e-01
     4944000000    2.117420286e-01    4.066722393e-01
     4947000000    4.534180090e-02    4.573142827e-01
     4950000000   -1.322617084e-01    4.531331658e-01
     4953000000   -2.974707484e-01    3.683868647e-01
     4956000000   -4.150010347e-01    2.497814000e-01
     4959000000   -4.814664423e-01    7.234801352e-02
     4962000000   -4.864020944e-01   -1.041513458e-01
     4965000000   -4.184199274e-01   -2.784717381e-01
     4968000000   -2.921575606e-01   -4.173863828e-01
     4971000000   -1.230908334e-01   -5.003063679e-01
     4974000000    6.468718499e-02   -5.176181197e-01
     4977000000    2.502433956e-01   -4.642466009e-01
     4980000000    4.058322310e-01   -3.433454037e-01
     4983000000    5.061266422e-01   -1.766896546e-01
     4986000000    5.399394035e-01    1.837182976e-02
     4989000000    5.034694672e-01    2.119343728e-01
     4992000000    3.894550204e-01    3.837304413e-01
     4995000000    2.405630499e-01    4.990069270e-01
     4998000000    3.150603175e-02    5.528414249e-01
     5001000000   -1.597605348e-01    5.439475775e-01
     5004000000   -3.525504470e-01    4.375829697e-01
     5007000000   -4.830234349e-01    2.979941964e-01
     5010000000   -5.556081533e-01    8.808945864e-02
     5013000000   -5.616367459e-01   -1.140315086e-01
     5016000000   -4.875588715e-01   -3.052192330e-01
     5019000000   -3.417089880e-01   -4.639056623e-01
     5022000000   -1.583568305e-01   -5.584195852e-01
     5025000000    5.223821104e-02   -5.802841783e-01
     5028000000    2.620727122e-01   -5.195391178e-01
     5031000000    4.294849932e-01   -3.957477510e-01
     5034000000    5.448155403e-01   -2.127072364e-01
     5037000000    5.853576064e-01   -7.695826935e-04
     5040000000    5.527665019e-01    2.077161670e-01
     5043000000    4.388483465e-01    3.909733295e-01
     5046000000    2.665730715e-01    5.243886113e-01
     5049000000    6.280926615e-02    5.867115259e-01
     5052000000   -1.509178132e-01    5.737703443e-01
     5055000000   -3.452599645e-01    4.795424640e-01
     5058000000   -4.971862733e-01    3.260339797e-01
     5061000000   -5.780633688e-01    1.237236485e-01
     5064000000   -5.862243772e-01   -9.268794209e-02
     5067000000   -5.156165957e-01   -2.970465422e-01
     5070000000   -3.745383024e-01   -4.635331929e-01
     5073000000   -1.811020374e-01   -5.658611059e-01
     5076000000    3.472889960e-02   -5.960466862e-01
     5079000000    2.450968772e-01   -5.484398603e-01
     5082000000    4.242103100e-01   -4.183181524e-01
     5085000000    5.486437082e-01   -2.399130315e-01
     5088000000    5.974889398e-01   -2.695532516e-02
     5091000000    5.672292709e-01    1.900660098e-01
     5094000000    4.622162580e-01    3.813669384e-01
     5097000000    2.936581075e-01    5.217278004e-01
     5100000000    8.882234991e-02    5.917416811e-01
     5103000000   -1.355031729e-01    5.799429417e-01
     5106000000   -3.288975954e-01    4.983733892e-01
     5109000000   -4.910611808e-01    3.474045098e-01
     5112000000   -5.775513649e-01    1.419860423e-01
     5115000000   -5.972494483e-01   -7.253599912e-02
     5118000000   -5.229244232e-01   -2.818632722e-01
     5121000000   -3.911705017e-01   -4.561973512e-01
     5124000000   -2.009443343e-01   -5.643435717e-01
     5127000000    1.402015612e-02   -6.020810604e-01
     5130000000    2.299654186e-01   -5.550309420e-01
     5133000000    4.133553207e-01   -4.357567132e-01
     5136000000    5.394371152e-01   -2.564081550e-01
     5139000000    6.016349792e-01   -4.561883211e-02
     5142000000    5.774510503e-01    1.714258641e-01
     5145000000    4.774274826e-01    3.705889285e-01
     5148000000    3.125230074e-01    5.155562162e-01
     5151000000    1.082001999e-01    5.940195918e-01
     5154000000   -1.115158051e-01    5.943633914e-01
     5157000000   -3.194879889e-01    5.121556520e-01
     5160000000   -4.809035361e-01    3.645100296e-01
     5163000000   -5.792521238e-01    1.679062992e-01
     5166000000   -6.015060544e-01   -5.453840271e-02
     5169000000   -5.420323610e-01   -2.640725970e-01
     5172000000   -4.103581905e-01   -4.437263608e-01
     5175000000   -2.235853076e-01   -5.623015761e-01
     5178000000   -5.427381024e-03   -6.058364511e-01
     5181000000    2.123219073e-01   -5.666534901e-01
     5184000000    4.013496935e-01   -4.509553909e-01
     5187000000    5.401818752e-01   -2.780476511e-01
     5190000000    6.055887938e-01   -6.342048943e-02
     5193000000    5.858615637e-01    1.547638923e-01
     5196000000    4.939178526e-01    3.541611135e-01
     5199000000    3.339784443e-01    5.119184852e-01
     5202000000    1.283422559e-01    5.945745707e-01
     5205000000   -9.479448199e-02    6.020317674e-01
     5208000000   -3.053730130e-01    5.283846259e-01
     5211000000   -4.764172435e-01    3.827616870e-01
     5214000000   -5.816884637e-01    1.858143806e-01
     5217000000   -6.103975773e-01   -3.398104385e-02
     5220000000   -5.579648614e-01   -2.520790398e-01
     5223000000   -4.300013781e-01   -4.363400638e-01
     5226000000   -2.452797741e-01   -5.619962811e-01
     5229000000   -2.706348710e-02   -6.138499379e-01
     5232000000    1.959005445e-01   -5.835576057e-01
     5235000000    3.915061355e-01   -4.753165245e-01
     5238000000    5.379137993e-01   -3.027164042e-01
     5241000000    6.108143926e-01   -8.922507614e-02
     5244000000    6.022893190e-01    1.389061660e-01
     5247000000    5.147594810e-01    3.457919061e-01
     5250000000    3.564577699e-01    5.068382621e-01
     5253000000    1.509020329e-01    6.036217213e-01
     5256000000   -7.692676783e-02    6.193096638e-01
     5259000000   -2.950396538e-01    5.512887836e-01
     5262000000   -4.774519205e-01    4.076312780e-01
     5265000000   -5.905046463e-01    2.137797922e-01
     5268000000   -6.305965185e-01   -1.121259481e-02
     5271000000   -5.849682689e-01   -2.406411767e-01
     5274000000   -4.607857764e-01   -4.342698753e-01
     5277000000   -2.759082019e-01   -5.715909004e-01
     5280000000   -5.619880557e-02   -6.309666634e-01
     5283000000    1.801793277e-01   -6.130154729e-01
     5286000000    3.853211701e-01   -5.083389282e-01
     5289000000    5.455263257e-01   -3.385858834e-01
     5292000000    6.283994317e-01   -1.230514646e-01
     5295000000    6.337220073e-01    1.119019389e-01
     5298000000    5.521202087e-01    3.317337930e-01
     5301000000    3.997234106e-01    5.053431392e-01
     5304000000    1.931338310e-01    6.173116565e-01
     5307000000   -4.129495472e-02    6.455896497e-01
     5310000000   -2.704778612e-01    5.909709930e-01
     5313000000   -4.619306922e-01    4.558352828e-01
     5316000000   -5.970315933e-01    2.609806657e-01
     5319000000   -6.513828039e-01    3.046312928e-02
     5322000000   -6.207371950e-01   -2.015403509e-01
     5325000000   -5.092616081e-01   -4.108287096e-01
     5328000000   -3.286063075e-01   -5.678005815e-01
     5331000000   -1.045955867e-01   -6.459276080e-01
     5334000000    1.310737133e-01   -6.408724189e-01
     5337000000    3.518350124e-01   -5.533694029e-01
     5340000000    5.258764029e-01   -3.932728469e-01
     5343000000    6.324494481e-01   -1.771455854e-01
     5346000000    6.526710391e-01    5.721886083e-02
     5349000000    5.907275677e-01    2.870410979e-01
     5352000000    4.500726759e-01    4.775120616e-01
     5355000000    2.518768311e-01    6.055675149e-01
     5358000000    1.495764777e-02    6.588025093e-01
     5361000000   -2.201767713e-01    6.203449368e-01
     5364000000   -4.303946793e-01    5.002587438e-01
     5367000000   -5.726295710e-01    3.220074475e-01
     5370000000   -6.539769173e-01    9.099970758e-02
     5373000000   -6.314136386e-01   -1.293740273e-01
     5376000000   -5.480441451e-01   -3.619820178e-01
     5379000000   -3.821878731e-01   -5.428408384e-01
     5382000000   -1.684433073e-01   -6.229171753e-01
     5385000000    6.276443601e-02   -6.475948691e-01
     5388000000    2.980772555e-01   -5.852763653e-01
     5391000000    4.895043075e-01   -4.349445403e-01
     5394000000    6.121844053e-01   -2.339902520e-01
     5397000000    6.357506514e-01   -1.822058111e-02
     5400000000    6.066821814e-01    2.267278284e-01
     5403000000    4.950746596e-01    4.480036497e-01
     5406000000    3.057463467e-01    5.683130026e-01
     5409000000    7.548166811e-02    6.484608650e-01
     5412000000   -1.508758962e-01    6.268471479e-01
     5415000000   -3.666867912e-01    5.297899246e-01
     5418000000   -5.264610648e-01    3.658331931e-01
     5421000000   -6.365750432e-01    1.460972130e-01
     5424000000   -6.322902441e-01   -7.002574950e-02
     5427000000   -5.685039759e-01   -3.141171038e-01
     5430000000   -4.199945927e-01   -4.850451648e-01
     5433000000   -2.265219986e-01   -5.933051109e-01
     5436000000    1.062771771e-03   -6.355965734e-01
     5439000000    2.489978969e-01   -5.987409949e-01
     5442000000    4.056754410e-01   -4.768106639e-01
     5445000000    5.864856839e-01   -2.799133956e-01
     5448000000    6.192122102e-01   -8.859864622e-02
     5451000000    6.171553135e-01    1.622822285e-01
     5454000000    5.187418461e-01    3.735396266e-01
     5457000000    3.588998020e-01    5.094201565e-01
     5460000000    1.473318934e-01    6.124492288e-01
     5463000000   -8.127050847e-02    6.237177253e-01
     5466000000   -2.973597646e-01    5.536754727e-01
     5469000000   -4.741958380e-01    4.107196927e-01
     5472000000   -5.731292367e-01    2.247138172e-01
     5475000000   -6.195818186e-01   -4.672186333e-04
     5478000000   -5.766790509e-01   -2.145373076e-01
     5481000000   -4.575065672e-01   -4.231348932e-01
     5484000000   -2.813969553e-01   -5.487703681e-01
     5487000000   -7.027083635e-02   -6.093331575e-01
     5490000000    1.396543980e-01   -5.928301215e-01
     5493000000    3.390594423e-01   -5.024356246e-01
     5496000000    5.174655318e-01   -3.343816102e-01
     5499000000    5.791121721e-01   -1.535236537e-01
     5502000000    5.922397375e-01    5.471587181e-02
     5505000000    5.301197767e-01    2.588673532e-01
     5508000000    3.843921423e-01    4.658163488e-01
     5511000000    2.244559526e-01    5.379344821e-01
     5514000000    1.009236369e-02    5.856079459e-01
     5517000000   -1.957547963e-01    5.496630669e-01
     5520000000   -3.758616745e-01    4.366343021e-01
     5523000000   -5.014320016e-01    2.774601281e-01
     5526000000   -5.750783682e-01    6.741426885e-02
     5529000000   -5.504087210e-01   -1.033402756e-01
     5532000000   -4.746848941e-01   -2.935991883e-01
     5535000000   -3.296645284e-01   -4.526433647e-01
     5538000000   -1.316008568e-01   -5.451520085e-01
     5541000000    3.096084297e-02   -5.457357168e-01
     5544000000    2.552641630e-01   -4.903136492e-01
     5547000000    3.681173921e-01   -3.928786516e-01
     5550000000    4.954252243e-01   -2.167222649e-01
     5553000000    5.430741310e-01   -3.188501578e-03
     5556000000    5.055305362e-01    1.732522845e-01
     5559000000    4.139175117e-01    3.289083540e-01
     5562000000    2.618623674e-01    4.563873410e-01
     5565000000    8.250707388e-02    5.182021260e-01
     5568000000   -8.156441897e-02    5.069208741e-01
     5571000000   -2.829131186e-01    4.301647842e-01
     5574000000   -3.989522159e-01    3.192806840e-01
     5577000000   -4.756803513e-01    1.659326553e-01
     5580000000   -4.991212785e-01   -2.246670797e-02
     5583000000   -4.557495117e-01   -1.865001917e-01
     5586000000   -3.591168523e-01   -3.334215283e-01
     5589000000   -2.098956555e-01   -4.331949353e-01
     5592000000   -5.523198843e-02   -4.709370434e-01
     5595000000    1.145787537e-01   -4.560796916e-01
     5598000000    2.780018449e-01   -3.729318082e-01
     5601000000    3.776533008e-01   -2.609613538e-01
     5604000000    4.446764290e-01   -9.761651605e-02
     5607000000    4.453455508e-01    2.689418197e-02
     5610000000    3.889251351e-01    2.140845060e-01
     5613000000    2.888477743e-01    3.309224248e-01
     5616000000    1.691836566e-01    3.976056874e-01
     5619000000    8.876979351e-03    4.253317714e-01
     5622000000   -1.210936010e-01    4.033980370e-01
     5625000000   -2.605415285e-01    3.237940967e-01
     5628000000   -3.578325212e-01    1.978581399e-01
     5631000000   -3.949050605e-01    7.694371790e-02
     5634000000   -3.832243681e-01   -8.202164620e-02
     5637000000   -3.415966630e-01   -1.911704987e-01
     5640000000   -2.285223752e-01   -3.078571856e-01
     5643000000   -1.167641804e-01   -3.599514663e-01
     5646000000    2.713546716e-02   -3.715244234e-01
     5649000000    1.381053776e-01   -3.420423567e-01
     5652000000    2.377847731e-01   -2.770986259e-01
     5655000000    3.192476928e-01   -1.494917125e-01
     5658000000    3.496615291e-01   -6.087586284e-02
     5661000000    3.218300343e-01    9.554598480e-02
     5664000000    2.892327905e-01    1.800999492e-01
     5667000000    1.879055947e-01    2.661239505e-01
     5670000000    9.032036364e-02    3.104288280e-01
     5673000000   -3.486791253e-02    3.063176274e-01
     5676000000   -1.274032593e-01    2.789361477e-01
     5679000000   -2.113593072e-01    2.190444022e-01
     5682000000   -2.710658610e-01    1.200221628e-01
     5685000000   -2.836344540e-01    1.090784464e-02
     5688000000   -2.758928239e-01   -7.925478369e-02
     5691000000   -2.228700668e-01   -1.685023159e-01
     5694000000   -1.468805224e-01   -2.318311930e-01
     5697000000   -4.807080328e-02   -2.589081824e-01
     5700000000    3.335800767e-02   -2.645526528e-01
     5703000000    1.283572316e-01   -2.145478725e-01
     5706000000    1.901791245e-01   -1.730889827e-01
     5709000000    2.274696976e-01   -8.248411864e-02
     5712000000    2.517717779e-01   -1.347360108e-02
     5715000000    2.117079794e-01    8.210261911e-02
     5718000000    1.710879803e-01    1.489622891e-01
     5721000000    9.967831522e-02    1.885171384e-01
     5724000000    3.317195550e-02    2.120302767e-01
     5727000000   -4.289265350e-02    2.067848444e-01
     5730000000   -1.094969064e-01    1.722401530e-01
     5733000000   -1.595526934e-01    1.227945313e-01
     5736000000   -1.807663888e-01    4.868135601e-02
     5739000000   -1.996150315e-01   -8.569410071e-03
     5742000000   -1.665288955e-01   -7.791786641e-02
     5745000000   -1.259206682e-01   -1.287028342e-01
     5748000000   -6.590954214e-02   -1.522368193e-01
     5751000000   -7.392373867e-03   -1.676091552e-01
     5754000000    4.972586408e-02   -1.642179340e-01
     5757000000    9.874813259e-02   -1.205660850e-01
     5760000000    1.371529996e-01   -8.212730289e-02
     5763000000    1.520085633e-01   -2.558428794e-02
     5766000000    1.489732563e-01    3.044437990e-02
     5769000000    1.148265228e-01    7.678087056e-02
     5772000000    7.835978270e-02    1.106687635e-01
     5775000000    3.645663336e-02    1.415226161e-01
     5778000000   -1.562387682e-02    1.229818314e-01
     5781000000   -6.002295762e-02    1.167680621e-01
     5784000000   -9.198178351e-02    8.053050190e-02
     5787000000   -1.226753592e-01    4.638080299e-02
     5790000000   -1.133409590e-01   -5.040066317e-04
     5793000000   -1.157907844e-01   -4.604411125e-02
     5796000000   -7.833404094e-02   -7.301606238e-02
     5799000000   -4.701092094e-02   -1.032657176e-01
     5802000000   -5.605719052e-03   -1.069507897e-01
     5805000000    3.412013501e-02   -1.019359455e-01
     5808000000    6.933175772e-02   -7.806447893e-02
     5811000000    9.119717032e-02   -4.490379989e-02
     5814000000    9.942696989e-02   -7.777590305e-03
     5817000000    9.328322858e-02    3.138544038e-02
     5820000000    6.889974326e-02    5.951221660e-02
     5823000000    4.384446144e-02    8.719081432e-02
     5826000000    6.860440597e-03    1.016172916e-01
     5829000000   -2.924014442e-02    9.212117642e-02
     5832000000   -5.792415142e-02    7.083386183e-02
     5835000000   -8.858770877e-02    4.638715461e-02
     5838000000   -9.677065164e-02    8.788092062e-03
     5841000000   -8.883990347e-02   -2.596302889e-02
     5844000000   -7.403535396e-02   -6.040379032e-02
     5847000000   -4.639543593e-02   -8.674886078e-02
     5850000000   -1.037569530e-02   -9.992075711e-02
     5853000000    2.637523971e-02   -9.391494840e-02
     5856000000    5.849916488e-02   -7.374214381e-02
     5859000000    8.906066418e-02   -5.148437247e-02
     5862000000    1.121093631e-01   -1.429754682e-02
     5865000000    1.046114564e-01    2.552014403e-02
     5868000000    8.790164441e-02    6.502647698e-02
     5871000000    5.842950568e-02    9.313271195e-02
     5874000000    2.220265195e-02    1.041988656e-01
     5877000000   -2.663510665e-02    1.241060868e-01
     5880000000   -5.997361988e-02    9.488134831e-02
     5883000000   -9.880524129e-02    6.994183362e-02
     5886000000   -1.257229745e-01    2.768196724e-02
     5889000000   -1.308115274e-01   -1.711685769e-02
     5892000000   -1.242008656e-01   -7.126098126e-02
     5895000000   -9.083779156e-02   -1.068409830e-01
     5898000000   -4.980405420e-02   -1.440502852e-01
     5901000000    8.766517858e-04   -1.469995677e-01
     5904000000    5.851894617e-02   -1.451506019e-01
     5907000000    1.099230275e-01   -1.203114688e-01
     5910000000    1.380642653e-01   -7.418575883e-02
     5913000000    1.625824273e-01   -2.038168348e-02
     5916000000    1.610472798e-01    3.482308611e-02
     5919000000    1.463898271e-01    1.033922881e-01
     5922000000    1.013623849e-01    1.452223808e-01
     5925000000    4.729362577e-02    1.662520617e-01
     5928000000   -1.757751219e-02    1.825487912e-01
     5931000000   -8.335413784e-02    1.694058180e-01
     5934000000   -1.375885010e-01    1.315409392e-01
     5937000000   -1.829690337e-01    7.570560277e-02
     5940000000   -1.995724589e-01    9.919590317e-03
     5943000000   -1.949485391e-01   -6.318309903e-02
     5946000000   -1.664593071e-01   -1.332155764e-01
     5949000000   -1.106072292e-01   -1.846126169e-01
     5952000000   -3.693152592e-02   -2.203998268e-01
     5955000000    2.647295594e-02   -2.131535709e-01
     5958000000    1.191823855e-01   -1.973251104e-01
     5961000000    1.735313684e-01   -1.489981711e-01
     5964000000    2.241924107e-01   -7.843346894e-02
     5967000000    2.379396856e-01    3.509758506e-03
     5970000000    2.248264700e-01    7.560846210e-02
     5973000000    1.840242296e-01    1.583573967e-01
     5976000000    1.162759736e-01    2.153778225e-01
     5979000000    3.549478948e-02    2.439218611e-01
     5982000000   -4.771601036e-02    2.429132611e-01
     5985000000   -1.421965659e-01    2.116807252e-01
     5988000000   -2.036947757e-01    1.551384777e-01
     5991000000   -2.496033758e-01    7.400435954e-02
     5994000000   -2.629235089e-01   -1.850811951e-02
     5997000000   -2.435404956e-01   -1.072248071e-01
     6000000000   -1.969350278e-01   -1.862097830e-01
