! NanoVNA-App
! Date: 2026-06-16 00:32:20
! Start: 2.3GHz Stop: 2.6GHz Points: 401
! S-Parameter data: F S11
# Hz S RI R 50
!     Frequency           S11_Real           S11_Imag
     2300000000   -5.005945563e-01   -2.170966417e-01
     2300750000   -4.790419638e-01   -2.573612034e-01
     2301500000   -4.510284662e-01   -3.006692827e-01
     2302250000   -4.222687781e-01   -3.365911245e-01
     2303000000   -3.875613213e-01   -3.741730452e-01
     2303750000   -3.540087640e-01   -4.039826095e-01
     2304500000   -3.159896433e-01   -4.325981736e-01
     2305250000   -2.773553729e-01   -4.566061497e-01
     2306000000   -2.315258831e-01   -4.798111022e-01
     2306750000   -1.916164160e-01   -4.955323040e-01
     2307500000   -1.431253701e-01   -5.111385584e-01
     2308250000   -9.949976206e-02   -5.195865035e-01
     2309000000   -5.363519490e-02   -5.249481201e-01
     2309750000   -8.124677464e-03   -5.267095566e-01
     2310500000    3.869939223e-02   -5.240749121e-01
              0    1.573183537e-01    1.039381847e-01
     2312000000    1.278420240e-01   -5.061411262e-01
     2312750000    1.714888960e-01   -4.915115833e-01
     2313500000    2.142924517e-01   -4.724822938e-01
     2314250000    2.517285943e-01   -4.521284699e-01
     2315000000    2.911464870e-01   -4.261089265e-01
     2315750000    3.258607686e-01   -3.977166116e-01
     2316500000    3.578401506e-01   -3.668990135e-01
     2317250000    3.881000578e-01   -3.325899839e-01
     2318000000    4.128294289e-01   -2.985160649e-01
     2318750000    4.360492826e-01   -2.600554526e-01
     2319500000    4.562612176e-01   -2.201967388e-01
     2320250000    4.715086520e-01   -1.804805696e-01
     2321000000    4.836522341e-01   -1.384340972e-01
     2321750000    4.920110703e-01   -9.471642226e-02
     2322500000    4.961707890e-01   -5.347361788e-02
     2323250000    4.966833889e-01   -1.167134196e-02
     2324000000    4.934432209e-01    2.945886180e-02
     2324750000    4.862947166e-01    7.143009454e-02
     2325500000    4.753388762e-01    1.147678792e-01
     2326250000    4.606420100e-01    1.541407257e-01
     2327000000    4.431134760e-01    1.911967546e-01
     2327750000    4.217510819e-01    2.277006656e-01
     2328500000    3.981494308e-01    2.598479092e-01
     2329250000    3.700100482e-01    2.934585512e-01
     2330000000    3.413085938e-01    3.218782842e-01
     2330750000    3.098793328e-01    3.468562067e-01
     2331500000    2.741161287e-01    3.725775480e-01
     2332250000    2.397326678e-01    3.914895654e-01
     2333000000    2.018140703e-01    4.092947543e-01
     2333750000    1.634730399e-01    4.229150414e-01
     2334500000    1.241112128e-01    4.339478314e-01
     2335250000    8.563543111e-02    4.399226308e-01
     2336000000    4.457314685e-02    4.434757233e-01
     2336750000    5.534634925e-03    4.437555969e-01
     2337500000   -3.468381613e-02    4.403902292e-01
     2338250000   -7.277084142e-02    4.331057668e-01
     2339000000   -1.116820872e-01    4.231412113e-01
     2339750000   -1.472440064e-01    4.096587598e-01
     2340500000   -1.823934317e-01    3.933762610e-01
     2341250000   -2.164327353e-01    3.734916747e-01
     2342000000   -2.459877282e-01    3.522996604e-01
     2342750000   -2.742854357e-01    3.277592063e-01
     2343500000   -3.024439514e-01    2.996425927e-01
     2344250000   -3.244535625e-01    2.715492845e-01
     2345000000   -3.467156887e-01    2.404457182e-01
     2345750000   -3.649528623e-01    2.077576816e-01
     2346500000   -3.792409599e-01    1.742603034e-01
     2347250000   -3.908505738e-01    1.400188506e-01
     2348000000   -3.999087811e-01    1.042739749e-01
     2348750000   -4.059066176e-01    6.695218384e-02
     2349500000   -4.083269536e-01    3.094600514e-02
     2350250000   -4.074123502e-01   -2.677094657e-03
     2351000000   -4.036146104e-01   -3.921017423e-02
     2351750000   -3.971327841e-01   -7.497126609e-02
     2352500000   -3.877909482e-01   -1.069228798e-01
     2353250000   -3.744312823e-01   -1.398982257e-01
     2354000000   -3.586711287e-01   -1.723325551e-01
     2354750000   -3.409865499e-01   -1.999595463e-01
     2355500000   -3.198160827e-01   -2.267324328e-01
     2356250000   -2.970670760e-01   -2.528557777e-01
     2357000000   -2.723762691e-01   -2.771470547e-01
     2357750000   -2.458840460e-01   -2.969109416e-01
     2358500000   -2.176517397e-01   -3.153967559e-01
     2359250000   -1.879681498e-01   -3.317831457e-01
     2360000000   -1.587216109e-01   -3.435084224e-01
     2360750000   -1.277887076e-01   -3.525096476e-01
     2361500000   -9.475626051e-02   -3.620480597e-01
     2362250000   -6.368754804e-02   -3.656962216e-01
     2363000000   -3.305543959e-02   -3.660408258e-01
     2363750000   -1.692714577e-04   -3.660405278e-01
     2364500000    3.053970076e-02   -3.620453477e-01
     2365250000    6.146904454e-02   -3.549719453e-01
     2366000000    8.931090683e-02   -3.452441394e-01
     2366750000    1.182486787e-01   -3.334552944e-01
     2367500000    1.444376707e-01   -3.188849688e-01
     2368250000    1.694344133e-01   -3.021037579e-01
     2369000000    1.928303987e-01   -2.831036150e-01
     2369750000    2.144363821e-01   -2.616314590e-01
     2370500000    2.341855764e-01   -2.396127731e-01
     2371250000    2.521925271e-01   -2.150345147e-01
     2372000000    2.671031058e-01   -1.899022460e-01
     2372750000    2.795236409e-01   -1.628353596e-01
     2373500000    2.902279794e-01   -1.363881528e-01
     2374250000    2.982808352e-01   -1.082382202e-01
     2375000000    3.031387627e-01   -8.100214601e-02
     2375750000    3.061698675e-01   -5.337383971e-02
     2376500000    3.067005873e-01   -2.513306402e-02
     2377250000    3.047602475e-01    2.777353628e-03
     2378000000    3.003939986e-01    3.013018891e-02
     2378750000    2.930682600e-01    5.502283573e-02
     2379500000    2.835407853e-01    8.080111444e-02
     2380250000    2.733338773e-01    1.057251990e-01
     2381000000    2.587213516e-01    1.263101399e-01
     2381750000    2.445160449e-01    1.506497264e-01
     2382500000    2.276431471e-01    1.677920371e-01
     2383250000    2.087733597e-01    1.875220090e-01
     2384000000    1.889314502e-01    2.033629268e-01
     2384750000    1.683235615e-01    2.170034647e-01
     2385500000    1.459837854e-01    2.299162149e-01
     2386250000    1.235406846e-01    2.389807701e-01
     2387000000    9.965115041e-02    2.479829192e-01
     2387750000    7.636858523e-02    2.546418011e-01
     2388500000    5.263698846e-02    2.567159832e-01
     2389250000    2.871268615e-02    2.598744333e-01
     2390000000    5.811081734e-03    2.596530020e-01
     2390750000   -1.609712839e-02    2.550368011e-01
     2391500000   -4.005764797e-02    2.522746027e-01
     2392250000   -6.178188324e-02    2.465773225e-01
     2393000000   -8.273705840e-02    2.382194102e-01
     2393750000   -9.987875074e-02    2.275263220e-01
     2394500000   -1.181586310e-01    2.161517292e-01
     2395250000   -1.357128918e-01    2.024451792e-01
     2396000000   -1.504963189e-01    1.880627126e-01
     2396750000   -1.634652913e-01    1.721027046e-01
     2397500000   -1.763724238e-01    1.551667452e-01
     2398250000   -1.850543916e-01    1.377918869e-01
     2399000000   -1.950493604e-01    1.186014116e-01
     2399750000   -2.013392746e-01    9.909299761e-02
     2400500000   -2.062829584e-01    7.990160584e-02
     2401250000   -2.087860256e-01    6.045101210e-02
     2402000000   -2.113370299e-01    4.129800573e-02
     2402750000   -2.108034939e-01    2.148019709e-02
     2403500000   -2.095619589e-01    3.080893075e-03
     2404250000   -2.052789330e-01   -1.586024649e-02
     2405000000   -1.998322606e-01   -3.294371441e-02
     2405750000   -1.932198703e-01   -4.982958362e-02
     2406500000   -1.843400449e-01   -6.557130069e-02
     2407250000   -1.747240424e-01   -8.042214811e-02
     2408000000   -1.639647186e-01   -9.400770813e-02
     2408750000   -1.518087536e-01   -1.075126380e-01
     2409500000   -1.380930096e-01   -1.165370122e-01
     2410250000   -1.244183183e-01   -1.282644421e-01
     2411000000   -1.095525324e-01   -1.363784522e-01
     2411750000   -9.422653168e-02   -1.433746219e-01
     2412500000   -7.853299379e-02   -1.480621248e-01
     2413250000   -6.270688772e-02   -1.519512236e-01
     2414000000   -4.688606039e-02   -1.552836150e-01
     2414750000   -3.127504140e-02   -1.557148844e-01
     2415500000   -1.560680196e-02   -1.576097161e-01
     2416250000   -9.395368979e-04   -1.546905786e-01
     2417000000    1.392727718e-02   -1.523610651e-01
     2417750000    2.690581977e-02   -1.483487785e-01
     2418500000    4.019332305e-02   -1.425647587e-01
     2419250000    5.166983977e-02   -1.358072311e-01
     2420000000    6.339948624e-02   -1.277483255e-01
     2420750000    7.389541715e-02   -1.183097214e-01
     2421500000    8.242494613e-02   -1.090960354e-01
     2422250000    9.152060002e-02   -9.848751128e-02
     2423000000    9.810937941e-02   -8.757431060e-02
     2423750000    1.036618650e-01   -7.567386329e-02
     2424500000    1.089258790e-01   -6.398469210e-02
     2425250000    1.126562133e-01   -5.214610696e-02
     2426000000    1.152627021e-01   -3.906876221e-02
     2426750000    1.161476299e-01   -2.779769525e-02
     2427500000    1.158634052e-01   -1.616774127e-02
     2428250000    1.155814528e-01   -4.650836810e-03
     2429000000    1.130962744e-01    6.423899438e-03
     2429750000    1.091919765e-01    1.728044450e-02
     2430500000    1.059088483e-01    2.715928666e-02
     2431250000    1.005392075e-01    3.682652861e-02
     2432000000    9.295260906e-02    4.429069534e-02
     2432750000    8.734902740e-02    5.201509967e-02
     2433500000    8.091887832e-02    6.038126349e-02
     2434250000    7.256746292e-02    6.502245367e-02
     2435000000    6.511946023e-02    7.028569281e-02
     2435750000    5.609186739e-02    7.455891371e-02
     2436500000    4.723648727e-02    7.848572731e-02
     2437250000    3.840051219e-02    7.987829298e-02
     2438000000    2.993771993e-02    8.063367009e-02
     2438750000    2.150515467e-02    8.042497188e-02
     2439500000    1.245877240e-02    8.085641265e-02
     2440250000    4.688985180e-03    7.875234634e-02
     2441000000   -2.839575056e-03    7.585921139e-02
     2441750000   -1.050920319e-02    7.411900163e-02
     2442500000   -1.661113277e-02    6.845186651e-02
     2443250000   -2.197880112e-02    6.385145336e-02
     2444000000   -2.819609456e-02    5.975973234e-02
     2444750000   -3.298326582e-02    5.505746976e-02
     2445500000   -3.575046360e-02    4.741813242e-02
     2446250000   -3.920033947e-02    4.146071151e-02
     2447000000   -4.165980965e-02    3.578084707e-02
     2447750000   -4.253317788e-02    2.819450758e-02
     2448500000   -4.270537198e-02    2.128518187e-02
     2449250000   -4.255228117e-02    1.503929589e-02
     2450000000   -4.147920758e-02    8.463217877e-03
     2450750000   -3.972832859e-02    2.013697522e-03
     2451500000   -3.721624985e-02   -3.183650784e-03
     2452250000   -3.405716643e-02   -9.178428911e-03
     2453000000   -2.998605371e-02   -1.416619401e-02
     2453750000   -2.545166202e-02   -1.836705580e-02
     2454500000   -2.032870986e-02   -2.172698081e-02
     2455250000   -1.510171313e-02   -2.514736913e-02
     2456000000   -9.344730526e-03   -2.708513290e-02
     2456750000   -3.491581185e-03   -2.887274325e-02
     2457500000    1.418585074e-03   -3.032124043e-02
     2458250000    9.351158515e-03   -3.003142029e-02
     2459000000    1.456863713e-02   -2.939794585e-02
     2459750000    2.017848566e-02   -2.870930545e-02
     2460500000    2.532769367e-02   -2.638093941e-02
     2461250000    3.166491911e-02   -2.276651002e-02
     2462000000    3.619580343e-02   -1.948760636e-02
     2462750000    4.084474593e-02   -1.508034393e-02
     2463500000    4.458992928e-02   -1.024343073e-02
     2464250000    4.743326083e-02   -5.939215887e-03
     2465000000    5.015994236e-02    1.456217491e-03
     2465750000    5.155012012e-02    7.921830751e-03
     2466500000    5.218278617e-02    1.345974859e-02
     2467250000    5.268505961e-02    2.271597274e-02
     2468000000    5.171725899e-02    2.759814262e-02
     2468750000    5.061054230e-02    3.473581746e-02
     2469500000    4.758936912e-02    4.311287776e-02
     2470250000    4.479283094e-02    5.006520078e-02
     2471000000    4.047456011e-02    5.687119439e-02
     2471750000    3.600798920e-02    6.238338351e-02
     2472500000    3.135114908e-02    6.791546196e-02
     2473250000    2.480118163e-02    7.370921969e-02
     2474000000    1.689061150e-02    7.863843441e-02
     2474750000    9.736996144e-03    8.156586438e-02
     2475500000    1.879362739e-03    8.476117253e-02
     2476250000   -7.508527022e-03    8.716627210e-02
     2477000000   -1.626546495e-02    8.781321347e-02
     2477750000   -2.543769777e-02    8.790206164e-02
     2478500000   -3.503921628e-02    8.699692041e-02
     2479250000   -4.460699111e-02    8.505368978e-02
     2480000000   -5.479643494e-02    8.229945600e-02
     2480750000   -6.512343138e-02    7.816092670e-02
     2481500000   -7.392443717e-02    7.296631485e-02
     2482250000   -8.351936936e-02    6.688340008e-02
     2483000000   -9.278198332e-02    5.996916071e-02
     2483750000   -1.010469943e-01    5.142394081e-02
     2484500000   -1.083884463e-01    4.221524298e-02
     2485250000   -1.149843484e-01    3.273000941e-02
     2486000000   -1.209281161e-01    2.174744010e-02
     2486750000   -1.260859221e-01    9.987458587e-03
     2487500000   -1.304281950e-01   -1.712042140e-03
     2488250000   -1.329009980e-01   -1.484124735e-02
     2489000000   -1.348311752e-01   -2.720168605e-02
     2489750000   -1.355815977e-01   -4.111620411e-02
     2490500000   -1.348200887e-01   -5.466943607e-02
     2491250000   -1.323575526e-01   -6.734806299e-02
     2492000000   -1.295828521e-01   -8.175370097e-02
     2492750000   -1.246056557e-01   -9.488130361e-02
     2493500000   -1.179262251e-01   -1.073354185e-01
     2494250000   -1.111685261e-01   -1.202485338e-01
     2495000000   -1.021555290e-01   -1.320887059e-01
     2495750000   -9.198481590e-02   -1.433496028e-01
     2496500000   -8.135785908e-02   -1.540036500e-01
     2497250000   -6.866808981e-02   -1.629306823e-01
     2498000000   -5.609474331e-02   -1.716803908e-01
     2498750000   -4.142335802e-02   -1.796721965e-01
     2499500000   -2.654911950e-02   -1.849373430e-01
     2500250000   -1.134895068e-02   -1.900148392e-01
     2501000000    4.953619558e-03   -1.936797798e-01
     2501750000    2.144585177e-02   -1.949130893e-01
     2502500000    3.845987096e-02   -1.957391948e-01
     2503250000    5.572444946e-02   -1.940753609e-01
     2504000000    7.255783677e-02   -1.904687583e-01
     2504750000    8.990918845e-02   -1.873612851e-01
     2505500000    1.061132550e-01   -1.812317818e-01
     2506250000    1.215860024e-01   -1.732647270e-01
     2507000000    1.376228780e-01   -1.630706489e-01
     2507750000    1.520007998e-01   -1.526643485e-01
     2508500000    1.657995284e-01   -1.406280845e-01
     2509250000    1.784121543e-01   -1.262851357e-01
     2510000000    1.895054579e-01   -1.117809936e-01
     2510750000    2.001849562e-01   -9.481998533e-02
     2511500000    2.093981057e-01   -7.763981819e-02
     2512250000    2.166544795e-01   -5.919881538e-02
     2513000000    2.224253714e-01   -4.028357565e-02
     2513750000    2.263808846e-01   -2.049429156e-02
     2514500000    2.286357433e-01   -3.777333477e-04
     2515250000    2.287767678e-01    2.059553377e-02
     2516000000    2.278102636e-01    4.125202447e-02
     2516750000    2.242778987e-01    6.203555316e-02
     2517500000    2.191692293e-01    8.292981982e-02
     2518250000    2.122873515e-01    1.029306799e-01
     2519000000    2.033361644e-01    1.221876442e-01
     2519750000    1.920838952e-01    1.413700432e-01
     2520500000    1.794899106e-01    1.591458023e-01
     2521250000    1.661953330e-01    1.760306358e-01
     2522000000    1.500417739e-01    1.920491457e-01
     2522750000    1.322855353e-01    2.062071711e-01
     2523500000    1.135811061e-01    2.192778885e-01
     2524250000    9.370757639e-02    2.304331511e-01
     2525000000    7.338616997e-02    2.401744276e-01
     2525750000    5.108227208e-02    2.478682995e-01
     2526500000    2.905548178e-02    2.537414730e-01
     2527250000    5.596076138e-03    2.566946745e-01
     2528000000   -1.786506549e-02    2.579579949e-01
     2528750000   -4.086496308e-02    2.577688992e-01
     2529500000   -6.547309458e-02    2.545362115e-01
     2530250000   -8.833882213e-02    2.496989369e-01
     2531000000   -1.119451970e-01    2.428836823e-01
     2531750000   -1.341595650e-01    2.333449721e-01
     2532500000   -1.562703550e-01    2.225158811e-01
     2533250000   -1.767595410e-01    2.090669125e-01
     2534000000   -1.962743253e-01    1.934404224e-01
     2534750000   -2.144926190e-01    1.772093326e-01
     2535500000   -2.311419100e-01    1.582829505e-01
     2536250000   -2.455125302e-01    1.378619373e-01
     2537000000   -2.589224279e-01    1.164171845e-01
     2537750000   -2.693622410e-01    9.389626235e-02
     2538500000   -2.785880566e-01    7.024870813e-02
     2539250000   -2.850129306e-01    4.586630687e-02
     2540000000   -2.896094620e-01    2.001593448e-02
     2540750000   -2.913101912e-01   -6.239327602e-03
     2541500000   -2.914542258e-01   -3.243982419e-02
     2542250000   -2.883317173e-01   -5.887290835e-02
     2543000000   -2.833669484e-01   -8.488437533e-02
     2543750000   -2.756418586e-01   -1.104941517e-01
     2544500000   -2.658792436e-01   -1.354928911e-01
     2545250000   -2.536128163e-01   -1.593407840e-01
     2546000000   -2.391546667e-01   -1.824014336e-01
     2546750000   -2.226926237e-01   -2.037921399e-01
     2547500000   -2.040117532e-01   -2.245535851e-01
     2548250000   -1.831376702e-01   -2.430599481e-01
     2549000000   -1.614524275e-01   -2.597286403e-01
     2549750000   -1.369434446e-01   -2.742832303e-01
     2550500000   -1.115418077e-01   -2.874726355e-01
     2551250000   -8.498895168e-02   -2.975044549e-01
     2552000000   -5.974612013e-02   -3.051894605e-01
     2552750000   -3.085334226e-02   -3.102121353e-01
     2553500000   -2.033028286e-03   -3.132974505e-01
     2554250000    2.697469667e-02   -3.132357299e-01
     2555000000    5.558961630e-02   -3.108888268e-01
     2555750000    8.457482606e-02   -3.054211438e-01
     2556500000    1.121205911e-01   -2.975565195e-01
     2557250000    1.391074508e-01   -2.872182131e-01
     2558000000    1.665242016e-01   -2.737556994e-01
     2558750000    1.913860887e-01   -2.584412396e-01
     2559500000    2.158020735e-01   -2.401482910e-01
     2560250000    2.391251177e-01   -2.195398211e-01
     2561000000    2.604824901e-01   -1.967587322e-01
     2561750000    2.784657776e-01   -1.732278168e-01
     2562500000    2.963114381e-01   -1.463042796e-01
     2563250000    3.097098768e-01   -1.198486462e-01
     2564000000    3.220935166e-01   -9.151688218e-02
     2564750000    3.309795856e-01   -6.180178002e-02
     2565500000    3.382313550e-01   -3.108176962e-02
     2566250000    3.412090242e-01   -4.398460442e-04
     2567000000    3.423520923e-01    3.090258688e-02
     2567750000    3.401916623e-01    6.296496838e-02
     2568500000    3.353939354e-01    9.334400296e-02
     2569250000    3.272379041e-01    1.243960485e-01
     2570000000    3.161160946e-01    1.553767473e-01
     2570750000    3.030719757e-01    1.835067272e-01
     2571500000    2.867556810e-01    2.110771835e-01
     2572250000    2.678660750e-01    2.373353243e-01
     2573000000    2.462924868e-01    2.627571225e-01
     2573750000    2.224112451e-01    2.854405344e-01
     2574500000    1.970169097e-01    3.057654500e-01
     2575250000    1.689115614e-01    3.235369325e-01
     2576000000    1.392008215e-01    3.401165605e-01
     2576750000    1.094118357e-01    3.527790308e-01
     2577500000    7.771774381e-02    3.631338179e-01
     2578250000    4.384405538e-02    3.709480166e-01
     2579000000    1.094903052e-02    3.744961917e-01
     2579750000   -2.320002951e-02    3.761979342e-01
     2580500000   -5.714085326e-02    3.736683428e-01
     2581250000   -9.159597754e-02    3.685066700e-01
     2582000000   -1.255435348e-01    3.600162864e-01
     2582750000   -1.584154814e-01    3.488049805e-01
     2583500000   -1.907643080e-01    3.347583413e-01
     2584250000   -2.219347358e-01    3.172640204e-01
     2585000000   -2.496872097e-01    2.972207963e-01
     2585750000   -2.777277827e-01    2.740144432e-01
     2586500000   -3.018951118e-01    2.490072995e-01
     2587250000   -3.262141049e-01    2.199268043e-01
     2588000000   -3.456914425e-01    1.917352527e-01
     2588750000   -3.631179333e-01    1.591322720e-01
     2589500000   -3.778885305e-01    1.257212758e-01
     2590250000   -3.895185888e-01    9.072481841e-02
     2591000000   -3.972045779e-01    5.527075380e-02
     2591750000   -4.028677046e-01    1.996943168e-02
     2592500000   -4.050826728e-01   -2.001914382e-02
     2593250000   -4.031687379e-01   -5.441760272e-02
     2594000000   -3.975429535e-01   -9.242178500e-02
     2594750000   -3.894164860e-01   -1.310697049e-01
     2595500000   -3.771035671e-01   -1.680616438e-01
     2596250000   -3.627928793e-01   -1.997119188e-01
     2597000000   -3.441987932e-01   -2.359562367e-01
     2597750000   -3.231958449e-01   -2.674589455e-01
     2598500000   -2.990476787e-01   -2.982531786e-01
     2599250000   -2.725054026e-01   -3.257313669e-01
     2600000000   -2.434108555e-01   -3.514148295e-01
