! NanoVNA-App
! Date: 2026-05-22 16:40:05
! Start: 2.3GHz Stop: 2.6GHz Points: 401
! S-Parameter data: F S11
# Hz S RI R 50
!     Frequency           S11_Real           S11_Imag
     2300000000    2.877713442e-01   -2.454761267e-01
     2300750000    3.049693704e-01   -2.189065516e-01
     2301500000    3.207779229e-01   -1.902895719e-01
     2302250000    3.330348730e-01   -1.600907892e-01
     2303000000    3.432350159e-01   -1.292084455e-01
     2303750000    3.500138819e-01   -1.000798047e-01
     2304500000    3.550746441e-01   -6.935885549e-02
     2305250000    3.566265404e-01   -3.770323843e-02
     2306000000    3.563347757e-01   -5.545330700e-03
     2306750000    3.530713618e-01    2.451319993e-02
     2307500000    3.477995992e-01    5.419025198e-02
     2308250000    3.381382823e-01    8.521096408e-02
     2309000000    3.289705217e-01    1.123091653e-01
     2309750000    3.160903156e-01    1.390414536e-01
     2310500000    3.009658158e-01    1.646538228e-01
     2311250000    2.843655050e-01    1.892816275e-01
     2312000000    2.659496367e-01    2.111191601e-01
     2312750000    2.452306747e-01    2.316060513e-01
     2313500000    2.241323739e-01    2.501333952e-01
     2314250000    2.010462731e-01    2.661037147e-01
     2315000000    1.758785695e-01    2.809570134e-01
     2315750000    1.502157450e-01    2.933060229e-01
     2316500000    1.255152971e-01    3.027043641e-01
     2317250000    9.646375477e-02    3.106000423e-01
     2318000000    7.064047456e-02    3.160506487e-01
     2318750000    4.339896888e-02    3.186679184e-01
     2319500000    1.436568704e-02    3.187269568e-01
     2320250000   -9.770642966e-03    3.182572126e-01
     2321000000   -3.845652938e-02    3.139611781e-01
     2321750000   -6.299744546e-02    3.088527024e-01
     2322500000   -9.057369828e-02    2.984006405e-01
     2323250000   -1.104746833e-01    2.911562622e-01
     2324000000   -1.364715695e-01    2.764281631e-01
     2324750000   -1.559884101e-01    2.642573714e-01
     2325500000   -1.757758856e-01    2.506439388e-01
     2326250000   -1.961744875e-01    2.297649682e-01
     2327000000   -2.120697647e-01    2.128152698e-01
     2327750000   -2.265738100e-01    1.933749020e-01
     2328500000   -2.395167500e-01    1.718148887e-01
     2329250000   -2.511794567e-01    1.515110582e-01
     2330000000   -2.604332566e-01    1.301897019e-01
     2330750000   -2.676671743e-01    1.059293821e-01
     2331500000   -2.729631662e-01    8.256003261e-02
     2332250000   -2.760159969e-01    5.957169086e-02
     2333000000   -2.774145603e-01    3.625099361e-02
     2333750000   -2.761688828e-01    1.230028365e-02
     2334500000   -2.735230923e-01   -1.084528212e-02
     2335250000   -2.688165605e-01   -3.382194415e-02
     2336000000   -2.629349828e-01   -5.507293716e-02
     2336750000   -2.548676729e-01   -7.617105544e-02
     2337500000   -2.453976721e-01   -9.635963291e-02
     2338250000   -2.332384586e-01   -1.164657325e-01
     2339000000   -2.214937359e-01   -1.339994371e-01
     2339750000   -2.072545588e-01   -1.504885852e-01
     2340500000   -1.918128878e-01   -1.662709862e-01
     2341250000   -1.739819348e-01   -1.799610704e-01
     2342000000   -1.577874124e-01   -1.920296252e-01
     2342750000   -1.388814449e-01   -2.026929110e-01
     2343500000   -1.204272136e-01   -2.123753279e-01
     2344250000   -1.016910449e-01   -2.198938727e-01
     2345000000   -8.092174679e-02   -2.254673243e-01
     2345750000   -6.244086102e-02   -2.301904112e-01
     2346500000   -4.035180807e-02   -2.316743433e-01
     2347250000   -2.154090255e-02   -2.333844900e-01
     2348000000   -1.439939835e-03   -2.324030399e-01
     2348750000    1.951226033e-02   -2.290719748e-01
     2349500000    3.657631576e-02   -2.272861898e-01
     2350250000    5.667086318e-02   -2.199213803e-01
     2351000000    7.355336100e-02   -2.135264426e-01
     2351750000    8.960888535e-02   -2.062291801e-01
     2352500000    1.055160910e-01   -1.946323961e-01
     2353250000    1.208354086e-01   -1.846034825e-01
     2354000000    1.350046694e-01   -1.727710366e-01
     2354750000    1.474054009e-01   -1.594387740e-01
     2355500000    1.594884992e-01   -1.452960521e-01
     2356250000    1.695041209e-01   -1.305210888e-01
     2357000000    1.781128645e-01   -1.159671247e-01
     2357750000    1.861284971e-01   -9.954920411e-02
     2358500000    1.924835742e-01   -8.295842260e-02
     2359250000    1.971790940e-01   -6.669604778e-02
     2360000000    2.005770952e-01   -4.965743050e-02
     2360750000    2.030438036e-01   -3.281139582e-02
     2361500000    2.042939216e-01   -1.733030751e-02
     2362250000    2.043431550e-01   -1.100065070e-03
     2363000000    2.024893165e-01    1.529290620e-02
     2363750000    1.993550658e-01    3.032131679e-02
     2364500000    1.952600181e-01    4.536259174e-02
     2365250000    1.889295280e-01    5.990589783e-02
     2366000000    1.822683215e-01    7.339891046e-02
     2366750000    1.745246202e-01    8.640967309e-02
     2367500000    1.653167903e-01    9.863258153e-02
     2368250000    1.557333469e-01    1.092635095e-01
     2369000000    1.448898911e-01    1.196900681e-01
     2369750000    1.329139024e-01    1.293403357e-01
     2370500000    1.213206351e-01    1.377250701e-01
     2371250000    1.077210382e-01    1.448727101e-01
     2372000000    9.526333958e-02    1.512711048e-01
     2372750000    8.106781542e-02    1.571223885e-01
     2373500000    6.738844514e-02    1.608991921e-01
     2374250000    5.332122371e-02    1.634373814e-01
     2375000000    3.955112770e-02    1.663024276e-01
     2375750000    2.605770715e-02    1.666865349e-01
     2376500000    1.243686117e-02    1.666561514e-01
     2377250000   -1.496266806e-03    1.654123515e-01
     2378000000   -1.417122595e-02    1.629574746e-01
     2378750000   -2.722010948e-02    1.598736048e-01
     2379500000   -3.946603835e-02    1.548275203e-01
     2380250000   -5.120963603e-02    1.493695825e-01
     2381000000   -6.314942986e-02    1.439231783e-01
     2381750000   -7.292058319e-02    1.358394623e-01
     2382500000   -8.290968090e-02    1.287522018e-01
     2383250000   -9.356142581e-02    1.202736869e-01
     2384000000   -1.010747328e-01    1.104419231e-01
     2384750000   -1.089376956e-01    1.010944694e-01
     2385500000   -1.163554043e-01    9.127680957e-02
     2386250000   -1.223350093e-01    8.075253665e-02
     2387000000   -1.277275383e-01    6.976331770e-02
     2387750000   -1.316264421e-01    5.887413025e-02
     2388500000   -1.355909705e-01    4.734790325e-02
     2389250000   -1.378249377e-01    3.605780378e-02
     2390000000   -1.394664794e-01    2.494627237e-02
     2390750000   -1.403690279e-01    1.283909753e-02
     2391500000   -1.396735162e-01    2.022202360e-03
     2392250000   -1.394574344e-01   -8.983811364e-03
     2393000000   -1.368686408e-01   -1.981217228e-02
     2393750000   -1.350664347e-01   -3.104271181e-02
     2394500000   -1.314412355e-01   -4.101882130e-02
     2395250000   -1.272984594e-01   -5.119701847e-02
     2396000000   -1.229138076e-01   -6.040350720e-02
     2396750000   -1.170301437e-01   -6.967526674e-02
     2397500000   -1.112317815e-01   -7.771784067e-02
     2398250000   -1.041672006e-01   -8.538690209e-02
     2399000000   -9.688949585e-02   -9.263616055e-02
     2399750000   -8.925335109e-02   -9.971699864e-02
     2400500000   -8.086135238e-02   -1.055575907e-01
     2401250000   -7.182503492e-02   -1.106768399e-01
     2402000000   -6.330083311e-02   -1.151921153e-01
     2402750000   -5.426384136e-02   -1.194164157e-01
     2403500000   -4.524084926e-02   -1.222544983e-01
     2404250000   -3.510513157e-02   -1.247113049e-01
     2405000000   -2.549548447e-02   -1.264781654e-01
     2405750000   -1.609426551e-02   -1.276221573e-01
     2406500000   -6.066192873e-03   -1.277486086e-01
     2407250000    2.872736659e-03   -1.275085062e-01
     2408000000    1.243515499e-02   -1.261068285e-01
     2408750000    2.192855999e-02   -1.241873428e-01
     2409500000    3.092395142e-02   -1.219051555e-01
     2410250000    4.021111131e-02   -1.184573248e-01
     2411000000    4.842733592e-02   -1.145474985e-01
     2411750000    5.723920092e-02   -1.097563952e-01
     2412500000    6.493823230e-02   -1.052529216e-01
     2413250000    7.233123481e-02   -9.922025353e-02
     2414000000    7.938624173e-02   -9.324391186e-02
     2414750000    8.586825430e-02   -8.647029847e-02
     2415500000    9.204230458e-02   -7.925417274e-02
     2416250000    9.770827740e-02   -7.216664404e-02
     2417000000    1.025547236e-01   -6.407049298e-02
     2417750000    1.071534380e-01   -5.556146055e-02
     2418500000    1.110440195e-01   -4.764183611e-02
     2419250000    1.144129708e-01   -3.861904144e-02
     2420000000    1.166657731e-01   -2.975516021e-02
     2420750000    1.189458072e-01   -2.066202834e-02
     2421500000    1.194874942e-01   -1.161201112e-02
     2422250000    1.201466322e-01   -1.992898528e-03
     2423000000    1.197620779e-01    7.057794370e-03
     2423750000    1.195193678e-01    1.568669267e-02
     2424500000    1.173499599e-01    2.516161092e-02
     2425250000    1.155258268e-01    3.393090889e-02
     2426000000    1.125026494e-01    4.280740768e-02
     2426750000    1.087370515e-01    5.123603716e-02
     2427500000    1.044018865e-01    5.988445505e-02
     2428250000    9.998098761e-02    6.804016978e-02
     2429000000    9.372826666e-02    7.562094927e-02
     2429750000    8.827111870e-02    8.396828920e-02
     2430500000    8.100832999e-02    8.981716633e-02
     2431250000    7.474970073e-02    9.683383256e-02
     2432000000    6.694237143e-02    1.030897722e-01
     2432750000    5.902135372e-02    1.085327268e-01
     2433500000    5.002295598e-02    1.131176502e-01
     2434250000    4.239083454e-02    1.179971099e-01
     2435000000    3.279668838e-02    1.210933253e-01
     2435750000    2.381568588e-02    1.247800589e-01
     2436500000    1.405389328e-02    1.257786751e-01
     2437250000    4.049557727e-03    1.277310997e-01
     2438000000   -5.176420324e-03    1.290828884e-01
     2438750000   -1.478797477e-02    1.290009171e-01
     2439500000   -2.495652251e-02    1.278820783e-01
     2440250000   -3.440061212e-02    1.261113286e-01
     2441000000   -4.415231571e-02    1.239111125e-01
     2441750000   -5.346797407e-02    1.205413640e-01
     2442500000   -6.252233684e-02    1.168561205e-01
     2443250000   -7.146751136e-02    1.118873060e-01
     2444000000   -8.060108870e-02    1.066123992e-01
     2444750000   -8.803238720e-02    9.987753630e-02
     2445500000   -9.628631920e-02    9.297946841e-02
     2446250000   -1.035581082e-01    8.561750501e-02
     2447000000   -1.106745899e-01    7.743614167e-02
     2447750000   -1.165928841e-01    6.832388043e-02
     2448500000   -1.220989451e-01    5.949654058e-02
     2449250000   -1.273134649e-01    4.948823899e-02
     2450000000   -1.313925982e-01    3.904609010e-02
     2450750000   -1.349636018e-01    2.878184989e-02
     2451500000   -1.371336132e-01    1.779663377e-02
     2452250000   -1.392733157e-01    6.473579444e-03
     2453000000   -1.400606036e-01   -4.221356474e-03
     2453750000   -1.399657726e-01   -1.613135636e-02
     2454500000   -1.384940147e-01   -2.707077190e-02
     2455250000   -1.374978423e-01   -3.852387518e-02
     2456000000   -1.347577274e-01   -5.023081228e-02
     2456750000   -1.306181401e-01   -6.087391078e-02
     2457500000   -1.271171570e-01   -7.201698422e-02
     2458250000   -1.214980632e-01   -8.257789910e-02
     2459000000   -1.156535894e-01   -9.295839816e-02
     2459750000   -1.084894910e-01   -1.025349200e-01
     2460500000   -1.007422507e-01   -1.106983721e-01
     2461250000   -9.203757346e-02   -1.202427000e-01
     2462000000   -8.229673654e-02   -1.281822026e-01
     2462750000   -7.275689393e-02   -1.335810423e-01
     2463500000   -6.152934209e-02   -1.409547329e-01
     2464250000   -5.068851262e-02   -1.460155100e-01
     2465000000   -3.934101388e-02   -1.490335912e-01
     2465750000   -2.629956044e-02   -1.540024579e-01
     2466500000   -1.267304085e-02   -1.583978236e-01
     2467250000   -2.095557516e-03   -1.566338688e-01
     2468000000    1.098196954e-02   -1.588280797e-01
     2468750000    2.542037331e-02   -1.595594585e-01
     2469500000    3.926125914e-02   -1.584854424e-01
     2470250000    5.104773492e-02   -1.553402394e-01
     2471000000    6.314188242e-02   -1.516364515e-01
     2471750000    7.745931298e-02   -1.485370398e-01
     2472500000    8.981722593e-02   -1.427609026e-01
     2473250000    1.002291963e-01   -1.360704601e-01
     2474000000    1.127838716e-01   -1.293187886e-01
     2474750000    1.225608736e-01   -1.210286319e-01
     2475500000    1.332326531e-01   -1.117771193e-01
     2476250000    1.401513070e-01   -1.019250080e-01
     2477000000    1.499124020e-01   -9.125562757e-02
     2477750000    1.566872746e-01   -7.935857773e-02
     2478500000    1.635634303e-01   -6.777257472e-02
     2479250000    1.693100482e-01   -5.425326899e-02
     2480000000    1.725654602e-01   -4.259297997e-02
     2480750000    1.758394986e-01   -2.872934379e-02
     2481500000    1.786033511e-01   -1.431800239e-02
     2482250000    1.789816469e-01   -4.314024118e-04
     2483000000    1.788983047e-01    1.341609377e-02
     2483750000    1.770751178e-01    2.715627290e-02
     2484500000    1.739300191e-01    4.192594066e-02
     2485250000    1.701593995e-01    5.517708883e-02
     2486000000    1.652614772e-01    6.852943450e-02
     2486750000    1.589002609e-01    8.137968928e-02
     2487500000    1.504991502e-01    9.416914731e-02
     2488250000    1.426829696e-01    1.053655595e-01
     2489000000    1.328497231e-01    1.164493188e-01
     2489750000    1.224080846e-01    1.259516180e-01
     2490500000    1.104881316e-01    1.372892708e-01
     2491250000    9.811043739e-02    1.459214985e-01
     2492000000    8.551496267e-02    1.522222012e-01
     2492750000    7.255009562e-02    1.578113586e-01
     2493500000    5.672122166e-02    1.646596938e-01
     2494250000    4.266396165e-02    1.679441035e-01
     2495000000    2.732839063e-02    1.701882631e-01
     2495750000    1.100679301e-02    1.724745482e-01
     2496500000   -1.527178101e-03    1.702785194e-01
     2497250000   -1.917417720e-02    1.699638069e-01
     2498000000   -3.639151528e-02    1.689383388e-01
     2498750000   -4.899467528e-02    1.634767950e-01
     2499500000   -6.714828312e-02    1.593224555e-01
     2500250000   -8.104255050e-02    1.529701799e-01
     2501000000   -9.334095567e-02    1.454084218e-01
     2501750000   -1.089431942e-01    1.362673789e-01
     2502500000   -1.238806248e-01    1.258371621e-01
     2503250000   -1.334484965e-01    1.155998930e-01
     2504000000   -1.446657032e-01    1.036338061e-01
     2504750000   -1.563387662e-01    8.991175890e-02
     2505500000   -1.635261625e-01    7.705458999e-02
     2506250000   -1.743073612e-01    5.927623436e-02
     2507000000   -1.773053408e-01    4.666588083e-02
     2507750000   -1.825914383e-01    3.189347684e-02
     2508500000   -1.866342574e-01    1.540671941e-02
     2509250000   -1.889434755e-01   -1.880970667e-03
     2510000000   -1.891985238e-01   -1.674971543e-02
     2510750000   -1.883925647e-01   -3.405749053e-02
     2511500000   -1.867624074e-01   -5.110719055e-02
     2512250000   -1.827144772e-01   -6.739827245e-02
     2513000000   -1.767631471e-01   -8.364700526e-02
     2513750000   -1.706705242e-01   -9.917622060e-02
     2514500000   -1.626158953e-01   -1.130232066e-01
     2515250000   -1.525551975e-01   -1.268168241e-01
     2516000000   -1.415292919e-01   -1.407415569e-01
     2516750000   -1.296889782e-01   -1.534251422e-01
     2517500000   -1.153970733e-01   -1.654899865e-01
     2518250000   -1.013056040e-01   -1.750424802e-01
     2519000000   -8.580338955e-02   -1.849926710e-01
     2519750000   -7.037433982e-02   -1.916293651e-01
     2520500000   -5.301082507e-02   -1.988279969e-01
     2521250000   -3.641091287e-02   -2.030361742e-01
     2522000000   -1.763691008e-02   -2.072359920e-01
     2522750000    7.922927034e-04   -2.087234557e-01
     2523500000    1.856803149e-02   -2.102759778e-01
     2524250000    3.874726221e-02   -2.085883170e-01
     2525000000    5.577458814e-02   -2.054309696e-01
     2525750000    7.449761778e-02   -2.006753832e-01
     2526500000    9.236320853e-02   -1.944929063e-01
     2527250000    1.100965738e-01   -1.870652735e-01
     2528000000    1.254308075e-01   -1.782063842e-01
     2528750000    1.427784860e-01   -1.672630906e-01
     2529500000    1.560598463e-01   -1.565185189e-01
     2530250000    1.716279387e-01   -1.411542147e-01
     2531000000    1.850153804e-01   -1.262973845e-01
     2531750000    1.962539107e-01   -1.110873967e-01
     2532500000    2.059157193e-01   -9.530265629e-02
     2533250000    2.158052474e-01   -7.626402378e-02
     2534000000    2.221262306e-01   -5.838361755e-02
     2534750000    2.274787128e-01   -4.016834125e-02
     2535500000    2.323186249e-01   -2.028513514e-02
     2536250000    2.347186804e-01    5.708822282e-04
     2537000000    2.353685051e-01    2.058852836e-02
     2537750000    2.336520553e-01    4.038749635e-02
     2538500000    2.317535281e-01    5.779554695e-02
     2539250000    2.272212803e-01    8.161055297e-02
     2540000000    2.206774354e-01    1.001293138e-01
     2540750000    2.118443251e-01    1.185441911e-01
     2541500000    2.021752894e-01    1.369422376e-01
     2542250000    1.905249804e-01    1.541095972e-01
     2543000000    1.774553955e-01    1.709838361e-01
     2543750000    1.633518785e-01    1.864167601e-01
     2544500000    1.472534686e-01    1.995526105e-01
     2545250000    1.297382265e-01    2.135650367e-01
     2546000000    1.110518277e-01    2.246834338e-01
     2546750000    9.311171621e-02    2.340005040e-01
     2547500000    7.038864493e-02    2.424933761e-01
     2548250000    4.812495038e-02    2.507010996e-01
     2549000000    2.911326662e-02    2.536339462e-01
     2549750000    6.832371466e-03    2.561066449e-01
     2550500000   -1.459320635e-02    2.577942908e-01
     2551250000   -3.734060004e-02    2.559967637e-01
     2552000000   -6.051318720e-02    2.523615360e-01
     2552750000   -7.711148262e-02    2.489920259e-01
     2553500000   -1.027449220e-01    2.420850992e-01
     2554250000   -1.248612478e-01    2.329627723e-01
     2555000000   -1.423304826e-01    2.231857777e-01
     2555750000   -1.623160541e-01    2.108444124e-01
     2556500000   -1.801144183e-01    1.959247738e-01
     2557250000   -1.990027875e-01    1.791113913e-01
     2558000000   -2.144340575e-01    1.628771275e-01
     2558750000   -2.249059379e-01    1.480067968e-01
     2559500000   -2.395507544e-01    1.265797466e-01
     2560250000   -2.512842417e-01    1.034443229e-01
     2561000000   -2.597252131e-01    8.472477645e-02
     2561750000   -2.662759125e-01    6.281620264e-02
     2562500000   -2.720043063e-01    4.072160274e-02
     2563250000   -2.762990296e-01    1.367162913e-02
     2564000000   -2.769677043e-01   -7.747233380e-03
     2564750000   -2.755837739e-01   -3.054676391e-02
     2565500000   -2.723910809e-01   -5.617360771e-02
     2566250000   -2.682523131e-01   -7.908032835e-02
     2567000000   -2.602052987e-01   -1.024537161e-01
     2567750000   -2.536093295e-01   -1.214687824e-01
     2568500000   -2.400791943e-01   -1.458810270e-01
     2569250000   -2.280398756e-01   -1.649502665e-01
     2570000000   -2.136168182e-01   -1.849977523e-01
     2570750000   -1.972281486e-01   -2.032369375e-01
     2571500000   -1.805794835e-01   -2.195316851e-01
     2572250000   -1.598826647e-01   -2.352895439e-01
     2573000000   -1.400591135e-01   -2.491301745e-01
     2573750000   -1.175507978e-01   -2.609796524e-01
     2574500000   -9.610471874e-02   -2.702712715e-01
     2575250000   -7.304292172e-02   -2.791541815e-01
     2576000000   -4.837621748e-02   -2.850842178e-01
     2576750000   -2.543180063e-02   -2.888652384e-01
     2577500000    6.731273024e-04   -2.900439501e-01
     2578250000    2.570262924e-02   -2.904213369e-01
     2579000000    5.050237477e-02   -2.876085341e-01
     2579750000    7.595593482e-02   -2.836610079e-01
     2580500000    9.940321743e-02   -2.765683830e-01
     2581250000    1.246815473e-01   -2.673065364e-01
     2582000000    1.474005878e-01   -2.568561435e-01
     2582750000    1.690491289e-01   -2.432375252e-01
     2583500000    1.883193552e-01   -2.302632928e-01
     2584250000    2.078599036e-01   -2.124442607e-01
     2585000000    2.267478555e-01   -1.937122494e-01
     2585750000    2.404765934e-01   -1.771383882e-01
     2586500000    2.562905550e-01   -1.517418176e-01
     2587250000    2.692072392e-01   -1.315753907e-01
     2588000000    2.788770199e-01   -1.107863113e-01
     2588750000    2.880173624e-01   -8.418058604e-02
     2589500000    2.952956855e-01   -5.770190433e-02
     2590250000    2.984292805e-01   -3.410566598e-02
     2591000000    3.013144135e-01   -1.239401847e-02
     2591750000    2.999137640e-01    1.777235232e-02
     2592500000    2.976255715e-01    4.567161947e-02
     2593250000    2.938535213e-01    6.745532155e-02
     2594000000    2.864198387e-01    9.471613169e-02
     2594750000    2.782915533e-01    1.167120710e-01
     2595500000    2.664165795e-01    1.419846117e-01
     2596250000    2.520136237e-01    1.669483185e-01
     2597000000    2.379395366e-01    1.855520606e-01
     2597750000    2.230968624e-01    2.052660882e-01
     2598500000    2.007783055e-01    2.261069119e-01
     2599250000    1.818564236e-01    2.417011410e-01
     2600000000    1.620790958e-01    2.561852038e-01
