! NanoVNA-App
! Date: 2026-05-22 16:40:14
! Start: 4.8GHz Stop: 6GHz Points: 401
! S-Parameter data: F S11
# Hz S RI R 50
!     Frequency           S11_Real           S11_Imag
     4800000000    7.526921481e-02   -4.334366620e-01
     4803000000    2.211071700e-01   -3.880387247e-01
     4806000000    3.491275012e-01   -2.938807905e-01
     4809000000    4.371475279e-01   -1.594870985e-01
     4812000000    4.669771194e-01   -6.672752090e-03
     4815000000    4.490447640e-01    1.594048291e-01
     4818000000    3.747577667e-01    3.016819954e-01
     4821000000    2.536654472e-01    4.157975316e-01
     4824000000    1.047820300e-01    4.780096710e-01
     4827000000   -6.550464034e-02    4.894635379e-01
     4830000000   -2.207695842e-01    4.433523715e-01
     4833000000   -3.656787574e-01    3.425253630e-01
     4836000000   -4.591808021e-01    2.035578191e-01
     4839000000   -5.036157966e-01    4.253552854e-02
     4842000000   -4.916902781e-01   -1.355352998e-01
     4845000000   -4.202431440e-01   -2.862584889e-01
     4848000000   -2.991662920e-01   -4.148773849e-01
     4851000000   -1.422279626e-01   -4.948884845e-01
     4854000000    2.275156602e-02   -5.099484324e-01
     4857000000    1.969702542e-01   -4.740208685e-01
     4860000000    3.341256380e-01   -3.853817582e-01
     4863000000    4.485981464e-01   -2.472037226e-01
     4866000000    5.060499907e-01   -8.175475895e-02
     4869000000    5.035278797e-01    9.133182466e-02
     4872000000    4.425044954e-01    2.588883042e-01
     4875000000    3.355357051e-01    3.816638887e-01
     4878000000    1.809930652e-01    4.769001901e-01
     4881000000    8.589050733e-03    5.091019869e-01
     4884000000   -1.556239277e-01    4.819135368e-01
     4887000000   -2.910597026e-01    4.046137333e-01
     4890000000   -4.260968864e-01    2.708036602e-01
     4893000000   -4.882041216e-01    1.147581264e-01
     4896000000   -4.938898385e-01   -5.046447366e-02
     4899000000   -4.481964707e-01   -2.113330215e-01
     4902000000   -3.482315540e-01   -3.494116664e-01
     4905000000   -2.093639821e-01   -4.439701736e-01
     4908000000   -5.072829500e-02   -4.863061011e-01
     4911000000    1.179975495e-01   -4.728961587e-01
     4914000000    2.734669149e-01   -4.013569653e-01
     4917000000    3.868429661e-01   -2.861972749e-01
     4920000000    4.547570646e-01   -1.421085447e-01
     4923000000    4.750585258e-01    2.368530072e-02
     4926000000    4.375898242e-01    1.770706475e-01
     4929000000    3.547356129e-01    3.052700460e-01
     4932000000    2.179989815e-01    4.171200693e-01
     4935000000    6.755588949e-02    4.601325095e-01
     4938000000   -8.505761623e-02    4.547923803e-01
     4941000000   -2.327880859e-01    3.959766924e-01
     4944000000   -3.558521271e-01    2.872743309e-01
     4947000000   -4.249863625e-01    1.603232175e-01
     4950000000   -4.525531828e-01   -4.078450147e-03
     4953000000   -4.205157459e-01   -1.563832760e-01
     4956000000   -3.433354199e-01   -2.823427022e-01
     4959000000   -2.241060883e-01   -3.842531741e-01
     4962000000   -7.463883609e-02   -4.335041940e-01
     4965000000    6.763791293e-02   -4.304198921e-01
     4968000000    2.163233310e-01   -3.761378229e-01
     4971000000    3.256336749e-01   -2.814389169e-01
     4974000000    3.994625807e-01   -1.457599849e-01
     4977000000    4.237876534e-01   -6.958964746e-03
     4980000000    3.982933462e-01    1.405588388e-01
     4983000000    3.212856054e-01    2.670835257e-01
     4986000000    2.133200616e-01    3.567093313e-01
     4989000000    7.325247675e-02    4.062465131e-01
     4992000000   -6.180525944e-02    4.062909484e-01
     4995000000   -2.005306184e-01    3.512817323e-01
     4998000000   -3.088914454e-01    2.589720786e-01
     5001000000   -3.774683177e-01    1.338167340e-01
     5004000000   -3.991814554e-01   -2.947598696e-04
     5007000000   -3.704599142e-01   -1.349659711e-01
     5010000000   -3.014605045e-01   -2.499689162e-01
     5013000000   -1.987185776e-01   -3.381844461e-01
     5016000000   -6.345681846e-02   -3.793577850e-01
     5019000000    6.946690381e-02   -3.774543107e-01
     5022000000    1.920782626e-01   -3.271968663e-01
     5025000000    2.923124731e-01   -2.325815856e-01
     5028000000    3.534141779e-01   -1.207759380e-01
     5031000000    3.735606372e-01    4.331764765e-03
     5034000000    3.394269347e-01    1.393443942e-01
     5037000000    2.714192867e-01    2.435052693e-01
     5040000000    1.698488295e-01    3.208789229e-01
     5043000000    4.388435930e-02    3.529094756e-01
     5046000000   -8.047771454e-02    3.461260200e-01
     5049000000   -1.918192655e-01    2.929402292e-01
     5052000000   -2.800009549e-01    2.089426368e-01
     5055000000   -3.305924237e-01    1.019439027e-01
     5058000000   -3.394486308e-01   -2.435932495e-02
     5061000000   -3.072071075e-01   -1.344678849e-01
     5064000000   -2.368243784e-01   -2.302168757e-01
     5067000000   -1.465168893e-01   -2.962259948e-01
     5070000000   -3.170465305e-02   -3.240451515e-01
     5073000000    8.310905099e-02   -3.079127371e-01
     5076000000    1.854615062e-01   -2.571605742e-01
     5079000000    2.604635060e-01   -1.728337854e-01
     5082000000    3.020819426e-01   -7.419921458e-02
     5085000000    3.040285408e-01    3.554776311e-02
     5088000000    2.700287104e-01    1.359522492e-01
     5091000000    2.019610703e-01    2.177566290e-01
     5094000000    1.133759022e-01    2.701908052e-01
     5097000000    1.082885172e-02    2.874526680e-01
     5100000000   -8.765427768e-02    2.689023018e-01
     5103000000   -1.731313318e-01    2.130848169e-01
     5106000000   -2.333492935e-01    1.393092573e-01
     5109000000   -2.639192939e-01    4.657239467e-02
     5112000000   -2.591345012e-01   -4.540595785e-02
     5115000000   -2.286279202e-01   -1.335480213e-01
     5118000000   -1.580644250e-01   -1.958304495e-01
     5121000000   -7.690858096e-02   -2.367782146e-01
     5124000000    1.027572341e-02   -2.440175116e-01
     5127000000    9.472539276e-02   -2.197422981e-01
     5130000000    1.593094468e-01   -1.664910614e-01
     5133000000    2.067167461e-01   -9.747699648e-02
     5136000000    2.214922011e-01   -1.793449745e-02
     5139000000    2.063268274e-01    6.040591747e-02
     5142000000    1.693131179e-01    1.267593950e-01
     5145000000    1.101510152e-01    1.750666052e-01
     5148000000    3.918030486e-02    1.957817227e-01
     5151000000   -3.317665681e-02    1.934112608e-01
     5154000000   -9.747721255e-02    1.636606008e-01
     5157000000   -1.457828432e-01    1.134544760e-01
     5160000000   -1.703611463e-01    5.235399678e-02
     5163000000   -1.724310815e-01   -1.209174376e-02
     5166000000   -1.521714479e-01   -7.271401584e-02
     5169000000   -1.090425998e-01   -1.160250753e-01
     5172000000   -5.573725328e-02   -1.459574401e-01
     5175000000    3.790387651e-03   -1.549836695e-01
     5178000000    5.907372013e-02   -1.355472654e-01
     5181000000    9.765063226e-02   -9.986052662e-02
     5184000000    1.284361929e-01   -5.439362302e-02
     5187000000    1.329485029e-01   -2.316235797e-03
     5190000000    1.214128509e-01    4.896734282e-02
     5193000000    8.989089727e-02    8.365940303e-02
     5196000000    4.754899815e-02    1.077460274e-01
     5199000000   -3.771357937e-03    1.190400496e-01
     5202000000   -4.393528402e-02    1.033300608e-01
     5205000000   -8.017140627e-02    7.476922125e-02
     5208000000   -1.034849733e-01    3.615690395e-02
     5211000000   -1.046677008e-01   -5.999811459e-03
     5214000000   -9.215358645e-02   -4.774624109e-02
     5217000000   -6.244108081e-02   -7.533121854e-02
     5220000000   -2.562152222e-02   -9.608498216e-02
     5223000000    1.693771407e-02   -1.010595262e-01
     5226000000    5.474674702e-02   -8.294409513e-02
     5229000000    8.342795819e-02   -5.267681181e-02
     5232000000    1.028894559e-01   -1.419455465e-02
     5235000000    9.978530556e-02    2.767795883e-02
     5238000000    7.896149904e-02    6.275316328e-02
     5241000000    5.018993467e-02    9.590993077e-02
     5244000000    7.981360890e-03    9.910012782e-02
     5247000000   -3.862046450e-02    1.058166921e-01
     5250000000   -7.712628692e-02    8.049361408e-02
     5253000000   -1.021116748e-01    4.494652152e-02
     5256000000   -1.271857321e-01    2.030431991e-03
     5259000000   -1.145315468e-01   -4.478036612e-02
     5262000000   -9.755053371e-02   -9.194424003e-02
     5265000000   -5.781989545e-02   -1.248364225e-01
     5268000000   -8.239092305e-03   -1.346774995e-01
     5271000000    4.401416332e-02   -1.330707371e-01
     5274000000    8.882597089e-02   -1.071186662e-01
     5277000000    1.329196692e-01   -7.238321751e-02
     5280000000    1.453004628e-01   -1.668564789e-02
     5283000000    1.434191763e-01    4.031997174e-02
     5286000000    1.241515353e-01    9.474854171e-02
     5289000000    8.024621755e-02    1.353505105e-01
     5292000000    2.661370113e-02    1.596055180e-01
     5295000000   -3.692978993e-02    1.638033241e-01
     5298000000   -9.319270402e-02    1.418162435e-01
     5301000000   -1.426471621e-01    1.024698019e-01
     5304000000   -1.707142293e-01    4.347761720e-02
     5307000000   -1.770762503e-01   -2.274619043e-02
     5310000000   -1.614045948e-01   -8.667603135e-02
     5313000000   -1.179671437e-01   -1.392814964e-01
     5316000000   -6.214365736e-02   -1.816448867e-01
     5319000000    6.713490933e-03   -1.940181404e-01
     5322000000    7.506883144e-02   -1.808497757e-01
     5325000000    1.375712752e-01   -1.467241794e-01
     5328000000    1.849076897e-01   -8.886019140e-02
     5331000000    2.088254690e-01   -1.688981429e-02
     5334000000    2.023516595e-01    5.648392439e-02
     5337000000    1.692993641e-01    1.232192293e-01
     5340000000    1.148534715e-01    1.786932945e-01
     5343000000    4.310713336e-02    2.101167142e-01
     5346000000   -3.536305204e-02    2.152464539e-01
     5349000000   -1.074734032e-01    1.883902848e-01
     5352000000   -1.720983088e-01    1.386067420e-01
     5355000000   -2.091482133e-01    6.995049864e-02
     5358000000   -2.223489881e-01   -8.353555575e-03
     5361000000   -2.021338344e-01   -8.498726785e-02
     5364000000   -1.618681401e-01   -1.573255658e-01
     5367000000   -9.686100483e-02   -2.029253393e-01
     5370000000   -1.861440577e-02   -2.277008891e-01
     5373000000    6.183803454e-02   -2.154597193e-01
     5376000000    1.341588497e-01   -1.789040118e-01
     5379000000    1.984394193e-01   -1.193912029e-01
     5382000000    2.250204831e-01   -4.118635878e-02
     5385000000    2.176857442e-01    3.172919527e-02
     5388000000    1.918473542e-01    1.200789586e-01
     5391000000    1.396978945e-01    1.790460199e-01
     5394000000    6.999633461e-02    2.137161046e-01
     5397000000   -1.855805703e-02    2.272177339e-01
     5400000000   -8.622458577e-02    2.027219385e-01
     5403000000   -1.514014304e-01    1.568397284e-01
     5406000000   -2.030003965e-01    8.967266977e-02
     5409000000   -2.213646919e-01    1.009943616e-02
     5412000000   -2.096554339e-01   -7.410184294e-02
     5415000000   -1.693502814e-01   -1.412713975e-01
     5418000000   -1.064030752e-01   -1.935693473e-01
     5421000000   -3.171163797e-02   -2.167936713e-01
     5424000000    4.762260243e-02   -2.138899714e-01
     5427000000    1.188322902e-01   -1.812175214e-01
     5430000000    1.794788390e-01   -1.214793921e-01
     5433000000    2.074794322e-01   -5.219190568e-02
     5436000000    2.092557549e-01    2.481716499e-02
     5439000000    1.819684058e-01    1.033320948e-01
     5442000000    1.307542920e-01    1.617855430e-01
     5445000000    6.163329631e-02    1.970425546e-01
     5448000000   -1.176811941e-02    2.054293007e-01
     5451000000   -8.774945885e-02    1.855932772e-01
     5454000000   -1.490662247e-01    1.403738856e-01
     5457000000   -1.901777983e-01    7.606155425e-02
     5460000000   -2.033724487e-01    2.643319778e-03
     5463000000   -1.897343993e-01   -7.165944576e-02
     5466000000   -1.531484574e-01   -1.310037524e-01
     5469000000   -8.441723883e-02   -1.802074462e-01
     5472000000   -1.738543622e-02   -1.961218715e-01
     5475000000    5.734910443e-02   -1.872991025e-01
     5478000000    1.197971702e-01   -1.535665691e-01
     5481000000    1.649288684e-01   -1.001419052e-01
     5484000000    1.897461265e-01   -2.060692385e-02
     5487000000    1.872007549e-01    4.167474806e-02
     5490000000    1.560143977e-01    1.099980474e-01
     5493000000    1.010741591e-01    1.598248631e-01
     5496000000    3.889791295e-02    1.849561930e-01
     5499000000   -3.577680886e-02    1.854245663e-01
     5502000000   -9.878952801e-02    1.588482112e-01
     5505000000   -1.514212936e-01    1.093679816e-01
     5508000000   -1.811508983e-01    4.632088542e-02
     5511000000   -1.843229085e-01   -2.656115778e-02
     5514000000   -1.633872241e-01   -8.875285089e-02
     5517000000   -1.139120162e-01   -1.477903575e-01
     5520000000   -5.316716805e-02   -1.787615865e-01
     5523000000    2.074730583e-02   -1.843615174e-01
     5526000000    8.226586878e-02   -1.684529632e-01
     5529000000    1.430339217e-01   -1.171975732e-01
     5532000000    1.767551005e-01   -6.068415940e-02
     5535000000    1.834442168e-01    1.407557633e-02
     5538000000    1.707743853e-01    7.843592018e-02
     5541000000    1.302097887e-01    1.363423467e-01
     5544000000    6.896171719e-02    1.751898825e-01
     5547000000   -7.828801870e-03    1.883790344e-01
     5550000000   -7.600351423e-02    1.756035686e-01
     5553000000   -1.372398436e-01    1.362502277e-01
     5556000000   -1.797231734e-01    7.482248545e-02
     5559000000   -1.962583661e-01    4.763036035e-03
     5562000000   -1.878716201e-01   -6.954085082e-02
     5565000000   -1.494468302e-01   -1.339445263e-01
     5568000000   -8.877603710e-02   -1.827709973e-01
     5571000000   -1.811485924e-02   -2.053767592e-01
     5574000000    6.099304184e-02   -1.982198656e-01
     5577000000    1.318460852e-01   -1.622652113e-01
     5580000000    1.827288270e-01   -1.073867902e-01
     5583000000    2.098404020e-01   -2.812638134e-02
     5586000000    2.141571194e-01    4.562526196e-02
     5589000000    1.764751673e-01    1.252377927e-01
     5592000000    1.250221431e-01    1.831056178e-01
     5595000000    5.885408446e-02    2.205408961e-01
     5598000000   -3.140230104e-02    2.242026031e-01
     5601000000   -1.128135398e-01    1.960749477e-01
     5604000000   -1.770185232e-01    1.366590858e-01
     5607000000   -2.211179882e-01    7.365565747e-02
     5610000000   -2.316517681e-01   -1.213629544e-02
     5613000000   -2.136593461e-01   -9.853454679e-02
     5616000000   -1.638623476e-01   -1.706294119e-01
     5619000000   -8.746531606e-02   -2.182118148e-01
     5622000000   -5.334761459e-03   -2.405128330e-01
     5625000000    8.306311816e-02   -2.267687023e-01
     5628000000    1.623197347e-01   -1.760676652e-01
     5631000000    2.202575952e-01   -1.176881567e-01
     5634000000    2.425165623e-01   -2.315339819e-02
     5637000000    2.384310961e-01    7.081907988e-02
     5640000000    2.027946562e-01    1.524175853e-01
     5643000000    1.307909489e-01    2.157828063e-01
     5646000000    4.869363457e-02    2.553659081e-01
     5649000000   -4.936357215e-02    2.505454421e-01
     5652000000   -1.372537762e-01    2.288592607e-01
     5655000000   -2.082605660e-01    1.551312804e-01
     5658000000   -2.551836073e-01    7.201126218e-02
     5661000000   -2.596086860e-01   -2.434378676e-02
     5664000000   -2.516838908e-01   -1.222298443e-01
     5667000000   -1.788993031e-01   -1.949733049e-01
     5670000000   -1.068350822e-01   -2.622315586e-01
     5673000000   -2.442737110e-03   -2.803190053e-01
     5676000000    9.916272014e-02   -2.643382251e-01
     5679000000    1.853749901e-01   -2.103711963e-01
     5682000000    2.558104098e-01   -1.298967898e-01
     5685000000    2.814688087e-01   -3.065839969e-02
     5688000000    2.798013091e-01    7.147403061e-02
     5691000000    2.374460101e-01    1.721776575e-01
     5694000000    1.590243876e-01    2.441949844e-01
     5697000000    6.545222551e-02    2.932753265e-01
     5700000000   -4.413467273e-02    2.925206125e-01
     5703000000   -1.475266367e-01    2.613918781e-01
     5706000000   -2.384314686e-01    1.951697618e-01
     5709000000   -2.812508941e-01    9.621047229e-02
     5712000000   -3.145654500e-01   -1.483537443e-02
     5715000000   -2.849803567e-01   -1.220944971e-01
     5718000000   -2.216713727e-01   -2.180050015e-01
     5721000000   -1.305364221e-01   -2.841504216e-01
     5724000000   -2.260321751e-02   -3.176661134e-01
     5727000000    9.348418564e-02   -3.077804148e-01
     5730000000    1.957996637e-01   -2.552685142e-01
     5733000000    2.784445286e-01   -1.701476723e-01
     5736000000    3.170482218e-01   -5.929098651e-02
     5739000000    3.254785538e-01    5.672593042e-02
     5742000000    2.846941948e-01    1.698596478e-01
     5745000000    2.047522366e-01    2.565904260e-01
     5748000000    1.036469713e-01    3.142842650e-01
     5751000000   -1.704243198e-02    3.299953341e-01
     5754000000   -1.421611756e-01    3.125480413e-01
     5757000000   -2.240742147e-01    2.349479496e-01
     5760000000   -3.146641552e-01    1.372229755e-01
     5763000000   -3.277282417e-01    2.780681662e-02
     5766000000   -3.274171948e-01   -9.987951070e-02
     5769000000   -2.645252645e-01   -2.002740055e-01
     5772000000   -1.780059934e-01   -2.794602811e-01
     5775000000   -5.796514079e-02   -3.401642442e-01
     5778000000    5.741652846e-02   -3.359310329e-01
     5781000000    1.801933348e-01   -2.987409532e-01
     5784000000    2.603644431e-01   -2.161372155e-01
     5787000000    3.306203187e-01   -1.062433124e-01
     5790000000    3.426007330e-01    1.309743058e-02
     5793000000    3.168292642e-01    1.329786777e-01
     5796000000    2.490866184e-01    2.387882471e-01
     5799000000    1.471401006e-01    3.120819926e-01
     5802000000    2.587402612e-02    3.451566696e-01
     5805000000   -9.199722856e-02    3.287311494e-01
     5808000000   -2.085263282e-01    2.752514780e-01
     5811000000   -2.980290949e-01    1.821587235e-01
     5814000000   -3.376513720e-01    7.324942946e-02
     5817000000   -3.398919702e-01   -5.398035794e-02
     5820000000   -2.981409729e-01   -1.623813510e-01
     5823000000   -2.187348753e-01   -2.643106580e-01
     5826000000   -1.104479581e-01   -3.230993152e-01
     5829000000    2.064227499e-02   -3.483904600e-01
     5832000000    1.173673794e-01   -3.112823367e-01
     5835000000    2.312898040e-01   -2.478101701e-01
     5838000000    3.029817045e-01   -1.500732750e-01
     5841000000    3.371532857e-01   -3.097026609e-02
     5844000000    3.258892894e-01    8.716826886e-02
     5847000000    2.720039189e-01    1.986110210e-01
     5850000000    1.846490353e-01    2.789954543e-01
     5853000000    7.071261108e-02    3.247460127e-01
     5856000000   -4.791696742e-02    3.286847472e-01
     5859000000   -1.565090269e-01    2.891031802e-01
     5862000000   -2.515495121e-01    2.117316723e-01
     5865000000   -3.061758578e-01    1.098606512e-01
     5868000000   -3.253816962e-01   -2.241333481e-03
     5871000000   -3.006528616e-01   -1.269930303e-01
     5874000000   -2.412182242e-01   -2.100786120e-01
     5877000000   -1.484973282e-01   -2.834426463e-01
     5880000000   -3.273747861e-02   -3.186314404e-01
     5883000000    7.617590576e-02   -3.060400486e-01
     5886000000    1.699760705e-01   -2.602612078e-01
     5889000000    2.567431033e-01   -1.744740903e-01
     5892000000    2.964459658e-01   -7.719913870e-02
     5895000000    3.005829155e-01    2.161680721e-02
     5898000000    2.677810490e-01    1.485900432e-01
     5901000000    2.039475739e-01    2.170887142e-01
     5904000000    1.180170551e-01    2.699554563e-01
     5907000000    1.076692622e-02    2.956230342e-01
     5910000000   -8.368815482e-02    2.788589597e-01
     5913000000   -1.853906214e-01    2.201765180e-01
     5916000000   -2.497322559e-01    1.423177123e-01
     5919000000   -2.787768245e-01    4.553848505e-02
     5922000000   -2.727905512e-01   -5.254806206e-02
     5925000000   -2.346187681e-01   -1.445465982e-01
     5928000000   -1.666801274e-01   -2.125654817e-01
     5931000000   -8.402807266e-02   -2.504106164e-01
     5934000000    1.763788983e-02   -2.582997382e-01
     5937000000    1.022725776e-01   -2.364486009e-01
     5940000000    1.786520928e-01   -1.776919812e-01
     5943000000    2.220288217e-01   -1.160175875e-01
     5946000000    2.427653223e-01   -1.787246205e-02
     5949000000    2.368401438e-01    5.065688118e-02
     5952000000    1.890879571e-01    1.351222247e-01
     5955000000    1.233437732e-01    1.907446533e-01
     5958000000    5.810743943e-02    2.173032016e-01
     5961000000   -1.417749329e-03    2.244760394e-01
     5964000000   -1.000712514e-01    1.815287024e-01
     5967000000   -1.470164359e-01    1.431708038e-01
     5970000000   -1.839179099e-01    7.940047234e-02
     5973000000   -1.854488701e-01   -5.150796380e-03
     5976000000   -1.881946027e-01   -4.216471687e-02
     5979000000   -1.291780472e-01   -1.166874617e-01
     5982000000   -9.967079759e-02   -1.452823877e-01
     5985000000   -2.000008523e-02   -1.592253745e-01
     5988000000    3.140931204e-02   -1.539932787e-01
     5991000000    7.935277373e-02   -1.272139698e-01
     5994000000    1.129726022e-01   -8.760519326e-02
     5997000000    1.307763606e-01   -4.288360476e-02
     6000000000    1.185382679e-01    1.301892195e-02
