! NanoVNA-App
! Date: 2026-05-22 18:16:23
! Start: 2.3GHz Stop: 2.6GHz Points: 401
! S-Parameter data: F S11
# Hz S RI R 50
!     Frequency           S11_Real           S11_Imag
     2300000000    4.284901619e-01   -1.723387837e-01
     2300750000    4.396083355e-01   -1.347145438e-01
     2301500000    4.478649497e-01   -9.381219000e-02
     2302250000    4.516059160e-01   -5.328436941e-02
     2303000000    4.525536895e-01   -1.097147074e-02
     2303750000    4.495218098e-01    2.597672679e-02
     2304500000    4.427981377e-01    6.711836159e-02
     2305250000    4.332855940e-01    1.041197255e-01
     2306000000    4.206761122e-01    1.406362951e-01
     2306750000    4.028743505e-01    1.793653965e-01
     2307500000    3.841905296e-01    2.124020755e-01
     2308250000    3.621682227e-01    2.442557365e-01
     2309000000    3.370385766e-01    2.747305334e-01
              0    1.577159017e-01    1.030668616e-01
     2310500000    2.802258134e-01    3.267211914e-01
     2311250000    2.492900491e-01    3.490116596e-01
     2312000000    2.168133259e-01    3.672584891e-01
     2312750000    1.817865223e-01    3.831543326e-01
     2313500000    1.497898549e-01    3.950322866e-01
     2314250000    1.104938239e-01    4.042714238e-01
     2315000000    7.775714993e-02    4.103671908e-01
     2315750000    3.503259644e-02    4.128157198e-01
     2316500000    5.662897602e-03    4.127927423e-01
     2317250000   -3.459518775e-02    4.081499279e-01
     2318000000   -6.957932562e-02    4.012968242e-01
     2318750000   -1.066273227e-01    3.900752068e-01
     2319500000   -1.367857903e-01    3.789011538e-01
     2320250000   -1.671578735e-01    3.644406199e-01
     2321000000   -2.019774765e-01    3.430960774e-01
     2321750000   -2.265981734e-01    3.257888556e-01
     2322500000   -2.547349632e-01    3.007510602e-01
     2323250000   -2.786994278e-01    2.746053040e-01
     2324000000   -2.998856306e-01    2.474442124e-01
     2324750000   -3.165489435e-01    2.226269245e-01
     2325500000   -3.341751099e-01    1.894789040e-01
     2326250000   -3.472092152e-01    1.591368020e-01
     2327000000   -3.571402133e-01    1.288647801e-01
     2327750000   -3.644666374e-01    9.493157268e-02
     2328500000   -3.683436513e-01    6.446235627e-02
     2329250000   -3.700942695e-01    2.919282205e-02
     2330000000   -3.684364557e-01   -1.914596069e-03
     2330750000   -3.631354868e-01   -3.684867918e-02
     2331500000   -3.569613993e-01   -6.509684026e-02
     2332250000   -3.463571668e-01   -9.752935171e-02
     2333000000   -3.344719410e-01   -1.258330643e-01
     2333750000   -3.197578490e-01   -1.535842568e-01
     2334500000   -3.006760478e-01   -1.813156605e-01
     2335250000   -2.821208537e-01   -2.056618929e-01
     2336000000   -2.599360347e-01   -2.287674099e-01
     2336750000   -2.377374321e-01   -2.483511716e-01
     2337500000   -2.122551054e-01   -2.672149539e-01
     2338250000   -1.857873350e-01   -2.829072177e-01
     2339000000   -1.610998511e-01   -2.960353196e-01
     2339750000   -1.313351840e-01   -3.065832257e-01
     2340500000   -1.017742679e-01   -3.150329292e-01
     2341250000   -7.369216532e-02   -3.199846148e-01
     2342000000   -4.494873062e-02   -3.223974109e-01
     2342750000   -1.513945870e-02   -3.222487569e-01
     2343500000    1.252985187e-02   -3.202152252e-01
     2344250000    4.202456400e-02   -3.141591549e-01
     2345000000    6.763762236e-02   -3.072811365e-01
     2345750000    9.492322057e-02   -2.970279455e-01
     2346500000    1.215484738e-01   -2.835845947e-01
     2347250000    1.440467983e-01   -2.710814774e-01
     2348000000    1.672585011e-01   -2.531812191e-01
     2348750000    1.887424588e-01   -2.340649962e-01
     2349500000    2.061448395e-01   -2.170206308e-01
     2350250000    2.229451984e-01   -1.978237182e-01
     2351000000    2.382031679e-01   -1.717561185e-01
     2351750000    2.506665587e-01   -1.485318542e-01
     2352500000    2.604862750e-01   -1.253396571e-01
     2353250000    2.688605189e-01   -1.027731970e-01
     2354000000    2.745134830e-01   -7.429371774e-02
     2354750000    2.775394917e-01   -4.793537781e-02
     2355500000    2.793478966e-01   -2.408310026e-02
     2356250000    2.776429355e-01    2.205041936e-03
     2357000000    2.745363414e-01    2.485371567e-02
     2357750000    2.702277303e-01    4.849584028e-02
     2358500000    2.612530887e-01    7.329529524e-02
     2359250000    2.515711784e-01    9.508056939e-02
     2360000000    2.401045710e-01    1.161743402e-01
     2360750000    2.279445082e-01    1.357808411e-01
     2361500000    2.122335881e-01    1.538571268e-01
     2362250000    1.980979741e-01    1.697857082e-01
     2363000000    1.805438399e-01    1.847271621e-01
     2363750000    1.619514972e-01    1.974902153e-01
     2364500000    1.433974504e-01    2.082979828e-01
     2365250000    1.229108274e-01    2.172663063e-01
     2366000000    1.022631377e-01    2.241287082e-01
     2366750000    8.129345626e-02    2.290532291e-01
     2367500000    6.022413820e-02    2.321129888e-01
     2368250000    3.940709680e-02    2.325625271e-01
     2369000000    1.965180412e-02    2.325242311e-01
     2369750000   -2.612982178e-03    2.289474458e-01
     2370500000   -2.186971717e-02    2.251625657e-01
     2371250000   -4.173249751e-02    2.183102965e-01
     2372000000   -5.925814062e-02    2.117841840e-01
     2372750000   -7.837636024e-02    2.015021443e-01
     2373500000   -9.529593587e-02    1.895164102e-01
     2374250000   -1.098282486e-01    1.787933260e-01
     2375000000   -1.244071797e-01    1.644495726e-01
     2375750000   -1.365143657e-01    1.491044015e-01
     2376500000   -1.477355510e-01    1.347235590e-01
     2377250000   -1.574936360e-01    1.197750345e-01
     2378000000   -1.654412895e-01    1.023160666e-01
     2378750000   -1.718906164e-01    8.626394719e-02
     2379500000   -1.763723046e-01    6.782442331e-02
     2380250000   -1.788597107e-01    5.015724525e-02
     2381000000   -1.810250580e-01    3.386809677e-02
     2381750000   -1.794606447e-01    1.489949413e-02
     2382500000   -1.770079583e-01   -2.072533825e-03
     2383250000   -1.756276786e-01   -1.776655577e-02
     2384000000   -1.704478413e-01   -3.370689601e-02
     2384750000   -1.652022451e-01   -4.838760942e-02
     2385500000   -1.562928706e-01   -6.379722804e-02
     2386250000   -1.491019428e-01   -7.682289928e-02
     2387000000   -1.405715942e-01   -8.899636567e-02
     2387750000   -1.271429509e-01   -1.005048528e-01
     2388500000   -1.184354499e-01   -1.111776605e-01
     2389250000   -1.044388339e-01   -1.198072061e-01
     2390000000   -9.369741380e-02   -1.279886365e-01
     2390750000   -7.954714447e-02   -1.345066726e-01
     2391500000   -6.510655582e-02   -1.392571926e-01
     2392250000   -5.240176246e-02   -1.431920230e-01
     2393000000   -3.798308969e-02   -1.457558423e-01
     2393750000   -2.456823923e-02   -1.470185071e-01
     2394500000   -1.181618311e-02   -1.473441273e-01
     2395250000    2.669758396e-03   -1.447582096e-01
     2396000000    1.548205223e-02   -1.422751993e-01
     2396750000    2.841797285e-02   -1.379076689e-01
     2397500000    4.045200348e-02   -1.323340386e-01
     2398250000    5.142031983e-02   -1.266669035e-01
     2399000000    6.234289706e-02   -1.196144447e-01
     2399750000    7.206920534e-02   -1.115970537e-01
     2400500000    8.094480634e-02   -1.020645425e-01
     2401250000    8.913373202e-02   -9.330298752e-02
     2402000000    9.555886686e-02   -8.316896111e-02
     2402750000    1.012774184e-01   -7.283250242e-02
     2403500000    1.061849445e-01   -6.241107360e-02
     2404250000    1.092303619e-01   -5.104825273e-02
     2405000000    1.124973670e-01   -4.090676084e-02
     2405750000    1.127489060e-01   -2.902484126e-02
     2406500000    1.128142104e-01   -1.819509268e-02
     2407250000    1.124257743e-01   -7.443688810e-03
     2408000000    1.096967608e-01    3.343523247e-03
     2408750000    1.071027741e-01    1.377053931e-02
     2409500000    1.030574888e-01    2.321096882e-02
     2410250000    9.895035625e-02    3.247135133e-02
     2411000000    9.258214384e-02    4.078542069e-02
     2411750000    8.657389879e-02    4.838494211e-02
     2412500000    7.892731577e-02    5.543828756e-02
     2413250000    7.188235968e-02    6.163905561e-02
     2414000000    6.423246115e-02    6.700721383e-02
     2414750000    5.567927286e-02    7.154016197e-02
     2415500000    4.789988697e-02    7.487362623e-02
     2416250000    3.894440830e-02    7.722733170e-02
     2417000000    3.022964671e-02    7.932361960e-02
     2417750000    2.155194432e-02    7.997157425e-02
     2418500000    1.316027623e-02    7.989565283e-02
     2419250000    4.573146347e-03    7.843136042e-02
     2420000000   -3.163351445e-03    7.674534619e-02
     2420750000   -1.126517914e-02    7.476449013e-02
     2421500000   -1.849343255e-02    7.122419775e-02
     2422250000   -2.523300238e-02    6.790523976e-02
     2423000000   -3.174386546e-02    6.333754957e-02
     2423750000   -3.787995875e-02    5.952522531e-02
     2424500000   -4.273668304e-02    5.320507661e-02
     2425250000   -4.724401608e-02    4.713499546e-02
     2426000000   -5.099767819e-02    4.106868431e-02
     2426750000   -5.434500799e-02    3.486153483e-02
     2427500000   -5.604941025e-02    2.822604030e-02
     2428250000   -5.875696242e-02    2.285429277e-02
     2429000000   -5.897117779e-02    1.567047276e-02
     2429750000   -5.880491808e-02    9.095978923e-03
     2430500000   -5.910571292e-02    3.462980967e-03
     2431250000   -5.823448300e-02   -2.293921541e-03
     2432000000   -5.576255545e-02   -8.644852787e-03
     2432750000   -5.304978415e-02   -1.387785748e-02
     2433500000   -5.103344470e-02   -1.866893470e-02
     2434250000   -5.366883799e-02   -2.144619077e-02
     2435000000   -4.852971062e-02   -2.503420785e-02
     2435750000   -4.529429600e-02   -2.880297787e-02
     2436500000   -4.164233804e-02   -3.279657289e-02
     2437250000   -3.601508215e-02   -3.467226401e-02
     2438000000   -3.215834498e-02   -3.697645664e-02
     2438750000   -2.724426053e-02   -3.890043125e-02
     2439500000   -2.169719152e-02   -3.889637813e-02
     2440250000   -1.695255563e-02   -3.913514689e-02
     2441000000   -1.248342730e-02   -3.931652755e-02
     2441750000   -7.867519744e-03   -3.858431056e-02
     2442500000   -3.400282469e-03   -3.672942147e-02
     2443250000    6.080977037e-04   -3.611981496e-02
     2444000000    4.393832292e-03   -3.354084492e-02
     2444750000    7.580742706e-03   -3.069897369e-02
     2445500000    1.068840548e-02   -2.745390497e-02
     2446250000    1.349053159e-02   -2.531705797e-02
     2447000000    1.546299085e-02   -2.208016254e-02
     2447750000    1.740588807e-02   -1.871917211e-02
     2448500000    1.852516271e-02   -1.500072796e-02
     2449250000    1.886755973e-02   -1.119035110e-02
     2450000000    1.935471967e-02   -7.550764363e-03
     2450750000    1.898447424e-02   -4.125757143e-03
     2451500000    1.817200705e-02   -9.057827992e-04
     2452250000    1.667510718e-02    2.379920566e-03
     2453000000    1.526950486e-02    4.753770307e-03
     2453750000    1.308979560e-02    7.450889796e-03
     2454500000    1.063938253e-02    9.307359345e-03
     2455250000    7.569511887e-03    1.144124474e-02
     2456000000    5.796990823e-03    1.272345055e-02
     2456750000    1.575523638e-03    1.360425632e-02
     2457500000   -1.130572869e-03    1.429417171e-02
     2458250000   -4.653893877e-03    1.438687462e-02
     2459000000   -8.056509309e-03    1.369628590e-02
     2459750000   -1.077204011e-02    1.324805897e-02
     2460500000   -1.502957754e-02    1.074786577e-02
     2461250000   -1.731966808e-02    9.882096201e-03
     2462000000   -2.058626711e-02    7.151347119e-03
     2462750000   -2.344992012e-02    4.457156640e-03
     2463500000   -2.553608082e-02    2.840019006e-04
     2464250000   -2.724914439e-02   -2.654726384e-03
     2465000000   -2.857305668e-02   -6.373612676e-03
     2465750000   -2.968407795e-02   -1.173466351e-02
     2466500000   -2.951567061e-02   -1.615948603e-02
     2467250000   -2.946750820e-02   -1.931958459e-02
     2468000000   -2.845519409e-02   -2.634167112e-02
     2468750000   -2.754462510e-02   -3.113818541e-02
     2469500000   -2.539084852e-02   -3.503879160e-02
     2470250000   -2.224190161e-02   -4.087210074e-02
     2471000000   -1.844714023e-02   -4.661488160e-02
     2471750000   -1.602127776e-02   -4.994849861e-02
     2472500000   -1.230322942e-02   -5.352050439e-02
     2473250000   -6.063465029e-03   -5.819614977e-02
     2474000000   -2.467525483e-04   -6.178959459e-02
     2474750000    4.255029373e-03   -6.351751834e-02
     2475500000    1.243635267e-02   -6.664488465e-02
     2476250000    1.857832260e-02   -6.798402965e-02
     2477000000    2.519418672e-02   -6.916867197e-02
     2477750000    3.260993585e-02   -6.918282807e-02
     2478500000    3.982356563e-02   -6.902578473e-02
     2479250000    4.829198122e-02   -6.707081199e-02
     2480000000    5.361278355e-02   -6.608237326e-02
     2480750000    6.247716025e-02   -6.252930313e-02
     2481500000    6.954996288e-02   -5.880298465e-02
     2482250000    7.674887776e-02   -5.428602546e-02
     2483000000    8.415316045e-02   -4.878561199e-02
     2483750000    9.072435647e-02   -4.266320169e-02
     2484500000    9.608975798e-02   -3.656436875e-02
     2485250000    1.016869918e-01   -2.817616798e-02
     2486000000    1.063096896e-01   -2.009230480e-02
     2486750000    1.096991971e-01   -1.114625018e-02
     2487500000    1.131914556e-01   -1.828041044e-03
     2488250000    1.159977838e-01    8.323837072e-03
     2489000000    1.169516072e-01    1.751797274e-02
     2489750000    1.171511486e-01    2.910030633e-02
     2490500000    1.170233265e-01    3.962088004e-02
     2491250000    1.151503846e-01    5.092167854e-02
     2492000000    1.130778044e-01    6.007230282e-02
     2492750000    1.090877876e-01    7.172835618e-02
     2493500000    1.036601514e-01    8.425888419e-02
     2494250000    9.901361167e-02    9.199347347e-02
     2495000000    9.235896915e-02    1.022013873e-01
     2495750000    8.321084827e-02    1.132655963e-01
     2496500000    7.463523746e-02    1.213581637e-01
     2497250000    6.632629037e-02    1.285623312e-01
     2498000000    5.378912762e-02    1.377276182e-01
     2498750000    4.257581010e-02    1.436521709e-01
     2499500000    3.303506225e-02    1.485811472e-01
     2500250000    1.733115688e-02    1.538594663e-01
     2501000000    4.458035808e-03    1.574490070e-01
     2501750000   -1.028515399e-02    1.589829922e-01
     2502500000   -2.306962013e-02    1.601220369e-01
     2503250000   -3.535418212e-02    1.598548591e-01
     2504000000   -5.148381367e-02    1.583043188e-01
     2504750000   -6.877139956e-02    1.549851596e-01
     2505500000   -8.187665045e-02    1.510309279e-01
     2506250000   -9.292668849e-02    1.462129802e-01
     2507000000   -1.080347151e-01    1.387895495e-01
     2507750000   -1.229608208e-01    1.300138533e-01
     2508500000   -1.341696531e-01    1.225818619e-01
     2509250000   -1.470171213e-01    1.096964628e-01
     2510000000   -1.578755528e-01    9.936310351e-02
     2510750000   -1.667702049e-01    8.677775413e-02
     2511500000   -1.759667695e-01    7.308212668e-02
     2512250000   -1.830838025e-01    5.810868368e-02
     2513000000   -1.887808442e-01    4.462311417e-02
     2513750000   -1.946536303e-01    2.679366805e-02
     2514500000   -1.981672794e-01    9.183036163e-03
     2515250000   -1.989225298e-01   -7.843079977e-03
     2516000000   -2.001617402e-01   -2.344975807e-02
     2516750000   -1.981965452e-01   -4.211976379e-02
     2517500000   -1.959099025e-01   -5.965295807e-02
     2518250000   -1.913734525e-01   -7.572547346e-02
     2519000000   -1.849648356e-01   -9.404048324e-02
     2519750000   -1.773856729e-01   -1.108789146e-01
     2520500000   -1.681995243e-01   -1.270223856e-01
     2521250000   -1.584631950e-01   -1.416058987e-01
     2522000000   -1.456791759e-01   -1.583698690e-01
     2522750000   -1.302616000e-01   -1.728832126e-01
     2523500000   -1.184655055e-01   -1.834920198e-01
     2524250000   -9.956297278e-02   -1.966802776e-01
     2525000000   -8.459398150e-02   -2.063100934e-01
     2525750000   -6.638696045e-02   -2.140517235e-01
     2526500000   -4.998340830e-02   -2.206338048e-01
     2527250000   -2.966503985e-02   -2.257286459e-01
     2528000000   -8.718283847e-03   -2.296478450e-01
     2528750000    1.157825440e-02   -2.308045179e-01
     2529500000    3.089682013e-02   -2.311776876e-01
     2530250000    5.174430832e-02   -2.289129794e-01
     2531000000    7.154480368e-02   -2.251699716e-01
     2531750000    9.182700515e-02   -2.195435911e-01
     2532500000    1.110848412e-01   -2.126636058e-01
     2533250000    1.309754103e-01   -2.029929757e-01
     2534000000    1.490789801e-01   -1.925921887e-01
     2534750000    1.660036445e-01   -1.798180640e-01
     2535500000    1.818913817e-01   -1.650048196e-01
     2536250000    1.975705773e-01   -1.500530541e-01
     2537000000    2.110211849e-01   -1.334320307e-01
     2537750000    2.233225703e-01   -1.130620614e-01
     2538500000    2.341005504e-01   -9.496502578e-02
     2539250000    2.425169349e-01   -7.360777259e-02
     2540000000    2.500283122e-01   -5.235484615e-02
     2540750000    2.555563748e-01   -3.018196113e-02
     2541500000    2.586954534e-01   -5.459826905e-03
     2542250000    2.598220408e-01    1.389190741e-02
     2543000000    2.588013709e-01    3.910933062e-02
     2543750000    2.555478513e-01    6.150314957e-02
     2544500000    2.512136400e-01    8.366656303e-02
     2545250000    2.440750748e-01    1.072406024e-01
     2546000000    2.359819412e-01    1.268717945e-01
     2546750000    2.251898944e-01    1.479781866e-01
     2547500000    2.124082148e-01    1.687478721e-01
     2548250000    1.978215873e-01    1.870843023e-01
     2549000000    1.812607795e-01    2.046919614e-01
     2549750000    1.612410247e-01    2.224795073e-01
     2550500000    1.440809071e-01    2.366413027e-01
     2551250000    1.254833490e-01    2.482227683e-01
     2552000000    1.020484641e-01    2.598706484e-01
     2552750000    7.827834040e-02    2.695363760e-01
     2553500000    5.518892407e-02    2.760639191e-01
     2554250000    2.901326679e-02    2.818165421e-01
     2555000000    7.389115635e-03    2.838242054e-01
     2555750000   -2.302801423e-02    2.832377255e-01
     2556500000   -4.388878867e-02    2.833293974e-01
     2557250000   -6.996654719e-02    2.783571184e-01
     2558000000   -9.251984954e-02    2.741264999e-01
     2558750000   -1.182250232e-01    2.644949257e-01
     2559500000   -1.392826736e-01    2.547538877e-01
     2560250000   -1.634565592e-01    2.402340472e-01
     2561000000   -1.836218536e-01    2.265240401e-01
     2561750000   -2.049470395e-01    2.084044218e-01
     2562500000   -2.232747823e-01    1.903416812e-01
     2563250000   -2.393722534e-01    1.715129316e-01
     2564000000   -2.534146905e-01    1.495476365e-01
     2564750000   -2.670370340e-01    1.264424026e-01
     2565500000   -2.779324949e-01    1.017923504e-01
     2566250000   -2.863828838e-01    7.981020212e-02
     2567000000   -2.931785583e-01    5.211824551e-02
     2567750000   -2.971291244e-01    2.720002271e-02
     2568500000   -2.992247939e-01   -1.151837569e-04
     2569250000   -2.978106141e-01   -2.688838355e-02
     2570000000   -2.956976295e-01   -5.337488279e-02
     2570750000   -2.900139391e-01   -8.058799803e-02
     2571500000   -2.822043300e-01   -1.073724106e-01
     2572250000   -2.711749971e-01   -1.322313547e-01
     2573000000   -2.601611018e-01   -1.564056128e-01
     2573750000   -2.446158826e-01   -1.798084229e-01
     2574500000   -2.276509404e-01   -2.014008760e-01
     2575250000   -2.094279677e-01   -2.213733345e-01
     2576000000   -1.898852885e-01   -2.395331264e-01
     2576750000   -1.679578424e-01   -2.569439709e-01
     2577500000   -1.445954442e-01   -2.713472843e-01
     2578250000   -1.193000972e-01   -2.845650613e-01
     2579000000   -9.486129135e-02   -2.948210835e-01
     2579750000   -6.831070781e-02   -3.031528592e-01
     2580500000   -3.952521831e-02   -3.089262247e-01
     2581250000   -1.009082515e-02   -3.127105832e-01
     2582000000    1.681561023e-02   -3.130710125e-01
     2582750000    4.459168389e-02   -3.113797307e-01
     2583500000    7.395487279e-02   -3.066036403e-01
     2584250000    9.967420995e-02   -3.004978895e-01
     2585000000    1.268228143e-01   -2.917127013e-01
     2585750000    1.540198028e-01   -2.782616019e-01
     2586500000    1.756593287e-01   -2.678641677e-01
     2587250000    2.013829947e-01   -2.495698780e-01
     2588000000    2.221966088e-01   -2.320777923e-01
     2588750000    2.434529215e-01   -2.108294815e-01
     2589500000    2.611148059e-01   -1.897420585e-01
     2590250000    2.756029069e-01   -1.681407243e-01
     2591000000    2.907181978e-01   -1.410517097e-01
     2591750000    3.023701906e-01   -1.140028387e-01
     2592500000    3.118543029e-01   -8.714277297e-02
     2593250000    3.180373609e-01   -6.355302781e-02
     2594000000    3.226843178e-01   -2.792608924e-02
     2594750000    3.242982328e-01   -9.493215475e-04
     2595500000    3.232076168e-01    2.834999375e-02
     2596250000    3.195821047e-01    6.023235619e-02
     2597000000    3.141434193e-01    8.550927043e-02
     2597750000    3.051638901e-01    1.157095581e-01
     2598500000    2.960525453e-01    1.416146457e-01
     2599250000    2.802524269e-01    1.696054935e-01
     2600000000    2.650789320e-01    1.926065385e-01
