! NanoVNA-App
! Date: 2026-05-22 18:15:29
! Start: 2.3GHz Stop: 2.6GHz Points: 401
! S-Parameter data: F S11
# Hz S RI R 50
!     Frequency           S11_Real           S11_Imag
     2300000000    3.607377112e-01   -2.283596545e-01
     2300750000    3.774595857e-01   -1.947962493e-01
     2301500000    3.901723921e-01   -1.638010144e-01
     2302250000    4.008025825e-01   -1.278609335e-01
     2303000000    4.083735645e-01   -8.740445971e-02
     2303750000    4.122117758e-01   -5.198370665e-02
     2304500000    4.136898518e-01   -1.637822576e-02
     2305250000    4.104016125e-01    2.054093592e-02
     2306000000    4.053314626e-01    5.633873865e-02
     2306750000    3.973197937e-01    8.971499652e-02
     2307500000    3.871790171e-01    1.228446513e-01
     2308250000    3.708561361e-01    1.582340747e-01
     2309000000    3.560701013e-01    1.875811368e-01
     2309750000    3.355975747e-01    2.180263251e-01
     2310500000    3.140094280e-01    2.451802790e-01
     2311250000    2.909233570e-01    2.704126835e-01
     2312000000    2.651509643e-01    2.931311727e-01
     2312750000    2.365016043e-01    3.141783178e-01
     2313500000    2.098143101e-01    3.312834203e-01
     2314250000    1.794052720e-01    3.456118703e-01
     2315000000    1.470445842e-01    3.588955104e-01
     2315750000    1.151487678e-01    3.679567873e-01
     2316500000    8.287295699e-02    3.742838204e-01
     2317250000    4.992334172e-02    3.776307404e-01
     2318000000    1.674705185e-02    3.785117865e-01
     2318750000   -1.796590909e-02    3.758513927e-01
     2319500000   -4.632693902e-02    3.724083602e-01
     2320250000   -8.052606136e-02    3.636486828e-01
     2321000000   -1.107843444e-01    3.542358875e-01
     2321750000   -1.390318424e-01    3.422573805e-01
     2322500000   -1.696400344e-01    3.240396082e-01
     2323250000   -1.941043437e-01    3.082057536e-01
     2324000000   -2.198464721e-01    2.880016565e-01
     2324750000   -2.409282476e-01    2.680535614e-01
     2325500000   -2.620442808e-01    2.445337623e-01
     2326250000   -2.798277140e-01    2.229287475e-01
     2327000000   -2.966597378e-01    1.922084540e-01
     2327750000   -3.095365465e-01    1.678088009e-01
     2328500000   -3.201421499e-01    1.380434334e-01
     2329250000   -3.294918835e-01    1.093761176e-01
     2330000000   -3.350573182e-01    7.954511046e-02
     2330750000   -3.380866051e-01    4.920218140e-02
     2331500000   -3.392179906e-01    2.033312246e-02
     2332250000   -3.367061317e-01   -9.526085109e-03
     2333000000   -3.317359090e-01   -3.944136947e-02
     2333750000   -3.261460364e-01   -6.497483701e-02
     2334500000   -3.164401054e-01   -9.340665489e-02
     2335250000   -3.053172529e-01   -1.200423315e-01
     2336000000   -2.913439274e-01   -1.450140625e-01
     2336750000   -2.759988308e-01   -1.685492843e-01
     2337500000   -2.579033077e-01   -1.908437312e-01
     2338250000   -2.385892570e-01   -2.113152891e-01
     2339000000   -2.199660540e-01   -2.287885249e-01
     2339750000   -1.973980665e-01   -2.451285869e-01
     2340500000   -1.738865227e-01   -2.595163882e-01
     2341250000   -1.500360817e-01   -2.715089321e-01
     2342000000   -1.253650635e-01   -2.808597684e-01
     2342750000   -9.947087616e-02   -2.886272669e-01
     2343500000   -7.298067957e-02   -2.940341532e-01
     2344250000   -4.703779891e-02   -2.968118489e-01
     2345000000   -2.158007771e-02   -2.977963686e-01
     2345750000    4.495180212e-03   -2.960915267e-01
     2346500000    3.126713261e-02   -2.921237648e-01
     2347250000    5.418658629e-02   -2.874521315e-01
     2348000000    8.021256328e-02   -2.779766619e-01
     2348750000    1.021836475e-01   -2.697560489e-01
     2349500000    1.246879175e-01   -2.579214871e-01
     2350250000    1.460727602e-01   -2.430742681e-01
     2351000000    1.638137251e-01   -2.307929397e-01
     2351750000    1.817095727e-01   -2.133044600e-01
     2352500000    1.973726749e-01   -1.943060309e-01
     2353250000    2.124347091e-01   -1.741614342e-01
     2354000000    2.245139927e-01   -1.565970629e-01
     2354750000    2.351720333e-01   -1.334286332e-01
     2355500000    2.442470342e-01   -1.117375642e-01
     2356250000    2.508735359e-01   -8.938717097e-02
     2357000000    2.550833225e-01   -6.767368317e-02
     2357750000    2.581041753e-01   -4.473245144e-02
     2358500000    2.598520219e-01   -2.267683856e-02
     2359250000    2.578570545e-01    3.161151544e-04
     2360000000    2.552035749e-01    2.181564458e-02
     2360750000    2.504566908e-01    4.394843057e-02
     2361500000    2.445341349e-01    6.398716569e-02
     2362250000    2.355362177e-01    8.448633552e-02
     2363000000    2.263983339e-01    1.032210663e-01
     2363750000    2.149536759e-01    1.209272891e-01
     2364500000    2.013640851e-01    1.377691180e-01
     2365250000    1.889493614e-01    1.523614675e-01
     2366000000    1.725947857e-01    1.663405746e-01
     2366750000    1.596622020e-01    1.740851998e-01
     2367500000    1.426270753e-01    1.851055473e-01
     2368250000    1.246703640e-01    1.940565109e-01
     2369000000    1.064539924e-01    2.017584145e-01
     2369750000    8.823110163e-02    2.079678178e-01
     2370500000    6.944094598e-02    2.123542279e-01
     2371250000    5.004642904e-02    2.152500302e-01
     2372000000    3.028037585e-02    2.148008496e-01
     2372750000    1.214706432e-02    2.158773690e-01
     2373500000   -7.001777645e-03    2.129338086e-01
     2374250000   -2.512786724e-02    2.090126127e-01
     2375000000   -4.317978024e-02    2.033651173e-01
     2375750000   -6.009808183e-02    1.959395409e-01
     2376500000   -7.550372928e-02    1.893348396e-01
     2377250000   -9.088937193e-02    1.787758172e-01
     2378000000   -1.047021076e-01    1.690451205e-01
     2378750000   -1.173652709e-01    1.570543200e-01
     2379500000   -1.293028593e-01    1.440877765e-01
     2380250000   -1.395447999e-01    1.312797517e-01
     2381000000   -1.491218507e-01    1.183027253e-01
     2381750000   -1.559708416e-01    1.022309288e-01
     2382500000   -1.617625654e-01    8.671903610e-02
     2383250000   -1.672866940e-01    7.154639810e-02
     2384000000   -1.713462025e-01    5.642351508e-02
     2384750000   -1.720738858e-01    3.960256279e-02
     2385500000   -1.725531518e-01    2.361095697e-02
     2386250000   -1.722822338e-01    8.473040536e-03
     2387000000   -1.709491014e-01   -6.831783336e-03
     2387750000   -1.664818525e-01   -2.188742906e-02
     2388500000   -1.630827039e-01   -3.661939874e-02
     2389250000   -1.567479670e-01   -5.024231970e-02
     2390000000   -1.503824741e-01   -6.331721693e-02
     2390750000   -1.419119835e-01   -7.609587908e-02
     2391500000   -1.335189492e-01   -8.769652247e-02
     2392250000   -1.241718307e-01   -9.782534093e-02
     2393000000   -1.140581891e-01   -1.079579517e-01
     2393750000   -1.026614904e-01   -1.164257973e-01
     2394500000   -9.196319431e-02   -1.237717345e-01
     2395250000   -8.031403273e-02   -1.304419637e-01
     2396000000   -6.787224859e-02   -1.356636584e-01
     2396750000   -5.598529428e-02   -1.402604431e-01
     2397500000   -4.282707348e-02   -1.425737441e-01
     2398250000   -3.090209886e-02   -1.447473168e-01
     2399000000   -1.786807179e-02   -1.452095062e-01
     2399750000   -5.211707670e-03   -1.449486464e-01
     2400500000    7.151990198e-03   -1.436379850e-01
     2401250000    1.916908845e-02   -1.405099779e-01
     2402000000    3.059654497e-02   -1.374917179e-01
     2402750000    4.126413539e-02   -1.331408769e-01
     2403500000    5.132623017e-02   -1.276592612e-01
     2404250000    6.154410541e-02   -1.224148721e-01
     2405000000    7.049965113e-02   -1.152136251e-01
     2405750000    7.878907770e-02   -1.077863649e-01
     2406500000    8.599911630e-02   -9.935916215e-02
     2407250000    9.281471372e-02   -9.103882313e-02
     2408000000    9.832911938e-02   -8.199676871e-02
     2408750000    1.036643684e-01   -7.263622433e-02
     2409500000    1.068800464e-01   -6.285596639e-02
     2410250000    1.101753637e-01   -5.272136629e-02
     2411000000    1.129650772e-01   -4.308757931e-02
     2411750000    1.142010912e-01   -3.286651522e-02
     2412500000    1.140176579e-01   -2.288776264e-02
     2413250000    1.141506433e-01   -1.304378361e-02
     2414000000    1.129768640e-01   -3.484967863e-03
     2414750000    1.111696362e-01    6.017988548e-03
     2415500000    1.085758954e-01    1.492757909e-02
     2416250000    1.048595607e-01    2.320903912e-02
     2417000000    1.010459214e-01    3.187718987e-02
     2417750000    9.638088197e-02    3.976248950e-02
     2418500000    9.111800045e-02    4.677128792e-02
     2419250000    8.533537388e-02    5.318700895e-02
     2420000000    7.920486480e-02    5.979207903e-02
     2420750000    7.258465886e-02    6.456681341e-02
     2421500000    6.593821943e-02    6.976257265e-02
     2422250000    5.843504891e-02    7.399041206e-02
     2423000000    5.076222494e-02    7.758563012e-02
     2423750000    4.367992654e-02    8.053720742e-02
     2424500000    3.578709811e-02    8.283837885e-02
     2425250000    2.839222178e-02    8.412013948e-02
     2426000000    2.134839632e-02    8.506516367e-02
     2426750000    1.412873808e-02    8.529978245e-02
     2427500000    6.643296685e-03    8.570985496e-02
     2428250000    4.250791098e-04    8.459472656e-02
     2429000000   -6.771778688e-03    8.364721388e-02
     2429750000   -1.328971889e-02    8.193234354e-02
     2430500000   -1.918721013e-02    7.963170111e-02
     2431250000   -2.537414618e-02    7.720199972e-02
     2432000000   -3.003692813e-02    7.417753339e-02
     2432750000   -3.495066985e-02    7.098608464e-02
     2433500000   -3.996774554e-02    6.736779213e-02
     2434250000   -4.421757162e-02    6.357412040e-02
     2435000000   -4.735651612e-02    5.999311805e-02
     2435750000   -5.071486905e-02    5.568370223e-02
     2436500000   -5.411111191e-02    5.116691440e-02
     2437250000   -5.620191991e-02    4.707705975e-02
     2438000000   -5.846277997e-02    4.223285243e-02
     2438750000   -5.998035148e-02    3.786380216e-02
     2439500000   -6.113803759e-02    3.388341889e-02
     2440250000   -6.249288470e-02    2.865931392e-02
     2441000000   -6.275739521e-02    2.415899374e-02
     2441750000   -6.320927292e-02    1.945178397e-02
     2442500000   -6.319966912e-02    1.555868331e-02
     2443250000   -6.287210435e-02    1.172847301e-02
     2444000000   -6.284004450e-02    8.100311272e-03
     2444750000   -6.178700551e-02    3.202912165e-03
     2445500000   -6.065998226e-02   -9.475198458e-04
     2446250000   -5.961914361e-02   -4.609121475e-03
     2447000000   -5.868683755e-02   -7.913776673e-03
     2447750000   -5.661665648e-02   -1.211594976e-02
     2448500000   -5.497299507e-02   -1.505679358e-02
     2449250000   -5.293578282e-02   -1.848982833e-02
     2450000000   -5.085298792e-02   -2.173669823e-02
     2450750000   -4.940529913e-02   -2.441883832e-02
     2451500000   -4.686425254e-02   -2.734561078e-02
     2452250000   -4.460003600e-02   -3.012602031e-02
     2453000000   -4.211937636e-02   -3.327877447e-02
     2453750000   -3.934351727e-02   -3.535960242e-02
     2454500000   -3.697835654e-02   -3.785886616e-02
     2455250000   -3.478255495e-02   -4.015180841e-02
     2456000000   -3.280596808e-02   -4.267374054e-02
     2456750000   -2.889068797e-02   -4.418142140e-02
     2457500000   -2.697128057e-02   -4.672445357e-02
     2458250000   -2.389372140e-02   -4.803130403e-02
     2459000000   -2.109217644e-02   -5.057508126e-02
     2459750000   -1.784570515e-02   -5.170147493e-02
     2460500000   -1.485373359e-02   -5.272322521e-02
     2461250000   -1.195746008e-02   -5.438917503e-02
     2462000000   -9.331775829e-03   -5.571121350e-02
     2462750000   -5.534235388e-03   -5.629044026e-02
     2463500000   -2.139018383e-03   -5.773057789e-02
     2464250000    1.329351449e-03   -5.729109794e-02
     2465000000    4.369480535e-03   -5.954064056e-02
     2465750000    8.431857452e-03   -5.926249176e-02
     2466500000    1.188707910e-02   -6.052568182e-02
     2467250000    1.565735787e-02   -5.981465429e-02
     2468000000    1.988252811e-02   -6.136673316e-02
     2468750000    2.274047956e-02   -5.963003263e-02
     2469500000    2.700787410e-02   -6.035542488e-02
     2470250000    3.135677055e-02   -6.002976000e-02
     2471000000    3.543305770e-02   -5.934598669e-02
     2471750000    3.812563419e-02   -5.814452469e-02
     2472500000    4.353883490e-02   -5.709308758e-02
     2473250000    4.650362581e-02   -5.529737100e-02
     2474000000    5.053680018e-02   -5.323673412e-02
     2474750000    5.441991985e-02   -5.091295391e-02
     2475500000    5.806539580e-02   -4.803280532e-02
     2476250000    6.188766658e-02   -4.582909122e-02
     2477000000    6.592729688e-02   -4.251788184e-02
     2477750000    6.962381303e-02   -3.872522712e-02
     2478500000    7.295080274e-02   -3.524175286e-02
     2479250000    7.634250075e-02   -3.117928654e-02
     2480000000    7.845312357e-02   -2.664557099e-02
     2480750000    8.170121163e-02   -2.170875669e-02
     2481500000    8.319202811e-02   -1.729553752e-02
     2482250000    8.558792621e-02   -1.193445735e-02
     2483000000    8.650964499e-02   -5.963619333e-03
     2483750000    8.815858513e-02   -2.080916165e-04
     2484500000    8.896330744e-02    5.719840061e-03
     2485250000    8.928439021e-02    1.196242403e-02
     2486000000    8.985586464e-02    1.928047091e-02
     2486750000    8.870755136e-02    2.421544492e-02
     2487500000    8.810727298e-02    3.057088330e-02
     2488250000    8.666412532e-02    3.821743652e-02
     2489000000    8.424951881e-02    4.334154725e-02
     2489750000    8.200096339e-02    4.966634512e-02
     2490500000    7.848730683e-02    5.875328183e-02
     2491250000    7.442049682e-02    6.466680020e-02
     2492000000    7.083927840e-02    6.887739897e-02
     2492750000    6.502194703e-02    7.734636217e-02
     2493500000    5.973417312e-02    8.199995011e-02
     2494250000    5.364723131e-02    8.762901276e-02
     2495000000    4.813224450e-02    9.163607657e-02
     2495750000    4.041686654e-02    9.700383991e-02
     2496500000    3.234845027e-02    1.017599478e-01
     2497250000    2.720966190e-02    1.032990813e-01
     2498000000    1.736762002e-02    1.083871126e-01
     2498750000    7.550735027e-03    1.108588874e-01
     2499500000   -2.034016215e-04    1.124379560e-01
     2500250000   -8.105168119e-03    1.137186661e-01
     2501000000   -1.969971135e-02    1.152595729e-01
     2501750000   -2.724018693e-02    1.145058349e-01
     2502500000   -3.915761411e-02    1.135839522e-01
     2503250000   -4.448698089e-02    1.118453816e-01
     2504000000   -5.526212230e-02    1.096461415e-01
     2504750000   -6.534815580e-02    1.062150896e-01
     2505500000   -7.345665246e-02    1.024666727e-01
     2506250000   -8.438570052e-02    9.694380313e-02
     2507000000   -9.191425890e-02    9.126201272e-02
     2507750000   -9.846682847e-02    8.669320494e-02
     2508500000   -1.072432399e-01    7.895687222e-02
     2509250000   -1.141856909e-01    7.066737860e-02
     2510000000   -1.189480647e-01    6.414725631e-02
     2510750000   -1.251627803e-01    5.518407002e-02
     2511500000   -1.324300468e-01    4.255179688e-02
     2512250000   -1.350629479e-01    3.457266465e-02
     2513000000   -1.379460245e-01    2.584426105e-02
     2513750000   -1.410128176e-01    1.417578571e-02
     2514500000   -1.422634125e-01    2.142424230e-03
     2515250000   -1.422184557e-01   -9.032761678e-03
     2516000000   -1.424971074e-01   -1.950023137e-02
     2516750000   -1.406092495e-01   -3.241639957e-02
     2517500000   -1.375799775e-01   -4.408743605e-02
     2518250000   -1.352223605e-01   -5.438022316e-02
     2519000000   -1.306426376e-01   -6.541743875e-02
     2519750000   -1.252576709e-01   -7.723724097e-02
     2520500000   -1.194760874e-01   -8.797065914e-02
     2521250000   -1.130974144e-01   -9.685304016e-02
     2522000000   -1.037616506e-01   -1.086388528e-01
     2522750000   -9.460305423e-02   -1.173120365e-01
     2523500000   -8.597893268e-02   -1.256788671e-01
     2524250000   -7.490306348e-02   -1.331427693e-01
     2525000000   -6.544922292e-02   -1.393490136e-01
     2525750000   -5.131532252e-02   -1.459084451e-01
     2526500000   -3.915934265e-02   -1.506637782e-01
     2527250000   -2.934562042e-02   -1.538040489e-01
     2528000000   -1.390139945e-02   -1.582189202e-01
     2528750000   -1.085327822e-03   -1.589779407e-01
     2529500000    1.276660990e-02   -1.596196592e-01
     2530250000    2.591533959e-02   -1.594323367e-01
     2531000000    3.912268579e-02   -1.578301787e-01
     2531750000    5.343177915e-02   -1.550515443e-01
     2532500000    6.711895764e-02   -1.511149257e-01
     2533250000    7.963914424e-02   -1.461068690e-01
     2534000000    9.237099439e-02   -1.398536563e-01
     2534750000    1.044382676e-01   -1.334147900e-01
     2535500000    1.151437908e-01   -1.240296811e-01
     2536250000    1.267129481e-01   -1.156696156e-01
     2537000000    1.371060908e-01   -1.051881462e-01
     2537750000    1.471874267e-01   -9.325034916e-02
     2538500000    1.550201178e-01   -8.214416355e-02
     2539250000    1.629729569e-01   -6.872997433e-02
     2540000000    1.683446020e-01   -5.575366691e-02
     2540750000    1.736027300e-01   -4.217189923e-02
     2541500000    1.778704524e-01   -2.716802061e-02
     2542250000    1.806448698e-01   -1.193822175e-02
     2543000000    1.822910011e-01    2.898834646e-03
     2543750000    1.828321964e-01    1.719269343e-02
     2544500000    1.815255582e-01    3.427818045e-02
     2545250000    1.794576794e-01    4.793252796e-02
     2546000000    1.753456444e-01    6.331250072e-02
     2546750000    1.707329154e-01    7.718861848e-02
     2547500000    1.637020558e-01    9.170214832e-02
     2548250000    1.562596709e-01    1.054694057e-01
     2549000000    1.491968930e-01    1.161427423e-01
     2549750000    1.366573572e-01    1.315487623e-01
     2550500000    1.286380738e-01    1.406800747e-01
     2551250000    1.160954386e-01    1.523032635e-01
     2552000000    1.042797342e-01    1.613409817e-01
     2552750000    8.915854990e-02    1.708043814e-01
     2553500000    7.661659271e-02    1.772767305e-01
     2554250000    6.055852026e-02    1.843796968e-01
     2555000000    4.801182076e-02    1.887261271e-01
     2555750000    2.915976197e-02    1.924685985e-01
     2556500000    1.295203622e-02    1.949484348e-01
     2557250000   -3.525741340e-04    1.953868419e-01
     2558000000   -1.788947172e-02    1.945769489e-01
     2558750000   -3.639616072e-02    1.920741498e-01
     2559500000   -5.086017027e-02    1.899624467e-01
     2560250000   -6.491282582e-02    1.859992892e-01
     2561000000   -8.254041523e-02    1.784932166e-01
     2561750000   -9.626092762e-02    1.723178327e-01
     2562500000   -1.113951951e-01    1.629021615e-01
     2563250000   -1.238017827e-01    1.538899988e-01
     2564000000   -1.370497346e-01    1.419480443e-01
     2564750000   -1.478503942e-01    1.300501227e-01
     2565500000   -1.592426449e-01    1.156226024e-01
     2566250000   -1.677865237e-01    1.049745604e-01
     2567000000   -1.761094034e-01    8.860771358e-02
     2567750000   -1.827091426e-01    7.670494169e-02
     2568500000   -1.880443692e-01    5.770262703e-02
     2569250000   -1.922505349e-01    4.224434868e-02
     2570000000   -1.954051405e-01    2.505762503e-02
     2570750000   -1.961113065e-01    8.696574718e-03
     2571500000   -1.960649341e-01   -8.402797394e-03
     2572250000   -1.938564479e-01   -2.470014617e-02
     2573000000   -1.917095780e-01   -4.201357812e-02
     2573750000   -1.867509484e-01   -5.788764730e-02
     2574500000   -1.808941811e-01   -7.397107035e-02
     2575250000   -1.735944599e-01   -8.917008340e-02
     2576000000   -1.648220420e-01   -1.038487107e-01
     2576750000   -1.540253907e-01   -1.176429689e-01
     2577500000   -1.413406879e-01   -1.309470534e-01
     2578250000   -1.309894472e-01   -1.419111043e-01
     2579000000   -1.168778762e-01   -1.533970684e-01
     2579750000   -1.036280766e-01   -1.626368016e-01
     2580500000   -8.840126544e-02   -1.709723622e-01
     2581250000   -7.271730900e-02   -1.781216413e-01
     2582000000   -5.710729584e-02   -1.832375824e-01
     2582750000   -3.880571574e-02   -1.878600866e-01
     2583500000   -2.394961379e-02   -1.909905523e-01
     2584250000   -5.256581586e-03   -1.916341633e-01
     2585000000    1.141658239e-02   -1.916019469e-01
     2585750000    2.964979410e-02   -1.892138273e-01
     2586500000    4.380644485e-02   -1.876868755e-01
     2587250000    6.133653596e-02   -1.817657053e-01
     2588000000    7.762631029e-02   -1.749937087e-01
     2588750000    9.138227999e-02   -1.694174260e-01
     2589500000    1.074872464e-01   -1.577105373e-01
     2590250000    1.205093414e-01   -1.486431360e-01
     2591000000    1.326590180e-01   -1.400696933e-01
     2591750000    1.443518400e-01   -1.243385077e-01
     2592500000    1.547012478e-01   -1.117102951e-01
     2593250000    1.633865386e-01   -9.567686170e-02
     2594000000    1.718644649e-01   -8.182536811e-02
     2594750000    1.779607683e-01   -6.569540501e-02
     2595500000    1.826851070e-01   -4.901435599e-02
     2596250000    1.868424267e-01   -3.285282478e-02
     2597000000    1.881561726e-01   -1.488971151e-02
     2597750000    1.893395334e-01    1.108921017e-03
     2598500000    1.876252294e-01    1.856890321e-02
     2599250000    1.848288476e-01    3.590984270e-02
     2600000000    1.809709370e-01    5.182829499e-02
