! NanoVNA-App
! Date: 2026-05-22 18:18:02
! Start: 4.8GHz Stop: 6GHz Points: 401
! S-Parameter data: F S11
# Hz S RI R 50
!     Frequency           S11_Real           S11_Imag
     4800000000    2.538278699e-01   -5.323203206e-01
     4803000000    4.239008427e-01   -4.133923650e-01
     4806000000    5.355353355e-01   -2.485439181e-01
     4809000000    5.929681659e-01   -4.336892068e-02
     4812000000    5.704983473e-01    1.574145854e-01
     4815000000    4.820230305e-01    3.461783230e-01
     4818000000    3.373790383e-01    4.850887358e-01
     4821000000    1.496531516e-01    5.728067756e-01
     4824000000   -5.186109990e-02    5.906542540e-01
     4827000000   -2.505705357e-01    5.346838832e-01
     4830000000   -4.133582115e-01    4.186336100e-01
     4833000000   -5.312657952e-01    2.512741089e-01
     4836000000   -5.847247243e-01    5.389690772e-02
     4839000000   -5.653865337e-01   -1.456097513e-01
     4842000000   -4.803014398e-01   -3.258485794e-01
     4845000000   -3.401101232e-01   -4.708734453e-01
     4848000000   -1.605810076e-01   -5.540656447e-01
     4851000000    4.236450791e-02   -5.768009424e-01
     4854000000    2.255544811e-01   -5.255420208e-01
     4857000000    3.971471786e-01   -4.153716266e-01
     4860000000    5.093240738e-01   -2.583461106e-01
     4863000000    5.664544702e-01   -6.382445246e-02
     4866000000    5.527099967e-01    1.256530881e-01
     4869000000    4.746642113e-01    2.956306338e-01
     4872000000    3.444179595e-01    4.430082142e-01
     4875000000    1.745052785e-01    5.285481215e-01
     4878000000   -2.003356442e-02    5.539339781e-01
     4881000000   -1.944623291e-01    5.115021467e-01
     4884000000   -3.628874719e-01    4.106196761e-01
     4887000000   -4.714806378e-01    2.637798488e-01
     4890000000   -5.303116441e-01    8.923247457e-02
     4893000000   -5.253362060e-01   -1.003000736e-01
     4896000000   -4.577586055e-01   -2.680062652e-01
     4899000000   -3.426605761e-01   -3.972839117e-01
     4902000000   -1.792220771e-01   -4.927925766e-01
     4905000000   -4.791652318e-03   -5.201373100e-01
     4908000000    1.689529270e-01   -4.877800345e-01
     4911000000    3.256389499e-01   -3.982084990e-01
     4914000000    4.337041378e-01   -2.643606663e-01
     4917000000    4.949961007e-01   -1.030564681e-01
     4920000000    4.947996438e-01    6.858225167e-02
     4923000000    4.402206242e-01    2.329021394e-01
     4926000000    3.334142566e-01    3.679708540e-01
     4929000000    1.971274316e-01    4.473438561e-01
     4932000000    1.461767685e-02    4.926079512e-01
     4935000000   -1.306566745e-01    4.635448754e-01
     4938000000   -2.781075239e-01    3.877258599e-01
     4941000000   -3.928966522e-01    2.660684288e-01
     4944000000   -4.536019564e-01    1.167045683e-01
     4947000000   -4.623735845e-01   -3.522804007e-02
     4950000000   -4.126154482e-01   -1.991899312e-01
     4953000000   -3.221931756e-01   -3.196259737e-01
     4956000000   -1.891703755e-01   -4.091411531e-01
     4959000000   -4.954684898e-02   -4.395904839e-01
     4962000000    1.075331047e-01   -4.269621968e-01
     4965000000    2.394013256e-01   -3.626261055e-01
     4968000000    3.449964225e-01   -2.564152181e-01
     4971000000    4.044892192e-01   -1.266240329e-01
     4974000000    4.200460017e-01    1.799351349e-02
     4977000000    3.775248230e-01    1.664985418e-01
     4980000000    3.016964495e-01    2.760524154e-01
     4983000000    1.839561015e-01    3.588831127e-01
     4986000000    5.186748505e-02    3.959014416e-01
     4989000000   -8.985818177e-02    3.822259307e-01
     4992000000   -2.102987468e-01    3.288376927e-01
     4995000000   -3.076322079e-01    2.328327298e-01
     4998000000   -3.631025255e-01    1.156756654e-01
     5001000000   -3.781918287e-01   -1.098398864e-02
     5004000000   -3.433572054e-01   -1.424476355e-01
     5007000000   -2.673795223e-01   -2.493054569e-01
     5010000000   -1.752548963e-01   -3.180596232e-01
     5013000000   -3.455837816e-02   -3.551163673e-01
     5016000000    7.062725723e-02   -3.484373689e-01
     5019000000    1.884081811e-01   -2.945501506e-01
     5022000000    2.713678777e-01   -2.148090005e-01
     5025000000    3.254258633e-01   -1.020113677e-01
     5028000000    3.372071981e-01    1.162953023e-02
     5031000000    3.102406859e-01    1.214730889e-01
     5034000000    2.449357510e-01    2.186270356e-01
     5037000000    1.529474407e-01    2.848062217e-01
     5040000000    3.460050747e-02    3.140463233e-01
     5043000000   -6.422305852e-02    3.082540631e-01
     5046000000   -1.686035693e-01    2.608712614e-01
     5049000000   -2.419813871e-01    1.901188046e-01
     5052000000   -2.887105048e-01    9.156907350e-02
     5055000000   -2.989636958e-01   -9.501662105e-03
     5058000000   -2.721666396e-01   -1.126592085e-01
     5061000000   -2.142930627e-01   -1.929661930e-01
     5064000000   -1.349094659e-01   -2.507114410e-01
     5067000000   -3.686533496e-02   -2.750698626e-01
     5070000000    5.720176920e-02   -2.679812312e-01
     5073000000    1.447941810e-01   -2.254687995e-01
     5076000000    2.102355063e-01   -1.582021862e-01
     5079000000    2.463577092e-01   -7.645858079e-02
     5082000000    2.528037131e-01    1.319752540e-02
     5085000000    2.250876576e-01    9.707011282e-02
     5088000000    1.701620221e-01    1.638685316e-01
     5091000000    1.073863134e-01    2.102512121e-01
     5094000000    2.552137896e-02    2.289027423e-01
     5097000000   -5.495731160e-02    2.160336524e-01
     5100000000   -1.216456071e-01    1.803300530e-01
     5103000000   -1.744104177e-01    1.223213151e-01
     5106000000   -2.011156529e-01    5.574335903e-02
     5109000000   -1.978744566e-01   -2.346062288e-02
     5112000000   -1.821150631e-01   -8.848327398e-02
     5115000000   -1.301886737e-01   -1.389549226e-01
     5118000000   -7.084974647e-02   -1.710629910e-01
     5121000000   -8.166309446e-03   -1.872364134e-01
     5124000000    5.409370735e-02   -1.723705530e-01
     5127000000    1.057984158e-01   -1.336158961e-01
     5130000000    1.453071982e-01   -8.947847039e-02
     5133000000    1.593042463e-01   -3.227950260e-02
     5136000000    1.580123603e-01    2.309836447e-02
     5139000000    1.315393150e-01    7.476684451e-02
     5142000000    9.246030450e-02    1.110460609e-01
     5145000000    4.460584000e-02    1.314180493e-01
     5148000000   -4.097060766e-03    1.355284899e-01
     5151000000   -5.163686350e-02    1.222423837e-01
     5154000000   -8.543590456e-02    9.115597606e-02
     5157000000   -1.080422699e-01    5.456891656e-02
     5160000000   -1.145385057e-01    1.276133116e-02
     5163000000   -1.065112427e-01   -2.908677794e-02
     5166000000   -8.361765742e-02   -5.819709599e-02
     5169000000   -5.270458013e-02   -8.033426106e-02
     5172000000   -1.892807335e-02   -8.977796882e-02
     5175000000    1.213087793e-02   -8.131911606e-02
     5178000000    4.619267210e-02   -6.964859366e-02
     5181000000    5.963793769e-02   -4.347511008e-02
     5184000000    6.911614537e-02   -1.689238474e-02
     5187000000    5.809802935e-02    4.722000100e-03
     5190000000    5.132317543e-02    3.236769140e-02
     5193000000    3.123650886e-02    4.055862874e-02
     5196000000    9.555263445e-03    4.698793963e-02
     5199000000   -1.079780422e-02    4.438774660e-02
     5202000000   -2.048433386e-02    2.665421367e-02
     5205000000   -2.772114240e-02    1.097661909e-02
     5208000000   -2.623222768e-02   -4.797729664e-03
     5211000000   -2.243878506e-02   -2.187538706e-02
     5214000000   -5.476602353e-03   -2.632978372e-02
     5217000000    1.029054541e-02   -2.835163288e-02
     5220000000    2.644211799e-02   -2.263574302e-02
     5223000000    3.788270801e-02   -7.843928412e-03
     5226000000    4.103571177e-02    1.318107359e-02
     5229000000    3.735775873e-02    3.200905398e-02
     5232000000    2.273548022e-02    4.925154895e-02
     5235000000    5.113468971e-03    6.159496680e-02
     5238000000   -2.001705766e-02    6.323442608e-02
     5241000000   -4.604412243e-02    5.336061120e-02
     5244000000   -6.690909714e-02    3.173159063e-02
     5247000000   -8.209465444e-02    1.100116502e-02
     5250000000   -8.029420674e-02   -2.534509264e-02
     5253000000   -6.675499678e-02   -5.650060996e-02
     5256000000   -4.818397015e-02   -8.245577663e-02
     5259000000   -1.271928940e-02   -9.546533227e-02
     5262000000    2.341626585e-02   -1.025785878e-01
     5265000000    6.238488480e-02   -8.923093230e-02
     5268000000    9.315928817e-02   -6.682099402e-02
     5271000000    1.145775318e-01   -2.765826322e-02
     5274000000    1.186702326e-01    1.770654693e-02
     5277000000    1.144213080e-01    6.001449004e-02
     5280000000    8.335528523e-02    9.910219908e-02
     5283000000    5.140952393e-02    1.305215657e-01
     5286000000    1.631695777e-03    1.418208331e-01
     5289000000   -5.063900352e-02    1.357475370e-01
     5292000000   -9.789766371e-02    1.114902198e-01
     5295000000   -1.342283785e-01    7.411503047e-02
     5298000000   -1.524803936e-01    1.573261246e-02
     5301000000   -1.544573009e-01   -3.833164647e-02
     5304000000   -1.379541606e-01   -9.227722138e-02
     5307000000   -9.748061001e-02   -1.362341940e-01
     5310000000   -4.368584231e-02   -1.646094918e-01
     5313000000    1.447418705e-02   -1.825159788e-01
     5316000000    8.226352930e-02   -1.610386372e-01
     5319000000    1.344202906e-01   -1.253110468e-01
     5322000000    1.727515459e-01   -7.137442380e-02
     5325000000    1.898684800e-01   -6.422925740e-03
     5328000000    1.825711429e-01    6.139073521e-02
     5331000000    1.495076865e-01    1.243766844e-01
     5334000000    9.727627784e-02    1.701692641e-01
     5337000000    3.340391442e-02    1.948269308e-01
     5340000000   -3.765312210e-02    1.977280080e-01
     5343000000   -1.041121855e-01    1.692773849e-01
     5346000000   -1.604400724e-01    1.267957687e-01
     5349000000   -1.942656934e-01    6.132565066e-02
     5352000000   -2.024940252e-01   -1.075850520e-02
     5355000000   -1.898571700e-01   -8.173797280e-02
     5358000000   -1.492937058e-01   -1.450273246e-01
     5361000000   -8.850079775e-02   -1.912484169e-01
     5364000000   -1.967016235e-02   -2.145296186e-01
     5367000000    5.923681334e-02   -1.971354485e-01
     5370000000    1.293361485e-01   -1.779957265e-01
     5373000000    1.781210750e-01   -1.139193401e-01
     5376000000    2.034488022e-01   -4.152430221e-02
     5379000000    2.143421173e-01    3.387822211e-02
     5382000000    1.702056080e-01    1.006384194e-01
     5385000000    1.283134818e-01    1.598228514e-01
     5388000000    6.287986040e-02    2.036919743e-01
     5391000000   -1.035783999e-02    2.104946077e-01
     5394000000   -8.453201503e-02    1.920357049e-01
     5397000000   -1.531867832e-01    1.515024900e-01
     5400000000   -1.983291358e-01    8.689538389e-02
     5403000000   -2.073487341e-01    1.019888092e-02
     5406000000   -2.035152316e-01   -6.522211432e-02
     5409000000   -1.635245979e-01   -1.322687864e-01
     5412000000   -1.058323607e-01   -1.862729341e-01
     5415000000   -3.182201460e-02   -2.109832764e-01
     5418000000    4.478712752e-02   -2.057138979e-01
     5421000000    1.187820584e-01   -1.776059717e-01
     5424000000    1.703138351e-01   -1.233140752e-01
     5427000000    1.954285502e-01   -5.257587880e-02
     5430000000    2.142528594e-01    2.643413283e-02
     5433000000    1.853385121e-01    9.764289111e-02
     5436000000    1.407776028e-01    1.629687250e-01
     5439000000    7.195377350e-02    1.917450428e-01
     5442000000   -4.250543192e-03    2.084894925e-01
     5445000000   -7.786754519e-02    1.910800934e-01
     5448000000   -1.395677030e-01    1.497938782e-01
     5451000000   -1.800915301e-01    8.748061210e-02
     5454000000   -1.990462393e-01    1.318680029e-02
     5457000000   -1.876004934e-01   -6.010128930e-02
     5460000000   -1.544315666e-01   -1.280350238e-01
     5463000000   -9.414455295e-02   -1.703141928e-01
     5466000000   -2.561628819e-02   -1.902220696e-01
     5469000000    4.883585125e-02   -1.892369092e-01
     5472000000    1.078558713e-01   -1.520932019e-01
     5475000000    1.653074622e-01   -1.009868160e-01
     5478000000    1.866800338e-01   -3.417935222e-02
     5481000000    1.882070005e-01    4.100556299e-02
     5484000000    1.571057290e-01    1.060384884e-01
     5487000000    1.080964953e-01    1.632574797e-01
     5490000000    4.004994035e-02    1.845959723e-01
     5493000000   -3.259250894e-02    1.879284382e-01
     5496000000   -1.034665853e-01    1.644807905e-01
     5499000000   -1.569400579e-01    1.155888438e-01
     5502000000   -1.950830817e-01    4.695435613e-02
     5505000000   -1.965338141e-01   -2.471733280e-02
     5508000000   -1.756854802e-01   -9.820686281e-02
     5511000000   -1.281113923e-01   -1.546003371e-01
     5514000000   -6.432287395e-02   -1.878719032e-01
     5517000000    1.480346546e-02   -2.022012770e-01
     5520000000    9.095176309e-02   -1.856378317e-01
     5523000000    1.505030096e-01   -1.389500946e-01
     5526000000    1.857590973e-01   -7.606871426e-02
     5529000000    2.053339630e-01    4.528230987e-03
     5532000000    1.902107447e-01    7.958005369e-02
     5535000000    1.481139809e-01    1.443047374e-01
     5538000000    8.554598689e-02    1.868044138e-01
     5541000000    7.446233183e-03    2.096450329e-01
     5544000000   -7.251802832e-02    1.992580742e-01
     5547000000   -1.389473975e-01    1.596403271e-01
     5550000000   -1.980029196e-01    9.359812737e-02
     5553000000   -2.169838846e-01    1.906202361e-02
     5556000000   -2.126937509e-01   -6.469099224e-02
     5559000000   -1.771463454e-01   -1.390054822e-01
     5562000000   -1.139903665e-01   -1.973261982e-01
     5565000000   -3.433391824e-02   -2.311164290e-01
     5568000000    5.318178982e-02   -2.314296365e-01
     5571000000    1.360438019e-01   -1.975934058e-01
     5574000000    1.950315386e-01   -1.391000003e-01
     5577000000    2.380350828e-01   -5.457945913e-02
     5580000000    2.470470071e-01    3.773683682e-02
     5583000000    2.191685140e-01    1.258859634e-01
     5586000000    1.615695357e-01    1.983769238e-01
     5589000000    8.261288702e-02    2.438762486e-01
     5592000000   -1.452909037e-02    2.600141764e-01
     5595000000   -1.026948467e-01    2.391251177e-01
     5598000000   -1.854012460e-01    1.860631406e-01
     5601000000   -2.442583740e-01    1.045419276e-01
     5604000000   -2.682074606e-01    1.186165307e-02
     5607000000   -2.564790845e-01   -8.461131155e-02
     5610000000   -2.094017565e-01   -1.758812070e-01
     5613000000   -1.314751953e-01   -2.436667681e-01
     5616000000   -3.772516921e-02   -2.752678990e-01
     5619000000    6.854169071e-02   -2.739243805e-01
     5622000000    1.602376103e-01   -2.357468605e-01
     5625000000    2.368471324e-01   -1.644736379e-01
     5628000000    2.838104069e-01   -6.412292272e-02
     5631000000    2.913752198e-01    3.459655493e-02
     5634000000    2.591360509e-01    1.447754502e-01
     5637000000    1.901610494e-01    2.294858098e-01
     5640000000    1.033038571e-01    2.841958404e-01
     5643000000   -1.074299403e-02    3.024818897e-01
     5646000000   -1.162573844e-01    2.821828723e-01
     5649000000   -2.106207013e-01    2.253642231e-01
     5652000000   -2.769466639e-01    1.384923160e-01
     5655000000   -3.092689216e-01    2.481787466e-02
     5658000000   -3.017617464e-01   -8.600167930e-02
     5661000000   -2.479382902e-01   -1.888066977e-01
     5664000000   -1.707176268e-01   -2.650563121e-01
     5667000000   -6.712234765e-02   -3.109967709e-01
     5670000000    5.017837882e-02   -3.141336143e-01
     5673000000    1.600483060e-01   -2.763569951e-01
     5676000000    2.497436106e-01   -2.022920698e-01
     5679000000    3.056757748e-01   -1.004913822e-01
     5682000000    3.235694766e-01    1.713700220e-02
     5685000000    2.915839851e-01    1.316621900e-01
     5688000000    2.348086089e-01    2.279060483e-01
     5691000000    1.319929659e-01    2.972129881e-01
     5694000000    1.194898784e-02    3.211635649e-01
     5697000000   -9.924611449e-02    3.171682358e-01
     5700000000   -2.049251050e-01    2.513301969e-01
     5703000000   -2.879266143e-01    1.693015993e-01
     5706000000   -3.253581226e-01    5.119466409e-02
     5709000000   -3.190172315e-01   -6.627676636e-02
     5712000000   -2.787884176e-01   -1.775800735e-01
     5715000000   -2.022967488e-01   -2.689689100e-01
     5718000000   -8.915939182e-02   -3.224053383e-01
     5721000000    3.243453801e-02   -3.299835622e-01
     5724000000    1.478017271e-01   -2.993935943e-01
     5727000000    2.463283390e-01   -2.281888127e-01
     5730000000    3.123543262e-01   -1.234175414e-01
     5733000000    3.372216523e-01   -3.038380528e-03
     5736000000    3.166317046e-01    1.197069883e-01
     5739000000    2.595252693e-01    2.263088673e-01
     5742000000    1.558249593e-01    2.958901525e-01
     5745000000    3.990876302e-02    3.389786482e-01
     5748000000   -8.122441918e-02    3.350495696e-01
     5751000000   -1.946027577e-01    2.764636278e-01
     5754000000   -2.936220765e-01    1.989923567e-01
     5757000000   -3.259446323e-01    7.557824999e-02
     5760000000   -3.449435532e-01   -4.939225316e-02
     5763000000   -3.039025962e-01   -1.658048928e-01
     5766000000   -2.247343361e-01   -2.606245875e-01
     5769000000   -1.122889817e-01   -3.245833218e-01
     5772000000    6.607463583e-03   -3.347293735e-01
     5775000000    1.375699937e-01   -3.254279792e-01
     5778000000    2.352697104e-01   -2.544569075e-01
     5781000000    3.142749071e-01   -1.556045115e-01
     5784000000    3.438185751e-01   -3.286441416e-02
     5787000000    3.364011943e-01    9.384614229e-02
     5790000000    2.811688781e-01    2.052906156e-01
     5793000000    1.906690747e-01    2.938735783e-01
     5796000000    7.277750224e-02    3.439728916e-01
     5799000000   -5.270894244e-02    3.461798728e-01
     5802000000   -1.733030379e-01    3.054100871e-01
     5805000000   -2.677277327e-01    2.229635715e-01
     5808000000   -3.308659792e-01    1.150381342e-01
     5811000000   -3.550337553e-01   -1.205671951e-02
     5814000000   -3.214500546e-01   -1.267677546e-01
     5817000000   -2.556884885e-01   -2.413628697e-01
     5820000000   -1.540930122e-01   -3.076407313e-01
     5823000000   -3.026843071e-02   -3.484488130e-01
     5826000000    9.018810838e-02   -3.292181194e-01
     5829000000    2.053701431e-01   -2.797656059e-01
     5832000000    2.881414890e-01   -1.873976439e-01
     5835000000    3.320130408e-01   -7.335632294e-02
     5838000000    3.359260559e-01    4.828867689e-02
     5841000000    2.945945263e-01    1.650278717e-01
     5844000000    2.173234969e-01    2.501161098e-01
     5847000000    1.111649796e-01    3.147559762e-01
     5850000000   -4.971764516e-03    3.274611533e-01
     5853000000   -1.240563616e-01    3.045649827e-01
     5856000000   -2.186833173e-01    2.388285995e-01
     5859000000   -2.894526422e-01    1.431488097e-01
     5862000000   -3.188128471e-01    3.126464784e-02
     5865000000   -3.049510419e-01   -8.169329166e-02
     5868000000   -2.528901100e-01   -1.839467436e-01
     5871000000   -1.705382317e-01   -2.585813105e-01
     5874000000   -6.775560230e-02   -3.005478978e-01
     5877000000    4.609059542e-02   -3.015415668e-01
     5880000000    1.473402381e-01   -2.659372091e-01
     5883000000    2.266733348e-01   -1.924645901e-01
     5886000000    2.791161835e-01   -9.234277904e-02
     5889000000    2.768965960e-01   -3.919465467e-03
     5892000000    2.621103823e-01    1.187615320e-01
     5895000000    2.036658078e-01    1.771766692e-01
     5898000000    1.179060787e-01    2.490473986e-01
     5901000000    1.702806726e-02    2.751217782e-01
     5904000000   -7.081551105e-02    2.527301908e-01
     5907000000   -1.555098295e-01    2.069131881e-01
     5910000000   -2.070927173e-01    1.410430521e-01
     5913000000   -2.499017566e-01    4.191412777e-02
     5916000000   -2.471770197e-01   -4.437087104e-02
     5919000000   -2.064926475e-01   -1.241167784e-01
     5922000000   -1.438877285e-01   -1.880028546e-01
     5925000000   -6.351195276e-02   -2.255962938e-01
     5928000000    2.074923180e-02   -2.271808684e-01
     5931000000    1.085778773e-01   -1.977351755e-01
     5934000000    1.513141990e-01   -1.460208744e-01
     5937000000    2.051318437e-01   -6.723462045e-02
     5940000000    2.093887478e-01    1.003103144e-02
     5943000000    1.831276417e-01    7.450497150e-02
     5946000000    1.379728615e-01    1.376693845e-01
     5949000000    7.194761187e-02    1.810401529e-01
     5952000000    1.032455824e-02    1.827040166e-01
     5955000000   -7.780311257e-02    1.723922640e-01
     5958000000   -1.053786576e-01    1.351812333e-01
     5961000000   -1.575973034e-01    7.124641538e-02
     5964000000   -1.717621237e-01   -3.430302895e-04
     5967000000   -1.541452259e-01   -5.123070627e-02
     5970000000   -1.180644780e-01   -1.057010368e-01
     5973000000   -7.257058471e-02   -1.349267066e-01
     5976000000   -1.737214625e-02   -1.453470141e-01
     5979000000    5.603872240e-02   -1.415196955e-01
     5982000000    9.665049613e-02   -1.087072566e-01
     5985000000    1.351178437e-01   -5.499858782e-02
     5988000000    1.349838674e-01   -8.764049970e-03
     5991000000    1.267992109e-01    5.279820412e-02
     5994000000    9.243033081e-02    9.742597491e-02
     5997000000    4.757068679e-02    1.200973690e-01
     6000000000   -7.129867561e-03    1.282213181e-01
