! NanoVNA-App
! Date: 2026-05-22 18:17:18
! Start: 4.8GHz Stop: 6GHz Points: 401
! S-Parameter data: F S11
# Hz S RI R 50
!     Frequency           S11_Real           S11_Imag
     4800000000    1.517425328e-01   -5.683843493e-01
     4803000000    3.381895721e-01   -4.812343419e-01
     4806000000    4.770190418e-01   -3.364172578e-01
     4809000000    5.648237467e-01   -1.495978981e-01
     4812000000    5.781412125e-01    5.186931416e-02
     4815000000    5.232959390e-01    2.432969213e-01
     4818000000    4.084519744e-01    4.079677463e-01
     4821000000    2.427064925e-01    5.207610726e-01
     4824000000    5.254383013e-02    5.712677836e-01
     4827000000   -1.465250254e-01    5.524580479e-01
     4830000000   -3.221767247e-01    4.690837562e-01
              0    3.102878928e-01   -1.326019783e-02
              0    3.117048144e-01   -1.139963511e-02
              0    3.135597408e-01   -1.006575301e-02
              0    3.148523569e-01   -8.054571226e-03
     4845000000   -4.030207992e-01   -3.871512115e-01
     4848000000   -2.461020201e-01   -4.971147180e-01
     4851000000   -5.854852498e-02   -5.541966558e-01
     4854000000    1.295243502e-01   -5.374230742e-01
     4857000000    3.057523072e-01   -4.599671662e-01
     4860000000    4.361098111e-01   -3.315179646e-01
     4863000000    5.217762589e-01   -1.613575071e-01
     4866000000    5.441012383e-01    2.230497263e-02
     4869000000    5.014709830e-01    2.044730335e-01
     4872000000    4.051394761e-01    3.536643982e-01
     4875000000    2.490559220e-01    4.843590260e-01
     4878000000    8.090176433e-02    5.276855826e-01
     4881000000   -9.937433153e-02    5.218110681e-01
     4884000000   -2.777175009e-01    4.546463192e-01
     4887000000   -4.054563642e-01    3.346424997e-01
     4890000000   -4.934906662e-01    1.753855050e-01
     4893000000   -5.215632319e-01   -1.308610314e-03
     4896000000   -4.874887168e-01   -1.751009226e-01
     4899000000   -3.972900808e-01   -3.312441111e-01
     4902000000   -2.619786263e-01   -4.416087866e-01
     4905000000   -9.640745074e-02   -5.018106699e-01
     4908000000    7.848101109e-02   -5.001808405e-01
     4911000000    2.467031777e-01   -4.407664239e-01
     4914000000    3.737498522e-01   -3.321877420e-01
     4917000000    4.655952752e-01   -1.810233742e-01
     4920000000    4.956361353e-01   -1.110523753e-02
     4923000000    4.678460062e-01    1.597151905e-01
     4926000000    3.891623020e-01    2.950320840e-01
     4929000000    2.606416345e-01    4.138897359e-01
     4932000000    9.658928216e-02    4.794468582e-01
     4935000000   -5.385765806e-02    4.815376401e-01
     4938000000   -2.245895267e-01    4.289769530e-01
     4941000000   -3.434423804e-01    3.338018060e-01
     4944000000   -4.392613173e-01    1.878973544e-01
     4947000000   -4.717988670e-01    3.930255026e-02
     4950000000   -4.508819580e-01   -1.350850463e-01
     4953000000   -3.782906234e-01   -2.761362493e-01
     4956000000   -2.623909414e-01   -3.847779036e-01
     4959000000   -1.143414229e-01   -4.474759996e-01
     4962000000    4.219480231e-02   -4.571918845e-01
     4965000000    1.929695159e-01   -4.134427011e-01
     4968000000    3.228911757e-01   -3.192751408e-01
     4971000000    4.106023312e-01   -1.886631548e-01
     4974000000    4.469587803e-01   -4.165516794e-02
     4977000000    4.306019843e-01    1.130935922e-01
     4980000000    3.641890287e-01    2.547024786e-01
     4983000000    2.560277283e-01    3.581045866e-01
     4986000000    1.123253778e-01    4.229161441e-01
     4989000000   -3.678232059e-02    4.324623644e-01
     4992000000   -1.810780466e-01    3.944244683e-01
     4995000000   -3.051408827e-01    3.017743230e-01
     4998000000   -3.837670386e-01    1.890071779e-01
     5001000000   -4.237835109e-01    3.009984083e-02
     5004000000   -4.106999338e-01   -1.035100073e-01
     5007000000   -3.444419205e-01   -2.401867658e-01
     5010000000   -2.437707335e-01   -3.383337855e-01
     5013000000   -9.748737514e-02   -4.007480145e-01
     5016000000    3.319765627e-02   -4.086879194e-01
     5019000000    1.749598831e-01   -3.676384985e-01
     5022000000    2.854368091e-01   -2.861462533e-01
     5025000000    3.660926819e-01   -1.655796170e-01
     5028000000    3.982973993e-01   -2.535698935e-02
     5031000000    3.797841072e-01    1.089533195e-01
     5034000000    3.177128732e-01    2.330902368e-01
     5037000000    2.180332243e-01    3.252920806e-01
     5040000000    9.612707049e-02    3.780695796e-01
     5043000000   -4.681620002e-02    3.803769052e-01
     5046000000   -1.685481966e-01    3.446121812e-01
     5049000000   -2.748224139e-01    2.563637495e-01
     5052000000   -3.449759483e-01    1.486305594e-01
     5055000000   -3.717471361e-01    2.134353109e-02
     5058000000   -3.554916680e-01   -1.054354310e-01
     5061000000   -2.930131853e-01   -2.197410315e-01
     5064000000   -1.973531991e-01   -3.031792939e-01
     5067000000   -8.385723084e-02   -3.496302366e-01
     5070000000    4.332951829e-02   -3.505780697e-01
     5073000000    1.591913998e-01   -3.119018078e-01
     5076000000    2.551655769e-01   -2.332113087e-01
     5079000000    3.162724674e-01   -1.331472695e-01
     5082000000    3.334107697e-01   -1.178416423e-02
     5085000000    3.139906228e-01    1.033544391e-01
     5088000000    2.511649728e-01    2.039262652e-01
     5091000000    1.691099405e-01    2.747878134e-01
     5094000000    6.149551645e-02    3.131232560e-01
     5097000000   -5.304168537e-02    3.084828556e-01
     5100000000   -1.529769450e-01    2.675787210e-01
     5103000000   -2.323055416e-01    1.885890961e-01
     5106000000   -2.813062966e-01    9.939055890e-02
     5109000000   -2.929944396e-01   -7.479004562e-03
     5112000000   -2.755205333e-01   -1.055196002e-01
     5115000000   -2.127852291e-01   -1.898723394e-01
     5118000000   -1.255611330e-01   -2.433436811e-01
     5121000000   -3.711746261e-02   -2.768832743e-01
     5124000000    6.062291563e-02   -2.648402154e-01
     5127000000    1.458243728e-01   -2.182637602e-01
     5130000000    2.121807933e-01   -1.542372108e-01
     5133000000    2.444202751e-01   -6.836755574e-02
     5136000000    2.513573468e-01    2.109555900e-02
     5139000000    2.206150293e-01    1.064105555e-01
     5142000000    1.636912972e-01    1.692013443e-01
     5145000000    9.299142659e-02    2.148433030e-01
     5148000000    9.457167238e-03    2.292983085e-01
     5151000000   -6.832656264e-02    2.119077295e-01
     5154000000   -1.360774040e-01    1.708664447e-01
     5157000000   -1.811884791e-01    1.077008843e-01
     5160000000   -2.019015700e-01    3.576824814e-02
     5163000000   -1.970096529e-01   -3.595025837e-02
     5166000000   -1.654423028e-01   -1.007097736e-01
     5169000000   -1.123831049e-01   -1.449272782e-01
     5172000000   -5.104734376e-02   -1.765035391e-01
     5175000000    1.544092968e-02   -1.740773171e-01
     5178000000    7.857085764e-02   -1.549169868e-01
     5181000000    1.207782105e-01   -1.129646227e-01
     5184000000    1.524121612e-01   -6.044542789e-02
     5187000000    1.546211094e-01   -2.586653456e-03
     5190000000    1.457644254e-01    5.609475821e-02
     5193000000    1.108120605e-01    9.354931861e-02
     5196000000    6.597213447e-02    1.237107366e-01
     5199000000    1.324905176e-02    1.373824924e-01
     5202000000   -2.906136215e-02    1.222205758e-01
     5205000000   -7.117804140e-02    9.744547307e-02
     5208000000   -1.015692055e-01    6.170219555e-02
     5211000000   -1.078225300e-01    2.216849476e-02
     5214000000   -1.055823341e-01   -2.333268896e-02
     5217000000   -8.349204808e-02   -5.755988136e-02
     5220000000   -5.172899738e-02   -7.997060567e-02
     5223000000   -1.367672719e-02   -8.941987157e-02
     5226000000    2.231986821e-02   -8.480145782e-02
     5229000000    5.426391214e-02   -6.496806443e-02
     5232000000    6.964057684e-02   -3.511678427e-02
     5235000000    7.254072279e-02   -4.407392815e-03
     5238000000    6.559035182e-02    2.555427700e-02
     5241000000    4.595336318e-02    4.883355647e-02
     5244000000    1.913926005e-02    6.256496906e-02
     5247000000   -8.754748851e-03    5.952488631e-02
     5250000000   -3.921905160e-02    5.311385170e-02
     5253000000   -5.708239973e-02    3.046183288e-02
     5256000000   -6.186790019e-02    2.749831416e-03
     5259000000   -6.095495075e-02   -2.548164874e-02
     5262000000   -4.497519135e-02   -5.136077851e-02
     5265000000   -1.759754121e-02   -6.019953266e-02
     5268000000    1.145400293e-02   -7.439692318e-02
     5271000000    3.977935389e-02   -6.013302878e-02
     5274000000    6.741885841e-02   -4.463229328e-02
     5277000000    8.683400601e-02   -1.473935135e-02
     5280000000    8.069935441e-02    2.014222927e-02
     5283000000    7.266779244e-02    5.313310027e-02
     5286000000    4.560918361e-02    8.026060462e-02
     5289000000    1.314738765e-02    9.586125612e-02
     5292000000   -2.346845530e-02    9.487097710e-02
     5295000000   -6.292929500e-02    8.274472505e-02
     5298000000   -9.212359041e-02    5.522868410e-02
     5301000000   -1.108157411e-01    1.581701264e-02
     5304000000   -1.135477200e-01   -2.623241581e-02
     5307000000   -9.794091433e-02   -6.916429847e-02
     5310000000   -6.766508520e-02   -1.022561938e-01
     5313000000   -2.690586820e-02   -1.252444834e-01
     5316000000    2.291179821e-02   -1.293202490e-01
     5319000000    7.137772441e-02   -1.144711748e-01
     5322000000    1.118799224e-01   -8.352167159e-02
     5325000000    1.377469748e-01   -3.863004595e-02
     5328000000    1.463962942e-01    1.501982193e-02
     5331000000    1.343031824e-01    6.939505041e-02
     5334000000    1.035558060e-01    1.153410003e-01
     5337000000    5.646172538e-02    1.499191374e-01
     5340000000   -1.539116958e-03    1.611160189e-01
     5343000000   -5.938445032e-02    1.498967707e-01
     5346000000   -1.136403978e-01    1.223136708e-01
     5349000000   -1.516709775e-01    7.440943271e-02
     5352000000   -1.677561253e-01    1.444128715e-02
     5355000000   -1.656636149e-01   -4.850516468e-02
     5358000000   -1.486300528e-01   -1.133616939e-01
     5361000000   -9.277760983e-02   -1.580493301e-01
     5364000000   -2.935702540e-02   -1.785191298e-01
     5367000000    3.754182160e-02   -1.797025353e-01
     5370000000    1.032632589e-01   -1.603695154e-01
     5373000000    1.617867947e-01   -1.181514114e-01
     5376000000    1.843581647e-01   -4.913659766e-02
     5379000000    1.984381825e-01    2.067197673e-02
     5382000000    1.817147732e-01    9.113699198e-02
     5385000000    1.296662092e-01    1.432845891e-01
     5388000000    7.470730692e-02    1.941953152e-01
     5391000000    7.230556803e-04    2.053850740e-01
     5394000000   -7.372155786e-02    1.983734518e-01
     5397000000   -1.463572979e-01    1.616321355e-01
     5400000000   -1.979475915e-01    9.929900616e-02
     5403000000   -2.030001581e-01    2.282959595e-02
     5406000000   -2.145601511e-01   -5.711695179e-02
     5409000000   -1.798714250e-01   -1.297831535e-01
     5412000000   -1.242450103e-01   -1.898793429e-01
     5415000000   -4.828533158e-02   -2.220236808e-01
     5418000000    3.314819187e-02   -2.220996469e-01
     5421000000    1.124483794e-01   -2.002398968e-01
     5424000000    1.796142161e-01   -1.491198093e-01
     5427000000    2.111960202e-01   -7.335138321e-02
     5430000000    2.380584180e-01    1.124492101e-02
     5433000000    2.133909911e-01    9.134239703e-02
     5436000000    1.729972214e-01    1.710713804e-01
     5439000000    9.831102937e-02    2.101288438e-01
     5442000000    1.733754016e-02    2.377029061e-01
     5445000000   -6.932280213e-02    2.272321880e-01
     5448000000   -1.476277858e-01    1.898481846e-01
     5451000000   -1.970927268e-01    1.240512133e-01
     5454000000   -2.345323712e-01    4.082946852e-02
     5457000000   -2.328378856e-01   -4.607501626e-02
     5460000000   -2.017422765e-01   -1.267724484e-01
     5463000000   -1.427182704e-01   -1.889281273e-01
     5466000000   -6.524943560e-02   -2.258640826e-01
     5469000000    2.377825603e-02   -2.379035503e-01
     5472000000    1.020565405e-01   -2.101784945e-01
     5475000000    1.769637316e-01   -1.599559188e-01
     5478000000    2.221587002e-01   -8.521068096e-02
     5481000000    2.326414138e-01   -5.294370931e-03
     5484000000    2.173148543e-01    8.590241522e-02
     5487000000    1.716030091e-01    1.585747302e-01
     5490000000    9.917405248e-02    2.121889740e-01
     5493000000    1.236127224e-02    2.360164523e-01
     5496000000   -6.342878938e-02    2.197797149e-01
     5499000000   -1.422878504e-01    1.823999286e-01
     5502000000   -2.040305287e-01    1.144372448e-01
     5505000000   -2.294875234e-01    3.484068066e-02
     5508000000   -2.265615165e-01   -5.096698552e-02
     5511000000   -1.927612722e-01   -1.305544525e-01
     5514000000   -1.304209381e-01   -1.933747530e-01
     5517000000   -4.892214760e-02   -2.289046943e-01
     5520000000    3.805956617e-02   -2.315518409e-01
     5523000000    1.139716208e-01   -2.018265128e-01
     5526000000    1.881732494e-01   -1.430831105e-01
     5529000000    2.235238552e-01   -6.804814935e-02
     5532000000    2.338298559e-01    1.908448525e-02
     5535000000    2.114750445e-01    1.079940051e-01
     5538000000    1.614640802e-01    1.698478460e-01
     5541000000    8.645872772e-02    2.181629092e-01
     5544000000   -1.396926818e-03    2.351584733e-01
     5547000000   -8.295845240e-02    2.184768468e-01
     5550000000   -1.609995365e-01    1.703804731e-01
     5553000000   -2.103762478e-01    1.041296422e-01
     5556000000   -2.344684005e-01    1.448633149e-02
     5559000000   -2.230874747e-01   -7.295444608e-02
     5562000000   -1.825022697e-01   -1.494930089e-01
     5565000000   -1.136452034e-01   -2.068296522e-01
     5568000000   -2.918519452e-02   -2.355985940e-01
     5571000000    5.985073000e-02   -2.305054516e-01
     5574000000    1.366658658e-01   -1.963903308e-01
     5577000000    2.018539459e-01   -1.309289038e-01
     5580000000    2.363146096e-01   -4.631835595e-02
     5583000000    2.382828444e-01    4.696578160e-02
     5586000000    2.089325041e-01    1.257406920e-01
     5589000000    1.441389918e-01    1.972345859e-01
     5592000000    6.914690882e-02    2.367852181e-01
     5595000000   -2.341905795e-02    2.458494902e-01
     5598000000   -1.137771159e-01    2.183861881e-01
     5601000000   -1.872158945e-01    1.626168191e-01
     5604000000   -2.358497083e-01    8.306954801e-02
     5607000000   -2.513672411e-01    2.055079131e-05
     5610000000   -2.321059406e-01   -9.421243519e-02
     5613000000   -1.786526591e-01   -1.758867204e-01
     5616000000   -1.045236588e-01   -2.289944440e-01
     5619000000   -1.286369469e-02   -2.526751161e-01
     5622000000    7.960718870e-02   -2.407400161e-01
     5625000000    1.644216478e-01   -1.947220713e-01
     5628000000    2.255096883e-01   -1.191040725e-01
     5631000000    2.551593482e-01   -3.251176327e-02
     5634000000    2.483592778e-01    6.546734273e-02
     5637000000    2.082297802e-01    1.572232544e-01
     5640000000    1.384046525e-01    2.220647633e-01
     5643000000    5.041035637e-02    2.589790523e-01
     5646000000   -4.766126722e-02    2.624433339e-01
     5649000000   -1.415654570e-01    2.250906676e-01
     5652000000   -2.136736363e-01    1.679630429e-01
     5655000000   -2.597480714e-01    7.027547061e-02
     5658000000   -2.753622234e-01   -2.284467220e-02
     5661000000   -2.441046238e-01   -1.221698076e-01
     5664000000   -1.887526810e-01   -2.045789063e-01
     5667000000   -9.913549572e-02   -2.556264699e-01
     5670000000    3.179793421e-04   -2.774485350e-01
     5673000000    1.010681912e-01   -2.618724108e-01
     5676000000    1.904597878e-01   -2.061194330e-01
     5679000000    2.540450394e-01   -1.250952184e-01
     5682000000    2.867012620e-01   -2.566151507e-02
     5685000000    2.695777118e-01    8.197362721e-02
     5688000000    2.318832576e-01    1.738072932e-01
     5691000000    1.516762525e-01    2.476863116e-01
     5694000000    4.963139445e-02    2.828694880e-01
     5697000000   -5.268260464e-02    2.907689810e-01
     5700000000   -1.535781473e-01    2.405453175e-01
     5703000000   -2.359133512e-01    1.771829724e-01
     5706000000   -2.803162038e-01    7.691601664e-02
     5709000000   -2.902101874e-01   -2.900762856e-02
     5712000000   -2.722547352e-01   -1.360557675e-01
     5715000000   -1.980993301e-01   -2.201316506e-01
     5718000000   -1.048157886e-01   -2.802816927e-01
     5721000000    2.252809703e-03   -3.027548492e-01
     5724000000    1.100388616e-01   -2.778066099e-01
     5727000000    2.100357264e-01   -2.298776656e-01
     5730000000    2.751588225e-01   -1.361199170e-01
     5733000000    3.113417327e-01   -2.867674269e-02
     5736000000    2.928863764e-01    8.564867079e-02
     5739000000    2.552715838e-01    1.901094466e-01
     5742000000    1.685864627e-01    2.665759325e-01
     5745000000    6.080464274e-02    3.067319095e-01
     5748000000   -5.337059498e-02    3.182493150e-01
     5751000000   -1.570471674e-01    2.638340890e-01
     5754000000   -2.561722696e-01    2.052013725e-01
     5757000000   -2.926271856e-01    9.191528708e-02
     5760000000   -3.177961707e-01   -2.091965824e-02
     5763000000   -2.954099476e-01   -1.335813254e-01
     5766000000   -2.300498933e-01   -2.317458838e-01
     5769000000   -1.258815676e-01   -2.883206606e-01
     5772000000   -1.499597635e-02   -3.135880828e-01
     5775000000    1.055568606e-01   -3.091051877e-01
     5778000000    2.027024925e-01   -2.503609955e-01
     5781000000    2.861143053e-01   -1.641397029e-01
     5784000000    3.205662072e-01   -4.966984317e-02
     5787000000    3.205085695e-01    6.923469156e-02
     5790000000    2.754173577e-01    1.783767790e-01
     5793000000    1.949841231e-01    2.665364146e-01
     5796000000    8.505032957e-02    3.131901920e-01
     5799000000   -3.314058855e-02    3.285051584e-01
     5802000000   -1.465401798e-01    2.932774127e-01
     5805000000   -2.396851629e-01    2.200758010e-01
     5808000000   -3.077003062e-01    1.203574911e-01
     5811000000   -3.288909495e-01    3.635980422e-03
     5814000000   -3.142074943e-01   -1.203100458e-01
     5817000000   -2.480207086e-01   -2.185797542e-01
     5820000000   -1.511453837e-01   -2.908799946e-01
     5823000000   -3.979979455e-02   -3.237120211e-01
     5826000000    8.215577900e-02   -3.186515868e-01
     5829000000    1.854961663e-01   -2.668652534e-01
     5832000000    2.689658105e-01   -1.807983220e-01
     5835000000    3.134945929e-01   -7.440286875e-02
     5838000000    3.149548769e-01    3.740920499e-02
     5841000000    2.898675799e-01    1.676433831e-01
     5844000000    2.127131820e-01    2.404914796e-01
     5847000000    1.078734323e-01    3.098630607e-01
     5850000000   -6.144589745e-03    3.224574924e-01
     5853000000   -1.226423532e-01    3.011099398e-01
     5856000000   -2.240526974e-01    2.357355505e-01
     5859000000   -2.917730808e-01    1.426331252e-01
     5862000000   -3.228310645e-01    2.839581296e-02
     5865000000   -3.106082082e-01   -8.622523397e-02
     5868000000   -2.586482763e-01   -1.902815253e-01
     5871000000   -1.693430245e-01   -2.842443287e-01
     5874000000   -7.491081953e-02   -3.026867509e-01
     5877000000    5.324125290e-02   -3.155192733e-01
     5880000000    1.513073444e-01   -2.769602239e-01
     5883000000    2.453551888e-01   -2.013890594e-01
     5886000000    2.992243767e-01   -9.781982005e-02
     5889000000    3.062816858e-01    5.785245914e-03
     5892000000    2.844802737e-01    1.158592701e-01
     5895000000    2.273756564e-01    1.938072145e-01
     5898000000    1.316806972e-01    2.794052958e-01
     5901000000    3.326816857e-02    2.981423438e-01
     5904000000   -7.220498472e-02    2.861482203e-01
     5907000000   -1.556338966e-01    2.416088283e-01
     5910000000   -2.306599468e-01    1.684619784e-01
     5913000000   -2.778323889e-01    6.596428901e-02
     5916000000   -2.870965302e-01   -3.965744376e-02
     5919000000   -2.481905222e-01   -1.341053396e-01
     5922000000   -1.835746467e-01   -2.060292214e-01
     5925000000   -9.986443818e-02   -2.532111108e-01
     5928000000   -1.431941753e-03   -2.677520812e-01
     5931000000    9.203390032e-02   -2.448565960e-01
     5934000000    1.658508480e-01   -1.930490881e-01
     5937000000    2.197332680e-01   -1.187518537e-01
     5940000000    2.456242144e-01   -2.350885980e-02
     5943000000    2.288467884e-01    4.834706336e-02
     5946000000    1.868381798e-01    1.410226822e-01
     5949000000    1.266001165e-01    1.879946589e-01
     5952000000    5.863386020e-02    2.088156790e-01
     5955000000   -3.949369118e-02    2.136307806e-01
     5958000000   -8.004078269e-02    1.863865703e-01
     5961000000   -1.524088979e-01    1.296609938e-01
     5964000000   -1.848964244e-01    6.153091043e-02
     5967000000   -1.880345047e-01   -7.613379508e-03
     5970000000   -1.656158417e-01   -7.776783407e-02
     5973000000   -1.211967915e-01   -1.250716746e-01
     5976000000   -7.328572869e-02   -1.486126482e-01
     5979000000   -8.839545771e-03   -1.597029120e-01
     5982000000    6.580697745e-02   -1.427174211e-01
     5985000000    1.029154733e-01   -1.060574055e-01
     5988000000    1.379052848e-01   -4.853831604e-02
     5991000000    1.352883130e-01   -8.061530069e-03
     5994000000    1.228091419e-01    5.419244990e-02
     5997000000    8.793092519e-02    9.621535242e-02
     6000000000    4.004823416e-02    1.176287830e-01
