! NanoVNA-App
! Date: 2026-05-22 18:17:03
! Start: 2.3GHz Stop: 2.6GHz Points: 401
! S-Parameter data: F S11
# Hz S RI R 50
!     Frequency           S11_Real           S11_Imag
     2300000000    4.720629156e-01   -1.152974367e-01
     2300750000    4.777027071e-01   -7.920730859e-02
     2301500000    4.809463918e-01   -3.124742024e-02
     2302250000    4.803330898e-01    9.098200127e-03
     2303000000    4.752292931e-01    5.392959714e-02
     2303750000    4.664395750e-01    9.300517291e-02
     2304500000    4.555312097e-01    1.321285367e-01
     2305250000    4.387127459e-01    1.741947830e-01
     2306000000    4.195716083e-01    2.120741308e-01
     2306750000    3.992656469e-01    2.454694808e-01
     2307500000    3.751265407e-01    2.785361707e-01
     2308250000    3.466386497e-01    3.103155494e-01
     2309000000    3.166463375e-01    3.387689590e-01
     2309750000    2.837829888e-01    3.650147319e-01
     2310500000    2.495948970e-01    3.872329891e-01
     2311250000    2.143782377e-01    4.060714245e-01
     2312000000    1.770738512e-01    4.218744934e-01
     2312750000    1.384556592e-01    4.343162179e-01
     2313500000    9.883998334e-02    4.431905448e-01
     2314250000    6.344046444e-02    4.482859075e-01
     2315000000    1.999802701e-02    4.501720667e-01
     2315750000   -1.740524732e-02    4.482200742e-01
     2316500000   -5.496397614e-02    4.434135854e-01
     2317250000   -9.530948848e-02    4.343197048e-01
     2318000000   -1.302872598e-01    4.238525629e-01
     2318750000   -1.679522693e-01    4.076558352e-01
     2319500000   -2.004076689e-01    3.907453418e-01
     2320250000   -2.364365906e-01    3.673543930e-01
     2321000000   -2.630949020e-01    3.480198681e-01
     2321750000   -2.935729921e-01    3.186352253e-01
     2322500000   -3.177961409e-01    2.923465669e-01
     2323250000   -3.400891423e-01    2.621178925e-01
     2324000000   -3.594473600e-01    2.318060994e-01
     2324750000   -3.751242161e-01    2.020380944e-01
     2325500000   -3.903248310e-01    1.624486744e-01
     2326250000   -4.010085762e-01    1.314017922e-01
     2327000000   -4.083335996e-01    9.267166257e-02
     2327750000   -4.121285975e-01    5.694521591e-02
     2328500000   -4.124296606e-01    2.181724459e-02
     2329250000   -4.112353623e-01   -1.367588155e-02
     2330000000   -4.052252173e-01   -5.118069053e-02
     2330750000   -3.978556693e-01   -8.273778856e-02
     2331500000   -3.867229521e-01   -1.158579737e-01
     2332250000   -3.696233034e-01   -1.523194760e-01
     2333000000   -3.539206386e-01   -1.807981879e-01
     2333750000   -3.345265090e-01   -2.089979798e-01
     2334500000   -3.133395016e-01   -2.352122515e-01
     2335250000   -2.897042930e-01   -2.601178586e-01
     2336000000   -2.634646595e-01   -2.829572260e-01
     2336750000   -2.376615256e-01   -3.016675115e-01
     2337500000   -2.066704482e-01   -3.200043738e-01
     2338250000   -1.759368032e-01   -3.348118365e-01
     2339000000   -1.473520696e-01   -3.462932110e-01
     2339750000   -1.138379574e-01   -3.555418253e-01
     2340500000   -8.158816397e-02   -3.619964719e-01
     2341250000   -4.997987300e-02   -3.651082218e-01
     2342000000   -1.726223715e-02   -3.653070927e-01
     2342750000    1.431513578e-02   -3.630853891e-01
     2343500000    4.618337005e-02   -3.579183221e-01
     2344250000    7.878664136e-02   -3.489826322e-01
     2345000000    1.055120081e-01   -3.398712873e-01
     2345750000    1.332498491e-01   -3.274457455e-01
     2346500000    1.640601456e-01   -3.083930910e-01
     2347250000    1.872974187e-01   -2.925815582e-01
     2348000000    2.099542916e-01   -2.741467953e-01
     2348750000    2.324368507e-01   -2.518160641e-01
     2349500000    2.519727051e-01   -2.282087356e-01
     2350250000    2.688759863e-01   -2.057837397e-01
     2351000000    2.841505408e-01   -1.766578555e-01
     2351750000    2.960482836e-01   -1.515450925e-01
     2352500000    3.057366014e-01   -1.236731634e-01
     2353250000    3.138422966e-01   -9.546371549e-02
     2354000000    3.187274039e-01   -6.787436455e-02
     2354750000    3.203363717e-01   -3.686701879e-02
     2355500000    3.214167058e-01   -9.788465686e-03
     2356250000    3.182992935e-01    1.863946766e-02
     2357000000    3.127865493e-01    4.640373960e-02
     2357750000    3.063183725e-01    7.239497453e-02
     2358500000    2.961071134e-01    9.934517741e-02
     2359250000    2.845977247e-01    1.228625029e-01
     2360000000    2.717455626e-01    1.458888203e-01
     2360750000    2.551383376e-01    1.685011238e-01
     2361500000    2.382833660e-01    1.878173947e-01
     2362250000    2.201508582e-01    2.061895132e-01
     2363000000    1.998247802e-01    2.228673548e-01
     2363750000    1.784696579e-01    2.372129560e-01
     2364500000    1.560124606e-01    2.493367344e-01
     2365250000    1.319937557e-01    2.593193650e-01
     2366000000    1.091074347e-01    2.670479119e-01
     2366750000    8.547569811e-02    2.729236484e-01
     2367500000    6.074892730e-02    2.762836516e-01
     2368250000    3.708591312e-02    2.775419056e-01
     2369000000    1.262541208e-02    2.761850655e-01
     2369750000   -1.075626817e-02    2.738256752e-01
     2370500000   -3.503509238e-02    2.676298618e-01
     2371250000   -5.707998574e-02    2.611091137e-01
     2372000000   -7.861696184e-02    2.513496578e-01
     2372750000   -9.880864620e-02    2.418237776e-01
     2373500000   -1.185847819e-01    2.282475084e-01
     2374250000   -1.361494362e-01    2.146009803e-01
     2375000000   -1.533558965e-01    1.983822137e-01
     2375750000   -1.679088771e-01    1.809663624e-01
     2376500000   -1.809832603e-01    1.658083200e-01
     2377250000   -1.932376027e-01    1.448213607e-01
     2378000000   -2.028394639e-01    1.265435517e-01
     2378750000   -2.109003663e-01    1.078933030e-01
     2379500000   -2.166378945e-01    8.412570506e-02
     2380250000   -2.207243294e-01    6.495991349e-02
     2381000000   -2.243392617e-01    4.630294815e-02
     2381750000   -2.229703218e-01    2.256507985e-02
     2382500000   -2.225475460e-01    4.628080409e-03
     2383250000   -2.197133154e-01   -1.638156176e-02
     2384000000   -2.149204165e-01   -3.567965701e-02
     2384750000   -2.089776099e-01   -5.363310128e-02
     2385500000   -1.994106621e-01   -7.328362018e-02
     2386250000   -1.915377527e-01   -8.910121769e-02
     2387000000   -1.794732362e-01   -1.054459885e-01
     2387750000   -1.693712622e-01   -1.195776835e-01
     2388500000   -1.555811167e-01   -1.338199973e-01
     2389250000   -1.411834061e-01   -1.453070343e-01
     2390000000   -1.274955720e-01   -1.562922001e-01
     2390750000   -1.106203869e-01   -1.656044126e-01
     2391500000   -9.471043199e-02   -1.734085828e-01
     2392250000   -7.887033373e-02   -1.790482551e-01
     2393000000   -6.260137260e-02   -1.837299466e-01
     2393750000   -4.613979161e-02   -1.869380772e-01
     2394500000   -2.932143956e-02   -1.875228882e-01
     2395250000   -1.279310416e-02   -1.879859567e-01
     2396000000    2.916065510e-03   -1.861980259e-01
     2396750000    1.875928231e-02   -1.829365641e-01
     2397500000    3.442290425e-02   -1.779197007e-01
     2398250000    4.889050499e-02   -1.720078290e-01
     2399000000    6.257208437e-02   -1.652190387e-01
     2399750000    7.603792846e-02   -1.569324583e-01
     2400500000    8.819010109e-02   -1.472770572e-01
     2401250000    9.967402369e-02   -1.374032646e-01
     2402000000    1.098608300e-01   -1.260067075e-01
     2402750000    1.187698022e-01   -1.152049825e-01
     2403500000    1.263463944e-01   -1.021344587e-01
     2404250000    1.329208314e-01   -8.923209459e-02
     2405000000    1.384709924e-01   -7.598138601e-02
     2405750000    1.426863372e-01   -6.226229295e-02
     2406500000    1.452924907e-01   -4.892600700e-02
     2407250000    1.471850425e-01   -3.589090332e-02
     2408000000    1.473364979e-01   -2.183925733e-02
     2408750000    1.471870691e-01   -8.869457990e-03
     2409500000    1.441347748e-01    4.253437743e-03
     2410250000    1.415519565e-01    1.680044271e-02
     2411000000    1.379855871e-01    2.839353681e-02
     2411750000    1.326951981e-01    3.974521905e-02
     2412500000    1.268315613e-01    5.080040544e-02
     2413250000    1.207507476e-01    6.036432087e-02
     2414000000    1.123240069e-01    6.938157231e-02
     2414750000    1.058274508e-01    7.812979817e-02
     2415500000    9.650881588e-02    8.513983339e-02
     2416250000    8.692099154e-02    9.108487517e-02
     2417000000    7.793848962e-02    9.727920592e-02
     2417750000    6.786118448e-02    1.019226164e-01
     2418500000    5.778861791e-02    1.052359864e-01
     2419250000    4.772025719e-02    1.080109552e-01
     2420000000    3.761012852e-02    1.098613292e-01
     2420750000    2.726380154e-02    1.107138917e-01
     2421500000    1.742357947e-02    1.104272529e-01
     2422250000    7.972667925e-03    1.101884767e-01
     2423000000   -1.630832674e-03    1.082949489e-01
     2423750000   -1.064245496e-02    1.056504771e-01
     2424500000   -1.898708381e-02    1.027709767e-01
     2425250000   -2.748292312e-02    9.869068116e-02
     2426000000   -3.493671492e-02    9.470215440e-02
     2426750000   -4.235568643e-02    9.014960378e-02
     2427500000   -4.837801307e-02    8.434049785e-02
     2428250000   -5.410067737e-02    7.892590761e-02
     2429000000   -5.950423330e-02    7.291890681e-02
     2429750000   -6.412698328e-02    6.721922755e-02
     2430500000   -6.677533686e-02    6.005061790e-02
     2431250000   -6.994321197e-02    5.356012657e-02
     2432000000   -7.310153544e-02    4.744622484e-02
     2432750000   -7.430574298e-02    4.019204900e-02
     2433500000   -7.557388395e-02    3.386989236e-02
     2434250000   -7.480794936e-02    2.760411240e-02
     2435000000   -7.605587691e-02    2.109262533e-02
     2435750000   -7.407232374e-02    1.516043767e-02
     2436500000   -7.333818078e-02    9.217736311e-03
     2437250000   -7.108152658e-02    3.543533850e-03
     2438000000   -6.863323599e-02   -1.186015434e-03
     2438750000   -6.653650105e-02   -6.451650057e-03
     2439500000   -6.304842234e-02   -1.071574818e-02
     2440250000   -6.049010158e-02   -1.472859830e-02
     2441000000   -5.692140013e-02   -1.823381521e-02
     2441750000   -5.354421213e-02   -2.200531401e-02
     2442500000   -4.975977540e-02   -2.450458892e-02
     2443250000   -4.527475685e-02   -2.581381612e-02
     2444000000   -4.190742970e-02   -2.741211839e-02
     2444750000   -3.811970353e-02   -3.016398661e-02
     2445500000   -3.423219174e-02   -3.080344200e-02
     2446250000   -3.078452311e-02   -3.145538270e-02
     2447000000   -2.695202082e-02   -3.231536970e-02
     2447750000   -2.350028977e-02   -3.218482435e-02
     2448500000   -1.937879436e-02   -3.271519020e-02
     2449250000   -1.650727354e-02   -3.207555413e-02
     2450000000   -1.380217075e-02   -3.242560849e-02
     2450750000   -1.130477712e-02   -3.206585348e-02
     2451500000   -8.677931502e-03   -3.118768334e-02
     2452250000   -6.874308921e-03   -3.055760637e-02
     2453000000   -4.560735077e-03   -2.978647687e-02
     2453750000   -3.373723477e-03   -2.882408351e-02
     2454500000   -1.321420888e-03   -2.796181664e-02
     2455250000   -1.264428720e-04   -2.732107230e-02
     2456000000    6.905755727e-04   -2.699662745e-02
     2456750000    1.503429259e-03   -2.603486180e-02
     2457500000    2.583509777e-03   -2.565161139e-02
     2458250000    4.458256997e-03   -2.510949969e-02
     2459000000    3.425385337e-03   -2.557995170e-02
     2459750000    4.732868169e-03   -2.512420155e-02
     2460500000    5.959260277e-03   -2.520634606e-02
     2461250000    6.201381329e-03   -2.572461218e-02
     2462000000    6.636462640e-03   -2.699530125e-02
     2462750000    7.661636919e-03   -2.607485093e-02
     2463500000    8.063094690e-03   -2.731478587e-02
     2464250000    9.022095241e-03   -2.948331460e-02
     2465000000    1.063239016e-02   -2.785266005e-02
     2465750000    1.215336844e-02   -3.047334962e-02
     2466500000    1.415397879e-02   -3.060371056e-02
     2467250000    1.564184204e-02   -3.210731596e-02
     2468000000    1.734001189e-02   -3.235178813e-02
     2468750000    2.007790282e-02   -3.358843923e-02
     2469500000    2.247228287e-02   -3.467365727e-02
     2470250000    2.548165433e-02   -3.515001014e-02
     2471000000    2.874276228e-02   -3.664800525e-02
     2471750000    3.122415766e-02   -3.581108898e-02
     2472500000    3.549021110e-02   -3.649311140e-02
     2473250000    3.924904764e-02   -3.601624072e-02
     2474000000    4.277095571e-02   -3.520946205e-02
     2474750000    4.570338503e-02   -3.393096104e-02
     2475500000    5.032178387e-02   -3.317840025e-02
     2476250000    5.360525846e-02   -3.133206815e-02
     2477000000    5.943952128e-02   -2.929655090e-02
     2477750000    6.257159263e-02   -2.659494802e-02
     2478500000    6.718520820e-02   -2.330349013e-02
     2479250000    7.114437222e-02   -1.942959242e-02
     2480000000    7.496665418e-02   -1.557550021e-02
     2480750000    7.832532376e-02   -1.153536979e-02
     2481500000    8.111487329e-02   -6.490671542e-03
     2482250000    8.374363929e-02   -1.090124715e-03
     2483000000    8.621990681e-02    3.458730411e-03
     2483750000    8.866074681e-02    1.061021071e-02
     2484500000    9.027901292e-02    1.742793433e-02
     2485250000    9.071069956e-02    2.331140265e-02
     2486000000    9.147697687e-02    3.086961061e-02
     2486750000    9.101242572e-02    3.771955892e-02
     2487500000    9.052939713e-02    4.515585676e-02
     2488250000    8.890051395e-02    5.207923427e-02
     2489000000    8.683718741e-02    5.975668505e-02
     2489750000    8.451711386e-02    6.658425182e-02
     2490500000    8.149016649e-02    7.506497204e-02
     2491250000    7.684966177e-02    8.296989650e-02
     2492000000    7.158672065e-02    8.798477799e-02
     2492750000    6.700669229e-02    9.452416003e-02
     2493500000    6.025239825e-02    1.012565047e-01
     2494250000    5.257467553e-02    1.072866619e-01
     2495000000    4.587103054e-02    1.111139953e-01
     2495750000    3.636479005e-02    1.177264899e-01
     2496500000    2.765544131e-02    1.211427823e-01
     2497250000    1.663746126e-02    1.251343489e-01
     2498000000    9.506609291e-03    1.273424178e-01
     2498750000   -2.724161139e-03    1.297185719e-01
     2499500000   -1.332246885e-02    1.313360929e-01
     2500250000   -2.504955605e-02    1.313092709e-01
     2501000000   -3.679944202e-02    1.304724365e-01
     2501750000   -4.726564512e-02    1.290311962e-01
     2502500000   -5.674395710e-02    1.261387318e-01
     2503250000   -7.119575888e-02    1.222129762e-01
     2504000000   -8.179076016e-02    1.176005751e-01
     2504750000   -9.151954949e-02    1.124854088e-01
     2505500000   -1.013030484e-01    1.062951833e-01
     2506250000   -1.139167994e-01    9.752469510e-02
     2507000000   -1.210243404e-01    9.013855457e-02
     2507750000   -1.321120709e-01    7.869462669e-02
     2508500000   -1.392117739e-01    7.046599686e-02
     2509250000   -1.460782886e-01    5.919645727e-02
     2510000000   -1.525233388e-01    4.772275686e-02
     2510750000   -1.582390815e-01    3.472077101e-02
     2511500000   -1.624356508e-01    2.093621343e-02
     2512250000   -1.656261832e-01    8.087284863e-03
     2513000000   -1.674656719e-01   -4.650708288e-03
     2513750000   -1.682882607e-01   -1.889772527e-02
     2514500000   -1.677714139e-01   -3.334363922e-02
     2515250000   -1.662671268e-01   -4.821250215e-02
     2516000000   -1.637158096e-01   -6.017667055e-02
     2516750000   -1.598523557e-01   -7.431712002e-02
     2517500000   -1.536025852e-01   -9.028211981e-02
     2518250000   -1.464757025e-01   -1.036200970e-01
     2519000000   -1.395791322e-01   -1.154023260e-01
     2519750000   -1.293202341e-01   -1.285880804e-01
     2520500000   -1.192756295e-01   -1.396777332e-01
     2521250000   -1.075014547e-01   -1.508398205e-01
     2522000000   -9.596792608e-02   -1.605997384e-01
     2522750000   -8.197643608e-02   -1.699635834e-01
     2523500000   -6.706275791e-02   -1.787409484e-01
     2524250000   -5.185950547e-02   -1.845101714e-01
     2525000000   -3.822670504e-02   -1.889920533e-01
     2525750000   -1.919654198e-02   -1.939014047e-01
     2526500000   -4.044609610e-03   -1.958595961e-01
     2527250000    1.211541798e-02   -1.965938210e-01
     2528000000    2.991629951e-02   -1.969200224e-01
     2528750000    4.655261338e-02   -1.946643144e-01
     2529500000    6.348279119e-02   -1.912553310e-01
     2530250000    8.078294992e-02   -1.854255050e-01
     2531000000    9.553781152e-02   -1.795733124e-01
     2531750000    1.129226685e-01   -1.709171832e-01
     2532500000    1.266575158e-01   -1.623764932e-01
     2533250000    1.418482810e-01   -1.515548974e-01
     2534000000    1.549268663e-01   -1.399291456e-01
     2534750000    1.665185392e-01   -1.272007078e-01
     2535500000    1.775415689e-01   -1.124245152e-01
     2536250000    1.888367981e-01   -9.621242434e-02
     2537000000    1.972403973e-01   -8.111418784e-02
     2537750000    2.047183812e-01   -6.294196844e-02
     2538500000    2.109711170e-01   -4.513740912e-02
     2539250000    2.155720145e-01   -2.613898553e-02
     2540000000    2.170160860e-01   -7.630647160e-03
     2540750000    2.183919251e-01    1.092553046e-02
     2541500000    2.181688398e-01    3.131983802e-02
     2542250000    2.158431411e-01    4.954210296e-02
     2543000000    2.124149650e-01    6.909497082e-02
     2543750000    2.063513249e-01    8.721404523e-02
     2544500000    1.981554031e-01    1.066457853e-01
     2545250000    1.901493073e-01    1.226149723e-01
     2546000000    1.787529141e-01    1.401196867e-01
     2546750000    1.682961285e-01    1.543405503e-01
     2547500000    1.540377736e-01    1.688144207e-01
     2548250000    1.386901140e-01    1.832287908e-01
     2549000000    1.234596446e-01    1.954818368e-01
     2549750000    1.055988744e-01    2.063651830e-01
     2550500000    8.566467464e-02    2.161443383e-01
     2551250000    6.671621650e-02    2.237354070e-01
     2552000000    4.847260937e-02    2.288351953e-01
     2552750000    2.801606059e-02    2.340557128e-01
     2553500000    8.369455114e-03    2.369077802e-01
     2554250000   -1.573702507e-02    2.365336716e-01
     2555000000   -3.255250677e-02    2.363874763e-01
     2555750000   -5.694238469e-02    2.324726433e-01
     2556500000   -7.690647990e-02    2.273053825e-01
     2557250000   -9.677178413e-02    2.210055441e-01
     2558000000   -1.129338518e-01    2.136592865e-01
     2558750000   -1.342809945e-01    2.021439821e-01
     2559500000   -1.499143541e-01    1.930029392e-01
     2560250000   -1.696311533e-01    1.761497408e-01
     2561000000   -1.817804128e-01    1.652403772e-01
     2561750000   -1.988740712e-01    1.449760646e-01
     2562500000   -2.099836469e-01    1.291928589e-01
     2563250000   -2.204749882e-01    1.127706990e-01
     2564000000   -2.292379886e-01    9.237192571e-02
     2564750000   -2.379341722e-01    7.230712473e-02
     2565500000   -2.431605905e-01    5.439573526e-02
     2566250000   -2.478059232e-01    3.213941678e-02
     2567000000   -2.503228486e-01    9.918376803e-03
     2567750000   -2.506249547e-01   -8.860444650e-03
     2568500000   -2.542865872e-01   -2.712689154e-02
     2569250000   -2.502546012e-01   -4.946797714e-02
     2570000000   -2.448539138e-01   -7.104586810e-02
     2570750000   -2.374447286e-01   -9.292758256e-02
     2571500000   -2.277625203e-01   -1.131968722e-01
     2572250000   -2.176211029e-01   -1.329271495e-01
     2573000000   -2.043573260e-01   -1.507255584e-01
     2573750000   -1.891952306e-01   -1.698948145e-01
     2574500000   -1.736521572e-01   -1.862459779e-01
     2575250000   -1.561032534e-01   -1.999855787e-01
     2576000000   -1.370851845e-01   -2.133873254e-01
     2576750000   -1.182967648e-01   -2.246466726e-01
     2577500000   -9.715340286e-02   -2.342644632e-01
     2578250000   -7.373945415e-02   -2.418856025e-01
     2579000000   -5.015354231e-02   -2.486003041e-01
     2579750000   -2.986575104e-02   -2.521887124e-01
     2580500000   -7.092234679e-03   -2.548238635e-01
     2581250000    1.819025166e-02   -2.540518045e-01
     2582000000    3.898494318e-02   -2.520645857e-01
     2582750000    6.421034038e-02   -2.467804253e-01
     2583500000    8.493785560e-02   -2.400494367e-01
     2584250000    1.061359122e-01   -2.326956391e-01
     2585000000    1.283821762e-01   -2.220187932e-01
     2585750000    1.488045901e-01   -2.091576159e-01
     2586500000    1.663506329e-01   -1.947082579e-01
     2587250000    1.831862628e-01   -1.801865995e-01
     2588000000    1.988543719e-01   -1.627474576e-01
     2588750000    2.141919583e-01   -1.446359009e-01
     2589500000    2.249345332e-01   -1.280608922e-01
     2590250000    2.363923043e-01   -1.041775793e-01
     2591000000    2.446053624e-01   -8.718326688e-02
     2591750000    2.508732378e-01   -5.926808342e-02
     2592500000    2.550298572e-01   -3.767254949e-02
     2593250000    2.567649186e-01   -1.425670926e-02
     2594000000    2.575130463e-01    9.036135860e-03
     2594750000    2.559073567e-01    3.142470494e-02
     2595500000    2.501796186e-01    5.683362484e-02
     2596250000    2.434680313e-01    7.976557314e-02
     2597000000    2.374491543e-01    9.851150960e-02
     2597750000    2.256570607e-01    1.219995841e-01
     2598500000    2.122662663e-01    1.430428028e-01
     2599250000    1.972975880e-01    1.627386510e-01
     2600000000    1.831503212e-01    1.791475713e-01
