! NanoVNA-App
! Date: 2026-05-22 18:14:53
! Start: 4.8GHz Stop: 6GHz Points: 401
! S-Parameter data: F S11
# Hz S RI R 50
!     Frequency           S11_Real           S11_Imag
     4800000000    2.071307003e-01   -6.142747998e-01
     4803000000    4.064818919e-01   -5.039975047e-01
     4806000000    5.496021509e-01   -3.332377970e-01
     4809000000    6.305956244e-01   -1.209853292e-01
     4812000000    6.294162273e-01    9.976876527e-02
     4815000000    5.528002977e-01    3.151257634e-01
     4818000000    4.121566117e-01    4.805382788e-01
     4821000000    2.200769484e-01    5.924690366e-01
     4824000000    5.125093739e-03    6.302905083e-01
     4827000000   -2.115311921e-01    5.892688632e-01
     4830000000   -3.976681828e-01    4.795078635e-01
     4833000000   -5.391972661e-01    3.104472458e-01
     4836000000   -6.082816720e-01    1.091772318e-01
     4839000000   -6.078358293e-01   -1.111292467e-01
     4842000000   -5.321504474e-01   -3.078609407e-01
     4845000000   -3.944715559e-01   -4.641073644e-01
     4848000000   -2.072811276e-01   -5.744320154e-01
     4851000000   -4.194904119e-03   -6.041614413e-01
     4854000000    2.060767412e-01   -5.667147636e-01
     4857000000    3.927496076e-01   -4.588932693e-01
     4860000000    5.159227252e-01   -3.024137020e-01
     4863000000    5.852198005e-01   -1.031721532e-01
     4866000000    5.828179121e-01    9.563931078e-02
     4869000000    5.097510815e-01    2.911727726e-01
     4872000000    3.796622753e-01    4.473735094e-01
     4875000000    2.014985830e-01    5.493620038e-01
     4878000000   -2.623888431e-03    5.799813271e-01
     4881000000   -1.862763017e-01    5.422427058e-01
     4884000000   -3.585007787e-01    4.457893372e-01
     4887000000   -4.848724902e-01    2.935865223e-01
     4890000000   -5.547822714e-01    1.091766059e-01
     4893000000   -5.507341027e-01   -7.813531160e-02
     4896000000   -4.866904318e-01   -2.604455054e-01
     4899000000   -3.688205183e-01   -4.097313583e-01
     4902000000   -2.061643153e-01   -5.053187609e-01
     4905000000   -2.166144922e-02   -5.414753556e-01
     4908000000    1.593298018e-01   -5.136646032e-01
     4911000000    3.231573701e-01   -4.235830605e-01
     4914000000    4.425424933e-01   -2.874250114e-01
     4917000000    5.104115009e-01   -1.218356043e-01
     4920000000    5.169704556e-01    6.486932933e-02
     4923000000    4.591465294e-01    2.284408808e-01
     4926000000    3.539570868e-01    3.663586378e-01
     4929000000    2.107375413e-01    4.558433890e-01
     4932000000    2.406862937e-02    5.041511059e-01
     4935000000   -1.231351495e-01    4.754261374e-01
     4938000000   -2.751671374e-01    4.011850059e-01
     4941000000   -3.962638676e-01    2.757479846e-01
     4944000000   -4.587168097e-01    1.246516630e-01
     4947000000   -4.676195383e-01   -2.927520312e-02
     4950000000   -4.185525477e-01   -1.958463937e-01
     4953000000   -3.272958696e-01   -3.189449012e-01
     4956000000   -1.986612678e-01   -4.079501927e-01
     4959000000   -4.865582660e-02   -4.439561665e-01
     4962000000    1.067317948e-01   -4.297301173e-01
     4965000000    2.429490536e-01   -3.652240932e-01
     4968000000    3.468249142e-01   -2.598387599e-01
     4971000000    4.100191891e-01   -1.223018095e-01
     4974000000    4.223589003e-01    2.200725488e-02
     4977000000    3.839454949e-01    1.591613740e-01
     4980000000    3.042806089e-01    2.780238688e-01
     4983000000    1.850910038e-01    3.596192598e-01
     4986000000    5.447598919e-02    3.959245384e-01
     4989000000   -8.404556662e-02    3.841844201e-01
     4992000000   -1.986250877e-01    3.331299424e-01
     4995000000   -3.043782115e-01    2.313387990e-01
     4998000000   -3.573217988e-01    1.216688752e-01
     5001000000   -3.711265624e-01   -2.278309129e-02
     5004000000   -3.408567011e-01   -1.429774016e-01
     5007000000   -2.688517272e-01   -2.455196828e-01
     5010000000   -1.777598709e-01   -3.139517605e-01
     5013000000   -4.011974111e-02   -3.531725705e-01
     5016000000    6.407100707e-02   -3.468114734e-01
     5019000000    1.790145040e-01   -2.944157422e-01
     5022000000    2.625171840e-01   -2.138749063e-01
     5025000000    3.141807914e-01   -1.114910021e-01
     5028000000    3.260729015e-01    1.127273496e-02
     5031000000    2.981769741e-01    1.185635403e-01
     5034000000    2.405223399e-01    2.096131295e-01
     5037000000    1.551889330e-01    2.756775916e-01
     5040000000    5.185599625e-02    3.077609241e-01
     5043000000   -5.940443650e-02    2.979893386e-01
     5046000000   -1.498906612e-01    2.602914572e-01
     5049000000   -2.268455476e-01    1.848898828e-01
     5052000000   -2.710225582e-01    9.494683892e-02
     5055000000   -2.821821272e-01   -6.747133448e-04
     5058000000   -2.586015463e-01   -9.999017417e-02
     5061000000   -2.040550411e-01   -1.767147928e-01
     5064000000   -1.265210211e-01   -2.323225290e-01
     5067000000   -4.220072180e-02   -2.588014603e-01
     5070000000    4.927418008e-02   -2.515670657e-01
     5073000000    1.328589618e-01   -2.150641680e-01
     5076000000    1.951563805e-01   -1.561110169e-01
     5079000000    2.323202342e-01   -7.815564424e-02
     5082000000    2.395903915e-01    6.305106450e-03
     5085000000    2.174656093e-01    8.451924473e-02
     5088000000    1.759019047e-01    1.492935270e-01
     5091000000    1.087096408e-01    1.952828914e-01
     5094000000    3.394482285e-02    2.151966244e-01
     5097000000   -4.097230360e-02    2.082508951e-01
     5100000000   -1.081854478e-01    1.837628484e-01
     5103000000   -1.589782387e-01    1.275237352e-01
     5106000000   -1.843894124e-01    6.244329363e-02
     5109000000   -1.985934228e-01   -3.024293808e-03
     5112000000   -1.764463037e-01   -6.878818572e-02
     5115000000   -1.399727762e-01   -1.217274070e-01
     5118000000   -8.443838358e-02   -1.543831974e-01
     5121000000   -2.831208147e-02   -1.799065620e-01
     5124000000    3.270572424e-02   -1.714025736e-01
     5127000000    8.590493351e-02   -1.445696354e-01
     5130000000    1.274029315e-01   -1.066765934e-01
     5133000000    1.458902955e-01   -5.354906991e-02
     5136000000    1.561929584e-01   -2.818927867e-03
     5139000000    1.392528564e-01    4.704330117e-02
     5142000000    1.118603796e-01    8.942466974e-02
     5145000000    7.241607457e-02    1.196626574e-01
     5148000000    2.916595340e-02    1.298517585e-01
     5151000000   -1.489950344e-02    1.285817176e-01
     5154000000   -5.284957960e-02    1.081865057e-01
     5157000000   -8.819665015e-02    8.250212669e-02
     5160000000   -1.001152098e-01    4.650009796e-02
     5163000000   -1.050486565e-01    8.817031048e-03
     5166000000   -9.662522376e-02   -2.716964483e-02
     5169000000   -7.664192468e-02   -4.988213629e-02
     5172000000   -5.140931904e-02   -7.122519612e-02
     5175000000   -2.344961464e-02   -8.020283282e-02
     5178000000    6.151837297e-03   -7.722026110e-02
     5181000000    2.777991816e-02   -6.580734998e-02
     5184000000    4.357575625e-02   -4.946856946e-02
     5187000000    4.897315800e-02   -3.300793096e-02
     5190000000    5.662418902e-02   -3.648058511e-03
     5193000000    5.055591837e-02    8.490934037e-03
     5196000000    4.148319364e-02    2.061826177e-02
     5199000000    2.703271247e-02    3.298657387e-02
     5202000000    2.168714255e-02    3.233652189e-02
     5205000000    8.523942903e-03    3.408191353e-02
     5208000000    9.880724829e-04    3.073331155e-02
     5211000000   -6.309313700e-03    2.464115806e-02
     5214000000   -6.722366437e-03    2.469857223e-02
     5217000000   -1.051258668e-02    1.934190094e-02
     5220000000   -1.177655533e-02    1.775482111e-02
     5223000000   -1.045617554e-02    1.544452738e-02
     5226000000   -1.456152275e-02    1.580622979e-02
     5229000000   -1.580688171e-02    1.549596805e-02
     5232000000   -2.011998370e-02    1.597337611e-02
     5235000000   -2.996028773e-02    1.124775223e-02
     5238000000   -3.574133664e-02    1.587723382e-03
     5241000000   -4.088207334e-02   -9.093035944e-03
     5244000000   -3.878575191e-02   -2.563222125e-02
     5247000000   -3.110524081e-02   -3.759019077e-02
     5250000000   -2.192418277e-02   -4.981817305e-02
     5253000000    1.362534473e-03   -5.940774828e-02
     5256000000    1.743561402e-02   -6.214728579e-02
     5259000000    4.716207087e-02   -5.080453679e-02
     5262000000    5.624685064e-02   -5.092898384e-02
     5265000000    7.819084823e-02   -1.620833948e-02
     5268000000    8.476816863e-02    1.237184927e-02
     5271000000    8.316171914e-02    3.373987228e-02
     5274000000    6.017040461e-02    6.972936541e-02
     5277000000    5.177777261e-02    8.692541718e-02
     5280000000    5.024603102e-03    1.024101451e-01
     5283000000   -1.910139248e-02    1.085127369e-01
     5286000000   -6.519085914e-02    9.213094413e-02
     5289000000   -9.303667396e-02    7.652074844e-02
     5292000000   -1.183021888e-01    3.340009972e-02
     5295000000   -1.272849292e-01   -6.573672406e-03
     5298000000   -1.243460551e-01   -5.021476746e-02
     5301000000   -9.893059731e-02   -9.404861182e-02
     5304000000   -6.544508785e-02   -1.272823364e-01
     5307000000   -1.557694562e-02   -1.438457072e-01
     5310000000    3.262055293e-02   -1.480487883e-01
     5313000000    8.623265475e-02   -1.281250268e-01
     5316000000    1.264896542e-01   -9.408678859e-02
     5319000000    1.552182436e-01   -4.342423007e-02
     5322000000    1.646238565e-01    1.392523013e-02
     5325000000    1.556400657e-01    6.800837070e-02
     5328000000    1.227415875e-01    1.210552529e-01
     5331000000    7.640524209e-02    1.606939584e-01
     5334000000    1.823389903e-02    1.808409691e-01
     5337000000   -4.565767944e-02    1.762629300e-01
     5340000000   -1.073336974e-01    1.512705088e-01
     5343000000   -1.545071006e-01    1.087249443e-01
     5346000000   -1.828345954e-01    4.213522747e-02
     5349000000   -1.934088320e-01   -1.826200634e-02
     5352000000   -1.710750163e-01   -8.867438138e-02
     5355000000   -1.447028071e-01   -1.444910616e-01
     5358000000   -7.969239354e-02   -1.850416660e-01
     5361000000   -5.936175119e-03   -2.012994587e-01
     5364000000    6.418639421e-02   -1.956560761e-01
     5367000000    1.285792142e-01   -1.539290845e-01
     5370000000    1.813907921e-01   -1.182433814e-01
     5373000000    2.097206265e-01   -4.011547565e-02
     5376000000    2.049800456e-01    3.934871033e-02
     5379000000    1.937861145e-01    1.083292365e-01
     5382000000    1.225395724e-01    1.629221588e-01
     5385000000    7.261309773e-02    2.092897594e-01
     5388000000   -1.516378857e-02    2.060496509e-01
     5391000000   -8.510655165e-02    2.043564767e-01
     5394000000   -1.527426392e-01    1.642735600e-01
     5397000000   -2.077374011e-01    1.045137346e-01
     5400000000   -2.318700850e-01    2.595971152e-02
     5403000000   -2.156215906e-01   -5.687366426e-02
     5406000000   -1.903997213e-01   -1.321737617e-01
     5409000000   -1.302656233e-01   -1.879874915e-01
     5412000000   -5.713445321e-02   -2.262751013e-01
     5415000000    2.673929930e-02   -2.322350740e-01
     5418000000    1.046653241e-01   -2.030346245e-01
     5421000000    1.721727103e-01   -1.588286310e-01
     5424000000    2.147049904e-01   -8.419144899e-02
     5427000000    2.316759676e-01   -3.949974664e-03
     5430000000    2.249545604e-01    8.115463704e-02
     5433000000    1.800622195e-01    1.540988088e-01
     5436000000    1.128895655e-01    2.074575871e-01
     5439000000    3.050815128e-02    2.341497391e-01
     5442000000   -5.425020307e-02    2.310025245e-01
     5445000000   -1.269023418e-01    1.902157664e-01
     5448000000   -1.915403455e-01    1.368285269e-01
     5451000000   -2.296083570e-01    6.036907062e-02
     5454000000   -2.306562811e-01   -2.487658523e-02
     5457000000   -2.116544843e-01   -1.086037457e-01
     5460000000   -1.567239314e-01   -1.706079841e-01
     5463000000   -8.713355660e-02   -2.209790796e-01
     5466000000   -3.135869047e-03   -2.326003909e-01
     5469000000    8.304616064e-02   -2.209208608e-01
     5472000000    1.522690356e-01   -1.742572635e-01
     5475000000    2.122486085e-01   -1.090245247e-01
     5478000000    2.289817184e-01   -2.829954214e-02
     5481000000    2.251475602e-01    5.425749347e-02
     5484000000    1.928847879e-01    1.397937387e-01
     5487000000    1.284771711e-01    1.855932325e-01
     5490000000    4.971801862e-02    2.288675606e-01
     5493000000   -3.204491735e-02    2.270230204e-01
     5496000000   -1.104457825e-01    2.027259171e-01
     5499000000   -1.820645481e-01    1.479435712e-01
     5502000000   -2.182914317e-01    7.445330918e-02
     5505000000   -2.287472785e-01   -7.417641580e-03
     5508000000   -2.096882761e-01   -8.709698170e-02
     5511000000   -1.625043750e-01   -1.623416394e-01
     5514000000   -9.472546726e-02   -2.047106177e-01
     5517000000   -1.224550232e-02   -2.279138416e-01
     5520000000    7.017842680e-02   -2.142390907e-01
     5523000000    1.385765672e-01   -1.750724614e-01
     5526000000    1.951742023e-01   -1.098348945e-01
     5529000000    2.214085758e-01   -2.936645225e-02
     5532000000    2.124636024e-01    4.649977386e-02
     5535000000    1.807960272e-01    1.243534535e-01
     5538000000    1.228742376e-01    1.821777970e-01
     5541000000    5.049102008e-02    2.100381702e-01
     5544000000   -2.638864331e-02    2.124898583e-01
     5547000000   -1.067864299e-01    1.860653013e-01
     5550000000   -1.701810509e-01    1.327644587e-01
     5553000000   -2.060557604e-01    6.182030216e-02
     5556000000   -2.121904343e-01   -1.476396993e-02
     5559000000   -1.916145980e-01   -9.948059916e-02
     5562000000   -1.455785781e-01   -1.547492146e-01
     5565000000   -7.752537727e-02   -1.991347671e-01
     5568000000    2.772713779e-03   -2.138020396e-01
     5571000000    8.425403386e-02   -1.975506097e-01
     5574000000    1.440697312e-01   -1.563246995e-01
     5577000000    1.959020346e-01   -8.816004544e-02
     5580000000    2.136073411e-01   -1.223617699e-02
     5583000000    2.034341395e-01    6.628665328e-02
     5586000000    1.694526374e-01    1.331560612e-01
     5589000000    1.016791314e-01    1.911089420e-01
     5592000000    2.656803280e-02    2.154930830e-01
     5595000000   -4.961454868e-02    2.115817070e-01
     5598000000   -1.246981099e-01    1.784348488e-01
     5601000000   -1.840087324e-01    1.180212647e-01
     5604000000   -2.163430899e-01    4.018164799e-02
     5607000000   -2.164688855e-01   -3.684384376e-02
     5610000000   -1.883904785e-01   -1.133952290e-01
     5613000000   -1.324102581e-01   -1.769711375e-01
     5616000000   -5.299861729e-02   -2.155933976e-01
     5619000000    2.774648927e-02   -2.215357870e-01
     5622000000    1.039381251e-01   -2.006421089e-01
     5625000000    1.711537540e-01   -1.476411521e-01
     5628000000    2.174458951e-01   -6.997156888e-02
     5631000000    2.308859974e-01    4.324099049e-03
     5634000000    2.135600150e-01    9.277661890e-02
     5637000000    1.675920188e-01    1.656857133e-01
     5640000000    9.476638585e-02    2.156082988e-01
     5643000000    4.336439539e-03    2.356995940e-01
     5646000000   -7.574691623e-02    2.276776731e-01
     5649000000   -1.547577828e-01    1.848756969e-01
     5652000000   -2.112452388e-01    1.215045750e-01
     5655000000   -2.403238565e-01    2.775396034e-02
     5658000000   -2.411020398e-01   -5.467854068e-02
     5661000000   -1.991617531e-01   -1.411226541e-01
     5664000000   -1.455140859e-01   -2.053333372e-01
     5667000000   -6.364786625e-02   -2.439772338e-01
     5670000000    3.396333382e-02   -2.474035621e-01
     5673000000    1.199245974e-01   -2.229517847e-01
     5676000000    1.929376721e-01   -1.630626917e-01
     5679000000    2.414711565e-01   -8.538311720e-02
     5682000000    2.566830814e-01    1.106517110e-02
     5685000000    2.308038175e-01    1.042205095e-01
     5688000000    1.913645864e-01    1.787000448e-01
     5691000000    1.092336029e-01    2.369421721e-01
     5694000000    1.210638974e-02    2.563355863e-01
     5697000000   -7.641024888e-02    2.554377615e-01
     5700000000   -1.635997295e-01    1.998018473e-01
     5703000000   -2.308430523e-01    1.360441595e-01
     5706000000   -2.608723342e-01    3.848939762e-02
     5709000000   -2.551787198e-01   -5.770809948e-02
     5712000000   -2.232640982e-01   -1.477781534e-01
     5715000000   -1.624093056e-01   -2.218001634e-01
     5718000000   -6.681406498e-02   -2.615973949e-01
     5721000000    3.348002955e-02   -2.664425671e-01
     5724000000    1.262727082e-01   -2.407030463e-01
     5727000000    2.067756802e-01   -1.837431490e-01
     5730000000    2.592486441e-01   -9.507504851e-02
     5733000000    2.788259685e-01    4.083369393e-03
     5736000000    2.570868731e-01    1.049483567e-01
     5739000000    2.072597295e-01    1.888432801e-01
     5742000000    1.286787838e-01    2.570208907e-01
     5745000000    2.427329682e-02    2.777818739e-01
     5748000000   -7.599046826e-02    2.810684144e-01
     5751000000   -1.667880714e-01    2.219035029e-01
     5754000000   -2.448510826e-01    1.591814458e-01
     5757000000   -2.770413160e-01    5.507750437e-02
     5760000000   -2.895815969e-01   -4.858729616e-02
     5763000000   -2.516213953e-01   -1.456410587e-01
     5766000000   -1.856640577e-01   -2.278943062e-01
     5769000000   -8.749314398e-02   -2.780954242e-01
     5772000000    1.537132077e-02   -2.820209563e-01
     5775000000    1.239565238e-01   -2.737123370e-01
     5778000000    2.058214992e-01   -2.093353868e-01
     5781000000    2.754354477e-01   -1.262052357e-01
     5784000000    2.961170375e-01   -1.864758134e-02
     5787000000    2.866343558e-01    8.983204514e-02
     5790000000    2.356330901e-01    1.853400171e-01
     5793000000    1.554197073e-01    2.571559846e-01
     5796000000    5.242749304e-02    2.973853946e-01
     5799000000   -5.800184235e-02    3.037342429e-01
     5802000000   -1.544162333e-01    2.546127439e-01
     5805000000   -2.361455858e-01    1.837727576e-01
     5808000000   -2.881428003e-01    8.839409798e-02
     5811000000   -3.019867539e-01   -2.090609632e-02
     5814000000   -2.745227218e-01   -1.250563413e-01
     5817000000   -2.105990350e-01   -2.139118463e-01
     5820000000   -1.201257408e-01   -2.736124396e-01
     5823000000   -1.439432427e-02   -3.020502031e-01
     5826000000    9.461852908e-02   -2.874186635e-01
     5829000000    1.922464371e-01   -2.369545400e-01
     5832000000    2.657730281e-01   -1.530264467e-01
     5835000000    2.951197326e-01   -5.253561586e-02
     5838000000    2.952400446e-01    5.737293139e-02
     5841000000    2.567544878e-01    1.616751105e-01
     5844000000    1.830807626e-01    2.398117483e-01
     5847000000    8.780691773e-02    2.847519219e-01
     5850000000   -1.852561161e-02    2.954737842e-01
     5853000000   -1.260692924e-01    2.708835304e-01
     5856000000   -2.142188251e-01    2.083410025e-01
     5859000000   -2.729395032e-01    1.177636907e-01
     5862000000   -2.951305807e-01    1.213468425e-02
     5865000000   -2.795568705e-01   -9.437399358e-02
     5868000000   -2.250451744e-01   -1.801888645e-01
     5871000000   -1.446447670e-01   -2.569896877e-01
     5874000000   -4.192994162e-02   -2.925277948e-01
     5877000000    6.365169585e-02   -2.859104574e-01
     5880000000    1.514703631e-01   -2.413176000e-01
     5883000000    2.290902138e-01   -1.707914323e-01
     5886000000    2.748271823e-01   -7.408491522e-02
     5889000000    2.678783238e-01    1.349826995e-02
     5892000000    2.513178289e-01    1.235872880e-01
     5895000000    1.921463609e-01    1.823168695e-01
     5898000000    1.016001552e-01    2.595606148e-01
     5901000000    1.451743580e-02    2.703942955e-01
     5904000000   -9.634215385e-02    2.563587129e-01
     5907000000   -1.623631567e-01    2.055301666e-01
     5910000000   -2.216264158e-01    1.358402669e-01
     5913000000   -2.693778574e-01    2.552889287e-02
     5916000000   -2.542326450e-01   -5.079151690e-02
     5919000000   -2.151249349e-01   -1.444071680e-01
     5922000000   -1.519183069e-01   -1.958037168e-01
     5925000000   -6.945711374e-02   -2.397057563e-01
     5928000000    2.241024375e-02   -2.442989498e-01
     5931000000    1.101216301e-01   -2.139749825e-01
     5934000000    1.700130403e-01   -1.621359140e-01
     5937000000    2.109435350e-01   -8.792263269e-02
     5940000000    2.245583385e-01   -3.096739994e-03
     5943000000    2.042990029e-01    6.974838674e-02
     5946000000    1.580559015e-01    1.445547193e-01
     5949000000    9.728756547e-02    1.837392598e-01
     5952000000    3.271643445e-02    1.927729547e-01
     5955000000   -6.032093614e-02    1.914791614e-01
     5958000000   -1.098098457e-01    1.541784853e-01
     5961000000   -1.554477960e-01    1.010447294e-01
     5964000000   -1.818296015e-01    2.726938948e-02
     5967000000   -1.722648740e-01   -3.132431209e-02
     5970000000   -1.398445517e-01   -9.968671948e-02
     5973000000   -9.270721674e-02   -1.363998502e-01
     5976000000   -3.550498933e-02   -1.536763608e-01
     5979000000    3.266435862e-02   -1.518417150e-01
     5982000000    8.085253835e-02   -1.231268942e-01
     5985000000    1.297227293e-01   -7.418269664e-02
     5988000000    1.388998330e-01   -2.352179214e-02
     5991000000    1.362892240e-01    4.033303261e-02
     5994000000    1.065453961e-01    8.969188482e-02
     5997000000    6.482996792e-02    1.199885607e-01
     6000000000    2.867646515e-03    1.402371526e-01
