! NanoVNA-App
! Date: 2026-05-22 17:52:20
! Start: 2.3GHz Stop: 2.6GHz Points: 401
! S-Parameter data: F S11
# Hz S RI R 50
!     Frequency           S11_Real           S11_Imag
     2300000000    3.610485047e-02   -3.543845713e-01
     2300750000    6.773354858e-02   -3.502340615e-01
     2301500000    1.007329375e-01   -3.423989415e-01
     2302250000    1.304211617e-01   -3.324150443e-01
     2303000000    1.624649614e-01   -3.176070750e-01
     2303750000    1.901057512e-01   -3.018215597e-01
     2304500000    2.166838795e-01   -2.846018970e-01
     2305250000    2.422148883e-01   -2.626237273e-01
     2306000000    2.653683722e-01   -2.417473793e-01
     2306750000    2.867414951e-01   -2.127964646e-01
     2307500000    3.048183620e-01   -1.889022291e-01
     2308250000    3.205940723e-01   -1.603359431e-01
     2309000000    3.343107402e-01   -1.310936213e-01
     2309750000    3.449448943e-01   -9.960100800e-02
     2310500000    3.517803252e-01   -6.800014526e-02
     2311250000    3.572749794e-01   -3.650515527e-02
     2312000000    3.577868342e-01   -3.110131482e-03
     2312750000    3.568463027e-01    2.812963724e-02
     2313500000    3.526050746e-01    6.089740247e-02
     2314250000    3.459205627e-01    9.114998579e-02
     2315000000    3.355248868e-01    1.229039580e-01
     2315750000    3.225937486e-01    1.525745988e-01
     2316500000    3.068648875e-01    1.809255034e-01
     2317250000    2.896304131e-01    2.072964460e-01
     2318000000    2.701179683e-01    2.324441820e-01
     2318750000    2.474779934e-01    2.557128072e-01
     2319500000    2.227208912e-01    2.764109075e-01
     2320250000    1.978530288e-01    2.950933874e-01
     2321000000    1.685098112e-01    3.107181191e-01
     2321750000    1.432897598e-01    3.247390389e-01
     2322500000    1.097207665e-01    3.347138464e-01
     2323250000    7.933983952e-02    3.419404924e-01
     2324000000    4.737984762e-02    3.471941352e-01
     2324750000    1.954839937e-02    3.506533206e-01
     2325500000   -1.713631116e-02    3.481960893e-01
     2326250000   -4.740121961e-02    3.461222053e-01
     2327000000   -7.717083395e-02    3.401437998e-01
     2327750000   -1.086890325e-01    3.293269873e-01
     2328500000   -1.356093436e-01    3.194927573e-01
     2329250000   -1.665706336e-01    3.026825786e-01
     2330000000   -1.916808784e-01    2.881387174e-01
     2330750000   -2.170887589e-01    2.684601843e-01
     2331500000   -2.404543459e-01    2.461548448e-01
     2332250000   -2.606844008e-01    2.233290076e-01
     2333000000   -2.795394957e-01    1.984450519e-01
     2333750000   -2.955284417e-01    1.704938114e-01
     2334500000   -3.093108237e-01    1.437249333e-01
     2335250000   -3.209246993e-01    1.144341603e-01
     2336000000   -3.290817440e-01    8.358734846e-02
     2336750000   -3.346672952e-01    5.367423221e-02
     2337500000   -3.377563655e-01    2.251579240e-02
     2338250000   -3.383426070e-01   -8.431531489e-03
     2339000000   -3.352444470e-01   -3.971397132e-02
     2339750000   -3.296885490e-01   -6.951551884e-02
     2340500000   -3.214440346e-01   -9.993800521e-02
     2341250000   -3.108838201e-01   -1.281744540e-01
     2342000000   -2.971016169e-01   -1.556134522e-01
     2342750000   -2.819035053e-01   -1.818218827e-01
     2343500000   -2.632144094e-01   -2.067065537e-01
     2344250000   -2.422489971e-01   -2.296105921e-01
     2345000000   -2.213231027e-01   -2.500725687e-01
     2345750000   -1.950760931e-01   -2.688793540e-01
     2346500000   -1.706842035e-01   -2.853043377e-01
     2347250000   -1.437768340e-01   -2.994069457e-01
     2348000000   -1.171186343e-01   -3.106781840e-01
     2348750000   -8.441516757e-02   -3.190274239e-01
     2349500000   -5.758798495e-02   -3.260893524e-01
     2350250000   -2.565661445e-02   -3.288367987e-01
     2351000000    1.988162054e-03   -3.303409815e-01
     2351750000    3.373759985e-02   -3.263695836e-01
     2352500000    6.286553293e-02   -3.214144111e-01
     2353250000    9.273014218e-02   -3.143449426e-01
     2354000000    1.191753671e-01   -3.060097098e-01
     2354750000    1.472115219e-01   -2.921219468e-01
     2355500000    1.746444255e-01   -2.761292160e-01
     2356250000    1.984206885e-01   -2.590858638e-01
     2357000000    2.200613767e-01   -2.405466139e-01
     2357750000    2.414388359e-01   -2.191574425e-01
     2358500000    2.602429688e-01   -1.964069009e-01
     2359250000    2.763426602e-01   -1.706263423e-01
     2360000000    2.907969952e-01   -1.462708414e-01
     2360750000    3.026351929e-01   -1.177244112e-01
     2361500000    3.114585578e-01   -9.164134413e-02
     2362250000    3.180347085e-01   -6.230562180e-02
     2363000000    3.220752776e-01   -3.361598402e-02
     2363750000    3.231728375e-01   -4.341892432e-03
     2364500000    3.215454221e-01    2.432979643e-02
     2365250000    3.176334202e-01    5.359108001e-02
     2366000000    3.112297058e-01    8.149185777e-02
     2366750000    3.018997610e-01    1.090112105e-01
     2367500000    2.904783189e-01    1.355496496e-01
     2368250000    2.758266032e-01    1.601308286e-01
     2369000000    2.600965798e-01    1.840694994e-01
     2369750000    2.418187559e-01    2.063965946e-01
     2370500000    2.213080227e-01    2.268558890e-01
     2371250000    1.994828582e-01    2.458216250e-01
     2372000000    1.778831333e-01    2.615531683e-01
     2372750000    1.525336653e-01    2.764914930e-01
     2373500000    1.256390363e-01    2.878335714e-01
     2374250000    9.872008860e-02    2.972535193e-01
     2375000000    7.018416375e-02    3.037621379e-01
     2375750000    4.354842380e-02    3.085322082e-01
     2376500000    1.697619073e-02    3.107175529e-01
     2377250000   -1.277924515e-02    3.099119067e-01
     2378000000   -4.061808810e-02    3.067369163e-01
     2378750000   -6.798162311e-02    3.015983999e-01
     2379500000   -9.509678930e-02    2.924762964e-01
     2380250000   -1.207118183e-01    2.819229364e-01
     2381000000   -1.448906362e-01    2.713950276e-01
     2381750000   -1.691100299e-01    2.548927963e-01
     2382500000   -1.902711838e-01    2.375041246e-01
     2383250000   -2.112516612e-01    2.194281369e-01
     2384000000   -2.291591614e-01    2.001376450e-01
     2384750000   -2.445336580e-01    1.759437770e-01
     2385500000   -2.597557604e-01    1.539660990e-01
     2386250000   -2.714422047e-01    1.311570406e-01
     2387000000   -2.804563940e-01    1.034956127e-01
     2387750000   -2.875199318e-01    7.759667933e-02
     2388500000   -2.926866114e-01    5.097809434e-02
     2389250000   -2.945855856e-01    2.405451424e-02
     2390000000   -2.951453924e-01   -1.890628017e-03
     2390750000   -2.924164236e-01   -3.015093878e-02
     2391500000   -2.876755297e-01   -5.602435395e-02
     2392250000   -2.802551687e-01   -8.162073046e-02
     2393000000   -2.709433436e-01   -1.072072163e-01
     2393750000   -2.588085532e-01   -1.311655641e-01
     2394500000   -2.466431260e-01   -1.525459886e-01
     2395250000   -2.306239605e-01   -1.743317544e-01
     2396000000   -2.130284011e-01   -1.942050755e-01
     2396750000   -1.941882819e-01   -2.122259587e-01
     2397500000   -1.743432879e-01   -2.277980000e-01
     2398250000   -1.520451456e-01   -2.420963049e-01
     2399000000   -1.296846569e-01   -2.539806068e-01
     2399750000   -1.063249037e-01   -2.642531991e-01
     2400500000   -8.169053495e-02   -2.717452645e-01
     2401250000   -5.694516003e-02   -2.766008377e-01
     2402000000   -3.246003389e-02   -2.795614600e-01
     2402750000   -8.074429817e-03   -2.803839445e-01
     2403500000    1.681091823e-02   -2.784069180e-01
     2404250000    4.105544463e-02   -2.746140063e-01
     2405000000    6.530407071e-02   -2.678389847e-01
     2405750000    8.756136149e-02   -2.605991960e-01
     2406500000    1.099736318e-01   -2.493449003e-01
     2407250000    1.306601316e-01   -2.371707261e-01
     2408000000    1.501822174e-01   -2.231199592e-01
     2408750000    1.681170166e-01   -2.071160078e-01
     2409500000    1.842399091e-01   -1.893903017e-01
     2410250000    1.991975605e-01   -1.711299866e-01
     2411000000    2.118078619e-01   -1.501723677e-01
     2411750000    2.231729627e-01   -1.296579242e-01
     2412500000    2.321754396e-01   -1.077117920e-01
     2413250000    2.389535308e-01   -8.487512916e-02
     2414000000    2.440297753e-01   -6.181441993e-02
     2414750000    2.465119064e-01   -3.837038204e-02
     2415500000    2.473713160e-01   -1.534879673e-02
     2416250000    2.454068810e-01    7.412856445e-03
     2417000000    2.417867780e-01    3.062243201e-02
     2417750000    2.362745851e-01    5.306749046e-02
     2418500000    2.287105620e-01    7.468935102e-02
     2419250000    2.191284597e-01    9.497030824e-02
     2420000000    2.062584311e-01    1.144378707e-01
     2420750000    1.948967576e-01    1.331771612e-01
     2421500000    1.802504957e-01    1.499122083e-01
     2422250000    1.644574404e-01    1.654806286e-01
     2423000000    1.467745602e-01    1.795571893e-01
     2423750000    1.291690469e-01    1.922435313e-01
     2424500000    1.097763628e-01    2.024460733e-01
     2425250000    8.961960673e-02    2.110545188e-01
     2426000000    6.862946600e-02    2.179402262e-01
     2426750000    4.847278446e-02    2.226784825e-01
     2427500000    2.752001956e-02    2.260406315e-01
     2428250000    6.117194891e-03    2.271819860e-01
     2429000000   -1.494854316e-02    2.260954380e-01
     2429750000   -3.575648367e-02    2.232072800e-01
     2430500000   -5.484667048e-02    2.188841403e-01
     2431250000   -7.426138967e-02    2.118062675e-01
     2432000000   -9.315869957e-02    2.039768845e-01
     2432750000   -1.106110737e-01    1.933888495e-01
     2433500000   -1.270082146e-01    1.827119887e-01
     2434250000   -1.418212950e-01    1.697726548e-01
     2435000000   -1.557690352e-01    1.557852924e-01
     2435750000   -1.684242636e-01    1.404997706e-01
     2436500000   -1.791542619e-01    1.241473705e-01
     2437250000   -1.884471625e-01    1.076605171e-01
     2438000000   -1.957257092e-01    9.013294429e-02
     2438750000   -2.009511739e-01    7.230956107e-02
     2439500000   -2.046414912e-01    5.304608494e-02
     2440250000   -2.070615441e-01    3.517455608e-02
     2441000000   -2.072575837e-01    1.683155447e-02
     2441750000   -2.057707012e-01   -1.986765536e-03
     2442500000   -2.027941793e-01   -1.991496608e-02
     2443250000   -1.984445751e-01   -3.751822188e-02
     2444000000   -1.917649955e-01   -5.388412252e-02
     2444750000   -1.837115139e-01   -7.049246877e-02
     2445500000   -1.747356653e-01   -8.530425280e-02
     2446250000   -1.634911001e-01   -9.799772501e-02
     2447000000   -1.522114277e-01   -1.118047312e-01
     2447750000   -1.400272101e-01   -1.236732155e-01
     2448500000   -1.264096648e-01   -1.337337792e-01
     2449250000   -1.118914559e-01   -1.424409002e-01
     2450000000   -9.680262208e-02   -1.494987309e-01
     2450750000   -8.178804070e-02   -1.546611190e-01
     2451500000   -6.619698554e-02   -1.586792916e-01
     2452250000   -5.019755289e-02   -1.611275077e-01
     2453000000   -3.378749639e-02   -1.614170372e-01
     2453750000   -1.816212572e-02   -1.608477533e-01
     2454500000   -2.293693833e-03   -1.584386528e-01
     2455250000    1.284497883e-02   -1.545703560e-01
     2456000000    2.740786225e-02   -1.490721852e-01
     2456750000    4.163755476e-02   -1.424729824e-01
     2457500000    5.464148894e-02   -1.348562688e-01
     2458250000    6.724487990e-02   -1.262733340e-01
     2459000000    7.851181924e-02   -1.163016707e-01
     2459750000    8.826882392e-02   -1.055898592e-01
     2460500000    9.733093530e-02   -9.416522831e-02
     2461250000    1.043572724e-01   -8.223531395e-02
     2462000000    1.113308668e-01   -6.917910278e-02
     2462750000    1.159266755e-01   -5.599322170e-02
     2463500000    1.191202253e-01   -4.346808791e-02
     2464250000    1.205853298e-01   -3.030667268e-02
     2465000000    1.212338358e-01   -1.604174823e-02
     2465750000    1.204393804e-01   -2.907757415e-03
     2466500000    1.179340482e-01    9.375134483e-03
     2467250000    1.143292189e-01    2.221108787e-02
     2468000000    1.095087007e-01    3.340576962e-02
     2468750000    1.039495319e-01    4.447936639e-02
     2469500000    9.675547481e-02    5.488408357e-02
     2470250000    8.819765598e-02    6.425607949e-02
     2471000000    7.909987867e-02    7.261320204e-02
     2471750000    6.945369393e-02    7.960721105e-02
     2472500000    5.903683230e-02    8.625669032e-02
     2473250000    4.786749184e-02    9.141287208e-02
     2474000000    3.697006777e-02    9.427023679e-02
     2474750000    2.495962381e-02    9.750002623e-02
     2475500000    1.344858576e-02    9.802799672e-02
     2476250000    1.943264855e-03    9.835213423e-02
     2477000000   -9.459438734e-03    9.647453576e-02
     2477750000   -2.036540769e-02    9.352530539e-02
     2478500000   -3.141941875e-02    8.973709494e-02
     2479250000   -4.122432694e-02    8.481357992e-02
     2480000000   -5.143499374e-02    7.875762135e-02
     2480750000   -6.003016233e-02    7.149706781e-02
     2481500000   -6.789167225e-02    6.327592582e-02
     2482250000   -7.576009631e-02    5.419811234e-02
     2483000000   -8.095768839e-02    4.472451657e-02
     2483750000   -8.572749794e-02    3.447827324e-02
     2484500000   -8.924454451e-02    2.318085171e-02
     2485250000   -9.177108109e-02    1.255986001e-02
     2486000000   -9.258456528e-02    7.934794412e-04
     2486750000   -9.233357757e-02   -1.019908022e-02
     2487500000   -9.085899591e-02   -2.188678458e-02
     2488250000   -8.755461127e-02   -3.273773193e-02
     2489000000   -8.321896940e-02   -4.366284609e-02
     2489750000   -7.859783620e-02   -5.460327491e-02
     2490500000   -7.164386660e-02   -6.425864995e-02
     2491250000   -6.385058910e-02   -7.306683064e-02
     2492000000   -5.559661612e-02   -8.156141639e-02
     2492750000   -4.591318965e-02   -8.950278908e-02
     2493500000   -3.568639979e-02   -9.558211267e-02
     2494250000   -2.465883642e-02   -1.005655825e-01
     2495000000   -1.299418602e-02   -1.055089906e-01
     2495750000   -4.354184202e-04   -1.071559712e-01
     2496500000    1.203223225e-02   -1.100600362e-01
     2497250000    2.483442985e-02   -1.091170013e-01
     2498000000    3.701348230e-02   -1.079585254e-01
     2498750000    5.001738667e-02   -1.043988615e-01
     2499500000    6.258422136e-02   -1.015079618e-01
     2500250000    7.460532337e-02   -9.513977170e-02
     2501000000    8.635754138e-02   -8.902869374e-02
     2501750000    9.678824246e-02   -8.017198741e-02
     2502500000    1.074834093e-01   -7.149500400e-02
     2503250000    1.178184226e-01   -6.210935861e-02
     2504000000    1.251314431e-01   -4.966869205e-02
     2504750000    1.329677403e-01   -3.719581291e-02
     2505500000    1.392326951e-01   -2.478316985e-02
     2506250000    1.431475133e-01   -1.086798683e-02
     2507000000    1.458111107e-01    4.699972458e-03
     2507750000    1.488141716e-01    1.919421740e-02
     2508500000    1.506291181e-01    3.348401189e-02
     2509250000    1.463604569e-01    5.001341552e-02
     2510000000    1.452782601e-01    6.418681890e-02
     2510750000    1.419064701e-01    8.056171238e-02
     2511500000    1.350162476e-01    9.476897120e-02
     2512250000    1.272001863e-01    1.088104993e-01
     2513000000    1.186881810e-01    1.228490174e-01
     2513750000    1.096177101e-01    1.358162463e-01
     2514500000    9.758865833e-02    1.476994604e-01
     2515250000    8.466473222e-02    1.587221175e-01
     2516000000    6.922506541e-02    1.675969809e-01
     2516750000    5.492986739e-02    1.762017012e-01
     2517500000    3.800961003e-02    1.831467301e-01
     2518250000    2.109652199e-02    1.875448227e-01
     2519000000    3.051094245e-03    1.917665154e-01
     2519750000   -1.570274308e-02    1.933314651e-01
     2520500000   -3.432902321e-02    1.934785843e-01
     2521250000   -5.315705389e-02    1.917134821e-01
     2522000000   -7.182658464e-02    1.884742826e-01
     2522750000   -9.061291069e-02    1.823156178e-01
     2523500000   -1.094132513e-01    1.754882783e-01
     2524250000   -1.268530488e-01    1.658688635e-01
     2525000000   -1.441763788e-01    1.560995877e-01
     2525750000   -1.602680534e-01    1.432988346e-01
     2526500000   -1.755018234e-01    1.302484423e-01
     2527250000   -1.891887784e-01    1.128717288e-01
     2528000000   -2.015929818e-01    9.651262313e-02
     2528750000   -2.128887028e-01    7.837105542e-02
     2529500000   -2.216361463e-01    5.791555718e-02
     2530250000   -2.295898199e-01    3.807711974e-02
     2531000000   -2.344029099e-01    1.593197137e-02
     2531750000   -2.390542328e-01   -4.898705054e-03
     2532500000   -2.396449596e-01   -2.817000076e-02
     2533250000   -2.395819575e-01   -5.084471405e-02
     2534000000   -2.371988297e-01   -7.366775721e-02
     2534750000   -2.322373539e-01   -9.592611343e-02
     2535500000   -2.249123156e-01   -1.182743236e-01
     2536250000   -2.160755694e-01   -1.402810961e-01
     2537000000   -2.044171840e-01   -1.611076295e-01
     2537750000   -1.914434433e-01   -1.807693690e-01
     2538500000   -1.761509627e-01   -1.994809210e-01
     2539250000   -1.587628573e-01   -2.170079798e-01
     2540000000   -1.401123405e-01   -2.336720228e-01
     2540750000   -1.193108633e-01   -2.481532693e-01
     2541500000   -9.706513584e-02   -2.608687282e-01
     2542250000   -7.282216847e-02   -2.710785568e-01
     2543000000   -4.941034690e-02   -2.800581157e-01
     2543750000   -2.445717715e-02   -2.865479290e-01
     2544500000    1.326744095e-03   -2.900880575e-01
     2545250000    2.768363804e-02   -2.930132449e-01
     2546000000    5.482472107e-02   -2.916979790e-01
     2546750000    8.086191863e-02   -2.891753018e-01
     2547500000    1.088285893e-01   -2.823090255e-01
     2548250000    1.349587590e-01   -2.748985291e-01
     2549000000    1.610098779e-01   -2.641353607e-01
     2549750000    1.860387623e-01   -2.513621747e-01
     2550500000    2.092715055e-01   -2.360306531e-01
     2551250000    2.321944684e-01   -2.189687788e-01
     2552000000    2.527428269e-01   -1.979812235e-01
     2552750000    2.721238732e-01   -1.758669317e-01
     2553500000    2.895422280e-01   -1.547729969e-01
     2554250000    3.051213026e-01   -1.274693012e-01
     2555000000    3.176777065e-01   -1.025032774e-01
     2555750000    3.282722235e-01   -7.309671491e-02
     2556500000    3.362618685e-01   -4.485447705e-02
     2557250000    3.404752016e-01   -1.502569858e-02
     2558000000    3.436083496e-01    1.522209775e-02
     2558750000    3.443210721e-01    4.436822981e-02
     2559500000    3.408329785e-01    7.674815506e-02
     2560250000    3.339105248e-01    1.074552611e-01
     2561000000    3.249108195e-01    1.375768483e-01
     2561750000    3.145752251e-01    1.675957143e-01
     2562500000    3.002072275e-01    1.955092102e-01
     2563250000    2.813682854e-01    2.231551558e-01
     2564000000    2.655721605e-01    2.491571158e-01
     2564750000    2.417255640e-01    2.742003798e-01
     2565500000    2.199056298e-01    2.963143587e-01
     2566250000    1.934037209e-01    3.171853423e-01
     2567000000    1.655979455e-01    3.355650902e-01
     2567750000    1.374467313e-01    3.512054980e-01
     2568500000    1.069305614e-01    3.640178740e-01
     2569250000    7.475092262e-02    3.748526275e-01
     2570000000    4.082908854e-02    3.822861016e-01
     2570750000    8.836038411e-03    3.868007958e-01
     2571500000   -2.566682175e-02    3.879884481e-01
     2572250000   -5.957175791e-02    3.868264258e-01
     2573000000   -9.296478331e-02    3.826653361e-01
     2573750000   -1.276972443e-01    3.743523657e-01
     2574500000   -1.641032547e-01    3.676855564e-01
     2575250000   -1.965865642e-01    3.537365794e-01
     2576000000   -2.277656496e-01    3.365904391e-01
     2576750000   -2.571531236e-01    3.168908954e-01
     2577500000   -2.846566439e-01    2.940225601e-01
     2578250000   -3.112514615e-01    2.695581019e-01
     2579000000   -3.350153267e-01    2.419595867e-01
     2579750000   -3.564618826e-01    2.118312269e-01
     2580500000   -3.744372427e-01    1.807601750e-01
     2581250000   -3.913802207e-01    1.479965448e-01
     2582000000   -4.041238129e-01    1.135652736e-01
     2582750000   -4.140654504e-01    7.835507393e-02
     2583500000   -4.213427901e-01    4.156268761e-02
     2584250000   -4.242401719e-01    4.446674138e-03
     2585000000   -4.240464270e-01   -3.353415802e-02
     2585750000   -4.220595062e-01   -6.987521052e-02
     2586500000   -4.148947299e-01   -1.076122969e-01
     2587250000   -4.050320983e-01   -1.444849521e-01
     2588000000   -3.936812282e-01   -1.779434532e-01
     2588750000   -3.768225014e-01   -2.127295732e-01
     2589500000   -3.568854928e-01   -2.464628369e-01
     2590250000   -3.354218900e-01   -2.770080268e-01
     2591000000   -3.091685772e-01   -3.067753315e-01
     2591750000   -2.846581340e-01   -3.317999244e-01
     2592500000   -2.511034310e-01   -3.568649888e-01
     2593250000   -2.233319283e-01   -3.766772449e-01
     2594000000   -1.863305867e-01   -3.971358538e-01
     2594750000   -1.507183760e-01   -4.121950865e-01
     2595500000   -1.119838580e-01   -4.246151447e-01
     2596250000   -7.542816550e-02   -4.333826303e-01
     2597000000   -3.792144358e-02   -4.388702512e-01
     2597750000    2.164383885e-03   -4.407286644e-01
     2598500000    4.270182922e-02   -4.392033517e-01
     2599250000    8.313289285e-02   -4.335930943e-01
     2600000000    1.207222268e-01   -4.260479510e-01
