! NanoVNA-App
! Date: 2026-05-22 17:54:42
! Start: 4.8GHz Stop: 6GHz Points: 401
! S-Parameter data: F S11
# Hz S RI R 50
!     Frequency           S11_Real           S11_Imag
     4800000000    2.537671030e-01   -1.522624940e-01
     4803000000    2.909644246e-01   -5.391298980e-02
     4806000000    2.922825515e-01    5.142017826e-02
     4809000000    2.566504776e-01    1.497173905e-01
     4812000000    1.873382330e-01    2.314769179e-01
     4815000000    9.536176920e-02    2.805852592e-01
     4818000000   -9.038169868e-03    2.966113985e-01
     4821000000   -1.111537069e-01    2.739342749e-01
     4824000000   -1.984227598e-01    2.176724821e-01
     4827000000   -2.603558302e-01    1.308389455e-01
     4830000000   -2.896829247e-01    3.227917477e-02
     4833000000   -2.808510661e-01   -7.153531164e-02
     4836000000   -2.367702574e-01   -1.666523814e-01
     4839000000   -1.629079729e-01   -2.384505570e-01
     4842000000   -6.682971120e-02   -2.789727449e-01
     4845000000    3.489148617e-02   -2.845504880e-01
     4848000000    1.322028786e-01   -2.556262314e-01
     4851000000    2.103595436e-01   -1.910358369e-01
     4854000000    2.614100575e-01   -1.047944948e-01
     4857000000    2.799747884e-01   -7.549223490e-03
     4860000000    2.632055879e-01    9.272493422e-02
     4863000000    2.082140297e-01    1.726575047e-01
     4866000000    1.340325326e-01    2.383748144e-01
     4869000000    3.919388726e-02    2.662555277e-01
     4872000000   -5.579872429e-02    2.588865161e-01
     4875000000   -1.450850368e-01    2.198083550e-01
     4878000000   -2.119683176e-01    1.525826007e-01
     4881000000   -2.528013289e-01    6.853636354e-02
     4884000000   -2.575841546e-01   -2.295413055e-02
     4887000000   -2.302469313e-01   -1.118920445e-01
     4890000000   -1.734752506e-01   -1.822869778e-01
     4893000000   -9.704161435e-02   -2.302358896e-01
     4896000000   -7.754324004e-03   -2.436472625e-01
     4899000000    7.847113907e-02   -2.281724066e-01
     4902000000    1.544898897e-01   -1.849010140e-01
     4905000000    2.060950994e-01   -1.154003963e-01
     4908000000    2.326826304e-01   -3.507685289e-02
     4911000000    2.264271379e-01    4.813432693e-02
     4914000000    1.933955401e-01    1.260922700e-01
     4917000000    1.351495087e-01    1.818558574e-01
     4920000000    6.053852290e-02    2.123693079e-01
     4923000000   -1.791351289e-02    2.193594724e-01
     4926000000   -9.020110965e-02    1.907287240e-01
     4929000000   -1.520759910e-01    1.464094967e-01
     4932000000   -1.897168607e-01    8.111158758e-02
     4935000000   -2.069779485e-01    6.523742806e-03
     4938000000   -1.820506454e-01   -5.957950279e-02
     4941000000   -1.536305249e-01   -1.300563514e-01
     4944000000   -9.252327681e-02   -1.633670777e-01
     4947000000   -2.960613184e-02   -1.868786067e-01
     4950000000    3.613736853e-02   -1.742280275e-01
     4953000000    1.000929475e-01   -1.529462039e-01
     4956000000    1.449069679e-01   -1.071638688e-01
     4959000000    1.657218635e-01   -4.833392054e-02
     4962000000    1.659758985e-01    1.277440973e-02
     4965000000    1.444919705e-01    6.740307808e-02
     4968000000    1.070096344e-01    1.098077446e-01
     4971000000    5.811618641e-02    1.360140443e-01
     4974000000    4.322689958e-03    1.454604864e-01
     4977000000   -4.659073055e-02    1.328114569e-01
     4980000000   -8.909875154e-02    1.049652174e-01
     4983000000   -1.136578918e-01    6.616031379e-02
     4986000000   -1.220984310e-01    2.153668553e-02
     4989000000   -1.136201322e-01   -2.117161453e-02
     4992000000   -9.699323773e-02   -6.300965697e-02
     4995000000   -6.302633882e-02   -8.112058043e-02
     4998000000   -2.597149834e-02   -1.002157703e-01
     5001000000    9.388561361e-03   -9.032209963e-02
     5004000000    3.681118414e-02   -7.327854633e-02
     5007000000    6.624007970e-02   -5.285144597e-02
     5010000000    7.203992456e-02   -2.349225990e-02
     5013000000    5.986748636e-02    2.268933167e-05
     5016000000    5.830317363e-02    2.870681882e-02
     5019000000    3.774672747e-02    4.252453148e-02
     5022000000    1.545759011e-02    4.247659817e-02
     5025000000   -5.328400992e-03    4.197514057e-02
     5028000000   -1.953706890e-02    3.004392609e-02
     5031000000   -3.127581626e-02    1.317329053e-02
     5034000000   -2.305788174e-02   -4.855046980e-03
     5037000000   -1.799423620e-02   -2.042730339e-02
     5040000000   -1.261109253e-03   -2.603177726e-02
     5043000000    1.164121553e-02   -3.144559264e-02
     5046000000    2.862862498e-02   -1.320767310e-02
     5049000000    3.724088520e-02   -4.066323861e-03
     5052000000    3.807754815e-02    1.740184240e-02
     5055000000    2.886892669e-02    3.685687855e-02
     5058000000    1.431306452e-02    5.174013600e-02
     5061000000   -8.660877123e-03    5.927603319e-02
     5064000000   -3.551317006e-02    5.689279735e-02
     5067000000   -6.146783382e-02    4.016640782e-02
     5070000000   -8.007195592e-02    1.821651869e-02
     5073000000   -8.784539253e-02   -1.303968672e-02
     5076000000   -8.352976292e-02   -4.544357210e-02
     5079000000   -6.620997190e-02   -7.902617753e-02
     5082000000   -3.543922678e-02   -1.030515730e-01
     5085000000    5.896019749e-03   -1.164352819e-01
     5088000000    4.770057276e-02   -1.125766933e-01
     5091000000    9.033291787e-02   -9.119228274e-02
     5094000000    1.238199994e-01   -5.557888001e-02
     5097000000    1.413313001e-01   -6.316322368e-03
     5100000000    1.407471001e-01    4.387767985e-02
     5103000000    1.217925400e-01    9.599324316e-02
     5106000000    9.011518955e-02    1.384066641e-01
     5109000000    2.956684865e-02    1.655150354e-01
     5112000000   -2.433998883e-02    1.786384583e-01
     5115000000   -9.002441168e-02    1.603911370e-01
     5118000000   -1.419401616e-01    1.268034130e-01
     5121000000   -1.803697944e-01    6.835558265e-02
     5124000000   -1.992605925e-01    3.985408228e-03
     5127000000   -1.873818934e-01   -6.881742179e-02
     5130000000   -1.624249816e-01   -1.331485361e-01
     5133000000   -1.049881205e-01   -1.837718636e-01
     5136000000   -3.751242906e-02   -2.127529383e-01
     5139000000    4.096366093e-02   -2.128607780e-01
     5142000000    1.145072430e-01   -1.903877556e-01
     5145000000    1.783404499e-01   -1.398501843e-01
     5148000000    2.179553956e-01   -7.065504044e-02
     5151000000    2.312510312e-01    9.826678783e-03
     5154000000    2.176342905e-01    9.047833830e-02
     5157000000    1.738648564e-01    1.622799188e-01
     5160000000    1.092374623e-01    2.143137306e-01
     5163000000    2.860437147e-02    2.413860112e-01
     5166000000   -5.759505928e-02    2.322027087e-01
     5169000000   -1.373821646e-01    1.984665841e-01
     5172000000   -2.012672871e-01    1.366457492e-01
     5175000000   -2.316667140e-01    5.549428985e-02
     5178000000   -2.446660995e-01   -3.193226829e-02
     5181000000   -2.128405422e-01   -1.126075834e-01
     5184000000   -1.666131467e-01   -1.908089519e-01
     5187000000   -8.522389084e-02   -2.263572812e-01
     5190000000    2.150724176e-03   -2.537353933e-01
     5193000000    8.498359472e-02   -2.282326818e-01
     5196000000    1.718568057e-01   -1.944314390e-01
     5199000000    2.221949250e-01   -1.165684462e-01
     5202000000    2.545685470e-01   -3.245890141e-02
     5205000000    2.430231273e-01    5.573027954e-02
     5208000000    2.089545876e-01    1.409019977e-01
     5211000000    1.444156170e-01    2.046970576e-01
     5214000000    6.251795590e-02    2.437726110e-01
     5217000000   -2.806712128e-02    2.480595112e-01
     5220000000   -1.168885380e-01    2.217274457e-01
     5223000000   -1.829627454e-01    1.622003615e-01
     5226000000   -2.277636081e-01    8.260148019e-02
     5229000000   -2.436459512e-01   -3.704303876e-03
     5232000000   -2.271175981e-01   -9.354042262e-02
     5235000000   -1.777063012e-01   -1.705269814e-01
     5238000000   -1.047132388e-01   -2.256379724e-01
     5241000000   -1.632055454e-02   -2.447801679e-01
     5244000000    6.974038482e-02   -2.326644659e-01
     5247000000    1.514505744e-01   -1.931047142e-01
     5250000000    2.055215240e-01   -1.236835271e-01
     5253000000    2.365404367e-01   -3.881516680e-02
     5256000000    2.361289561e-01    5.177238956e-02
     5259000000    2.025636435e-01    1.348638237e-01
     5262000000    1.385636032e-01    1.923888475e-01
     5265000000    6.090962887e-02    2.275411934e-01
     5268000000   -3.346001729e-02    2.435652763e-01
     5271000000   -1.127390563e-01    2.100865394e-01
     5274000000   -1.716970801e-01    1.527208388e-01
     5277000000   -2.337422073e-01    7.510858029e-02
     5280000000   -2.377627641e-01   -7.529246155e-03
     5283000000   -2.231315523e-01   -9.983124584e-02
     5286000000   -1.704580039e-01   -1.634262800e-01
     5289000000   -9.918730706e-02   -2.192073911e-01
     5292000000   -1.508941688e-02   -2.359724939e-01
     5295000000    7.840763032e-02   -2.280807644e-01
     5298000000    1.523295790e-01   -1.840589195e-01
     5301000000    2.022025734e-01   -1.174926758e-01
     5304000000    2.314146310e-01   -3.517762944e-02
     5307000000    2.269058824e-01    4.889396206e-02
     5310000000    1.928017884e-01    1.308893859e-01
     5313000000    1.313422024e-01    1.925061941e-01
     5316000000    5.356922001e-02    2.215363234e-01
     5319000000   -3.078424931e-02    2.239305228e-01
     5322000000   -1.081756130e-01    1.971301287e-01
     5325000000   -1.713442504e-01    1.416853666e-01
     5328000000   -2.134725600e-01    6.779582798e-02
     5331000000   -2.161156237e-01   -1.306230109e-02
     5334000000   -1.957635134e-01   -9.454561770e-02
     5337000000   -1.447899640e-01   -1.625255346e-01
     5340000000   -7.623748481e-02   -1.976524591e-01
     5343000000    2.666573972e-03   -2.148220092e-01
     5346000000    8.409967273e-02   -2.002944946e-01
     5349000000    1.524655223e-01   -1.544295847e-01
     5352000000    1.951537430e-01   -8.743581921e-02
     5355000000    2.156057507e-01   -9.509976022e-03
     5358000000    2.068454921e-01    7.470768690e-02
     5361000000    1.635200679e-01    1.278606653e-01
     5364000000    1.005261689e-01    1.890151352e-01
     5367000000    3.172090650e-02    1.976421326e-01
     5370000000   -5.079106987e-02    1.977946311e-01
     5373000000   -1.408279687e-01    1.670070142e-01
     5376000000   -1.848895550e-01    1.071782410e-01
     5379000000   -1.977906227e-01    4.298212752e-02
     5382000000   -1.931528747e-01   -3.232992068e-02
     5385000000   -1.681192517e-01   -1.174917147e-01
     5388000000   -1.139943525e-01   -1.634036303e-01
     5391000000   -3.468637913e-02   -2.168974578e-01
     5394000000    1.576037891e-02   -1.916223317e-01
     5397000000    1.028172150e-01   -1.720563322e-01
     5400000000    1.548672765e-01   -1.185833812e-01
     5403000000    1.943566799e-01   -5.102751032e-02
     5406000000    1.965059787e-01    2.078396082e-02
     5409000000    1.738267988e-01    9.256868064e-02
     5412000000    1.250954121e-01    1.604688764e-01
     5415000000    6.353987753e-02    1.884123832e-01
     5418000000   -1.021274272e-02    1.963890344e-01
     5421000000   -8.542290330e-02    1.791981161e-01
     5424000000   -1.388109922e-01    1.375506073e-01
     5427000000   -1.870617867e-01    6.800888479e-02
     5430000000   -1.999433786e-01   -1.050012279e-02
     5433000000   -1.752030253e-01   -6.398331374e-02
     5436000000   -1.353136897e-01   -1.468459368e-01
     5439000000   -7.195189595e-02   -1.828032732e-01
     5442000000   -1.419960638e-03   -1.968660504e-01
     5445000000    6.750179082e-02   -1.833166927e-01
     5448000000    1.401119381e-01   -1.428551674e-01
     5451000000    1.739168912e-01   -8.471024036e-02
     5454000000    1.937854290e-01   -1.155324001e-02
     5457000000    1.871767640e-01    6.695213914e-02
     5460000000    1.498563290e-01    1.239343062e-01
     5463000000    9.401086718e-02    1.661985964e-01
     5466000000    1.860564202e-02    1.965100914e-01
     5469000000   -5.313807353e-02    1.858505905e-01
     5472000000   -1.258967221e-01    1.523833126e-01
     5475000000   -1.754361391e-01    9.159540385e-02
     5478000000   -1.835993975e-01    3.526501358e-02
     5481000000   -1.876976490e-01   -5.221218988e-02
     5484000000   -1.549669653e-01   -1.127116233e-01
     5487000000   -9.500855207e-02   -1.784693003e-01
     5490000000   -2.863038890e-02   -1.940964162e-01
     5493000000    4.109549522e-02   -1.920155436e-01
     5496000000    1.338235289e-01   -1.633365303e-01
     5499000000    1.686352193e-01   -1.103699952e-01
     5502000000    2.017802596e-01   -3.649055585e-02
     5505000000    2.021132857e-01    4.136142507e-02
     5508000000    1.734387279e-01    1.144890338e-01
     5511000000    1.197067201e-01    1.717218310e-01
     5514000000    4.716781527e-02    2.067507207e-01
     5517000000   -3.466797248e-02    2.087128162e-01
     5520000000   -1.190250814e-01    1.816076636e-01
     5523000000   -1.695068479e-01    1.312928051e-01
     5526000000   -2.096834630e-01    5.898425728e-02
     5529000000   -2.138912082e-01   -1.173397060e-02
     5532000000   -1.943906397e-01   -1.048811376e-01
     5535000000   -1.407591254e-01   -1.786421984e-01
     5538000000   -7.931265235e-02   -2.031730860e-01
     5541000000    1.312586106e-02   -2.257952988e-01
     5544000000    1.047477350e-01   -2.072706819e-01
     5547000000    1.638272852e-01   -1.609513760e-01
     5550000000    2.171170264e-01   -8.662860096e-02
     5553000000    2.351478636e-01    1.095912070e-03
     5556000000    2.257870883e-01    9.556964785e-02
     5559000000    1.790755689e-01    1.595682204e-01
     5562000000    1.204851940e-01    2.033708990e-01
     5565000000    1.098678168e-02    2.471965700e-01
     5568000000   -7.578022033e-02    2.339624465e-01
     5571000000   -1.547434777e-01    1.937941909e-01
     5574000000   -2.284349799e-01    1.160386354e-01
     5577000000   -2.529067397e-01    3.901292011e-02
     5580000000   -2.522084713e-01   -6.802769750e-02
     5583000000   -2.190026641e-01   -1.375630051e-01
     5586000000   -1.490978748e-01   -2.163182497e-01
     5589000000   -6.230522320e-02   -2.598430812e-01
     5592000000    2.722930722e-02   -2.644594908e-01
     5595000000    1.283354908e-01   -2.378506958e-01
     5598000000    2.066116333e-01   -1.766018569e-01
     5601000000    2.521546185e-01   -9.763299674e-02
     5604000000    2.745999098e-01    1.530646998e-02
     5607000000    2.533178031e-01    1.069845259e-01
     5610000000    1.984362453e-01    1.936048418e-01
     5613000000    1.172653139e-01    2.527000010e-01
     5616000000    4.190835636e-03    2.829288840e-01
     5619000000   -9.310924262e-02    2.657179534e-01
     5622000000   -1.687217206e-01    2.233735472e-01
     5625000000   -2.521964312e-01    1.312400848e-01
     5628000000   -2.814795077e-01    4.673032463e-02
     5631000000   -2.798272073e-01   -5.581208691e-02
     5634000000   -2.383235991e-01   -1.588195860e-01
     5637000000   -1.704754829e-01   -2.299522609e-01
     5640000000   -7.385367900e-02   -2.752627134e-01
     5643000000    3.305800632e-02   -2.853865921e-01
     5646000000    1.342445314e-01   -2.533205748e-01
     5649000000    2.136584073e-01   -1.907152385e-01
     5652000000    2.587344646e-01   -1.258236468e-01
     5655000000    2.866940200e-01    2.521515358e-03
     5658000000    2.609994113e-01    1.165360734e-01
     5661000000    2.114201337e-01    1.944157779e-01
     5664000000    1.309307516e-01    2.583355010e-01
     5667000000    3.015428036e-02    2.889231443e-01
     5670000000   -7.346681505e-02    2.816465199e-01
     5673000000   -1.648634523e-01    2.330268770e-01
     5676000000   -2.374136895e-01    1.520222574e-01
     5679000000   -2.732020020e-01    7.615565509e-02
     5682000000   -2.766029537e-01   -4.133014381e-02
     5685000000   -2.383501232e-01   -1.385838985e-01
     5688000000   -1.895559132e-01   -2.023604512e-01
     5691000000   -7.558304816e-02   -2.577566206e-01
     5694000000    1.617806964e-02   -2.664315403e-01
     5697000000    9.351783246e-02   -2.534374297e-01
     5700000000    1.857551336e-01   -1.847198009e-01
     5703000000    2.379680872e-01   -1.124170795e-01
     5706000000    2.569532990e-01   -7.410872728e-03
     5709000000    2.535042167e-01    6.378376484e-02
     5712000000    2.030702084e-01    1.524899900e-01
     5715000000    1.275783628e-01    2.141802758e-01
     5718000000    4.009741545e-02    2.434917390e-01
     5721000000   -5.143205076e-02    2.348450124e-01
     5724000000   -1.339229941e-01    1.926742345e-01
     5727000000   -1.922401339e-01    1.375203133e-01
     5730000000   -2.284028381e-01    5.908894911e-02
     5733000000   -2.272006571e-01   -3.328241780e-02
     5736000000   -2.005429119e-01   -1.118079945e-01
     5739000000   -1.364414245e-01   -1.739578396e-01
     5742000000   -8.086694777e-02   -2.128747702e-01
     5745000000    1.288824528e-02   -2.187370658e-01
     5748000000    9.473800659e-02   -1.894244105e-01
     5751000000    1.507659405e-01   -1.558092684e-01
     5754000000    1.931959838e-01   -8.328080922e-02
     5757000000    2.039327174e-01   -4.290419631e-03
     5760000000    2.051364630e-01    5.821549147e-02
     5763000000    1.528978497e-01    1.315484047e-01
     5766000000    7.186824083e-02    1.724711508e-01
     5769000000    1.199522242e-02    1.897939295e-01
     5772000000   -5.020198226e-02    1.853616983e-01
     5775000000   -1.142718345e-01    1.533856392e-01
     5778000000   -1.587587893e-01    7.268328220e-02
     5781000000   -1.785307378e-01    2.439211123e-02
     5784000000   -1.760456264e-01   -4.305882752e-02
     5787000000   -1.337860525e-01   -1.056024730e-01
     5790000000   -9.103883803e-02   -1.454400420e-01
     5793000000   -2.770456485e-02   -1.678391546e-01
     5796000000    3.583489731e-02   -1.652775705e-01
     5799000000    9.732398391e-02   -1.321335584e-01
     5802000000    1.361259818e-01   -8.880763501e-02
     5805000000    1.606187969e-01   -3.531379625e-02
     5808000000    1.548100561e-01    2.958044969e-02
     5811000000    1.262961477e-01    8.448564261e-02
     5814000000    8.812746406e-02    1.256268322e-01
     5817000000    3.534529731e-02    1.472300738e-01
     5820000000   -2.954025008e-02    1.414373070e-01
     5823000000   -7.891047746e-02    1.224846765e-01
     5826000000   -1.172674745e-01    8.174644411e-02
     5829000000   -1.341471374e-01    1.858448423e-02
     5832000000   -1.420371681e-01   -2.380330674e-02
     5835000000   -1.230105087e-01   -7.825044543e-02
     5838000000   -7.826043665e-02   -1.188376099e-01
     5841000000   -2.000876702e-02   -1.349497586e-01
     5844000000    2.300162800e-02   -1.417603344e-01
     5847000000    7.639870793e-02   -1.184734404e-01
     5850000000    1.143421456e-01   -8.473716676e-02
     5853000000    1.332990378e-01   -2.951818518e-02
     5856000000    1.303770542e-01    2.607949264e-02
     5859000000    1.169362441e-01    7.233127207e-02
     5862000000    7.353299111e-02    1.123379022e-01
     5865000000    2.664810233e-02    1.336596161e-01
     5868000000   -2.845649607e-02    1.334471405e-01
     5871000000   -7.920378447e-02    1.066661030e-01
     5874000000   -1.148843765e-01    6.339817494e-02
     5877000000   -1.422454268e-01    3.450306132e-02
     5880000000   -1.368869990e-01   -3.213231638e-02
     5883000000   -1.134874523e-01   -8.178652078e-02
     5886000000   -7.980134338e-02   -1.185376942e-01
     5889000000   -2.106374502e-02   -1.365145892e-01
     5892000000    1.803785004e-02   -1.519249231e-01
     5895000000    7.811941952e-02   -1.211017221e-01
     5898000000    1.202532202e-01   -6.399304420e-02
     5901000000    1.428819299e-01   -2.406259254e-02
     5904000000    1.462738663e-01    2.944221906e-02
     5907000000    1.387233138e-01    7.984116673e-02
     5910000000    7.190363109e-02    1.259453744e-01
     5913000000    4.210604727e-02    1.553775072e-01
     5916000000   -2.788410895e-02    1.513430178e-01
     5919000000   -8.243825287e-02    1.398382038e-01
     5922000000   -1.301882863e-01    1.010433435e-01
     5925000000   -1.585000902e-01    4.289668798e-02
     5928000000   -1.659248769e-01   -1.870460808e-02
     5931000000   -1.469364315e-01   -7.922436297e-02
     5934000000   -1.114734188e-01   -1.288795620e-01
     5937000000   -5.179086700e-02   -1.624259949e-01
     5940000000    1.085462142e-02   -1.744210571e-01
     5943000000    7.022852451e-02   -1.701076478e-01
     5946000000    1.298263371e-01   -1.086770371e-01
     5949000000    1.690969020e-01   -7.721872628e-02
     5952000000    1.709506214e-01    1.238293480e-02
     5955000000    1.708979607e-01    6.497531384e-02
     5958000000    1.269638389e-01    1.267588288e-01
     5961000000    9.148101509e-02    1.717133522e-01
     5964000000   -1.804464497e-03    1.765218824e-01
     5967000000   -6.014873832e-02    1.805538237e-01
     5970000000   -1.235427633e-01    1.542410702e-01
     5973000000   -1.672990322e-01    7.513593882e-02
     5976000000   -1.920816004e-01    1.610041410e-02
     5979000000   -2.013878226e-01   -4.439438879e-02
     5982000000   -1.533196121e-01   -1.174065322e-01
     5985000000   -1.201240942e-01   -1.711980104e-01
     5988000000   -3.888022155e-02   -1.967314631e-01
     5991000000    3.238145262e-02   -2.029560506e-01
     5994000000    1.056261286e-01   -1.763328612e-01
     5997000000    1.660711914e-01   -1.320216507e-01
     6000000000    1.995874792e-01   -6.213343143e-02
