! NanoVNA-App
! Date: 2026-05-22 17:55:57
! Start: 2.3GHz Stop: 2.6GHz Points: 401
! S-Parameter data: F S11
# Hz S RI R 50
!     Frequency           S11_Real           S11_Imag
     2300000000    6.228354946e-02   -3.391174078e-01
     2300750000    9.301861376e-02   -3.322781622e-01
     2301500000    1.265133619e-01   -3.192429841e-01
     2302250000    1.544100493e-01   -3.063963950e-01
     2303000000    1.832368970e-01   -2.910940945e-01
     2303750000    2.083881348e-01   -2.746118903e-01
     2304500000    2.344641834e-01   -2.507347465e-01
     2305250000    2.566957474e-01   -2.274757475e-01
     2306000000    2.771959901e-01   -2.028682381e-01
     2306750000    2.945672572e-01   -1.761171073e-01
     2307500000    3.097605407e-01   -1.491189450e-01
     2308250000    3.218257129e-01   -1.176050454e-01
     2309000000    3.315807879e-01   -8.769199252e-02
     2309750000    3.387695551e-01   -5.716486275e-02
     2310500000    3.415413499e-01   -2.460303716e-02
     2311250000    3.437224329e-01    6.154892966e-03
     2312000000    3.403002620e-01    3.952975944e-02
     2312750000    3.344576061e-01    7.195549458e-02
     2313500000    3.252420723e-01    1.040755808e-01
     2314250000    3.156733215e-01    1.317969561e-01
     2315000000    3.021132350e-01    1.610789448e-01
     2315750000    2.837591767e-01    1.903309226e-01
     2316500000    2.661705017e-01    2.155713886e-01
     2317250000    2.450557798e-01    2.395008057e-01
     2318000000    2.208074927e-01    2.618175745e-01
     2318750000    1.955666691e-01    2.814296782e-01
     2319500000    1.698979884e-01    2.981308699e-01
     2320250000    1.419061720e-01    3.129362464e-01
     2321000000    1.089887097e-01    3.247651458e-01
     2321750000    8.085868508e-02    3.345127404e-01
     2322500000    4.852684587e-02    3.402499855e-01
     2323250000    1.539731678e-02    3.423860669e-01
     2324000000   -1.599804498e-02    3.433763385e-01
     2324750000   -4.665793851e-02    3.407321870e-01
     2325500000   -7.867065817e-02    3.355917335e-01
     2326250000   -1.120462641e-01    3.259151578e-01
     2327000000   -1.414889991e-01    3.148207664e-01
     2327750000   -1.705307811e-01    3.002018034e-01
     2328500000   -1.981185973e-01    2.822719216e-01
     2329250000   -2.254705727e-01    2.615971267e-01
     2330000000   -2.478656918e-01    2.444683611e-01
     2330750000   -2.707615495e-01    2.181176394e-01
     2331500000   -2.903891206e-01    1.907844990e-01
     2332250000   -3.074021041e-01    1.664940417e-01
     2333000000   -3.223354816e-01    1.359657943e-01
     2333750000   -3.337284029e-01    1.061712056e-01
     2334500000   -3.430441916e-01    7.579375058e-02
     2335250000   -3.496029973e-01    4.390292615e-02
     2336000000   -3.524423242e-01    1.156087127e-02
     2336750000   -3.526692688e-01   -2.050094493e-02
     2337500000   -3.501456380e-01   -5.276389793e-02
     2338250000   -3.440201283e-01   -8.478754014e-02
     2339000000   -3.352102041e-01   -1.154700592e-01
     2339750000   -3.234553337e-01   -1.452984810e-01
     2340500000   -3.096434772e-01   -1.741366833e-01
     2341250000   -2.920069695e-01   -2.015789002e-01
     2342000000   -2.720176578e-01   -2.270870805e-01
     2342750000   -2.493275851e-01   -2.511133552e-01
     2343500000   -2.272488475e-01   -2.720167339e-01
     2344250000   -2.022870779e-01   -2.914736867e-01
     2345000000   -1.707624197e-01   -3.083648682e-01
     2345750000   -1.435275078e-01   -3.225257695e-01
     2346500000   -1.133302003e-01   -3.343306482e-01
     2347250000   -8.097659051e-02   -3.427989781e-01
     2348000000   -4.824597016e-02   -3.481976986e-01
     2348750000   -1.558556035e-02   -3.514538407e-01
     2349500000    1.576967165e-02   -3.522968292e-01
     2350250000    5.062700063e-02   -3.478553593e-01
     2351000000    8.328636736e-02   -3.410256207e-01
     2351750000    1.133422777e-01   -3.334399164e-01
     2352500000    1.432441473e-01   -3.215122223e-01
     2353250000    1.756273359e-01   -3.048395813e-01
     2354000000    2.021045387e-01   -2.897630334e-01
     2354750000    2.287806273e-01   -2.692503631e-01
     2355500000    2.535020113e-01   -2.473086417e-01
     2356250000    2.770166993e-01   -2.200627029e-01
     2357000000    2.959454656e-01   -1.966907829e-01
     2357750000    3.138150275e-01   -1.695341766e-01
     2358500000    3.289755881e-01   -1.386617124e-01
     2359250000    3.401885927e-01   -1.076022014e-01
     2360000000    3.501379788e-01   -7.836159319e-02
     2360750000    3.563073575e-01   -4.552776739e-02
     2361500000    3.596332371e-01   -1.293791272e-02
     2362250000    3.598651290e-01    2.016641572e-02
     2363000000    3.577865660e-01    5.229300633e-02
     2363750000    3.503699601e-01    8.626576513e-02
     2364500000    3.423897326e-01    1.176247373e-01
     2365250000    3.304603100e-01    1.482696980e-01
     2366000000    3.158563375e-01    1.779494584e-01
     2366750000    2.976973951e-01    2.064100653e-01
     2367500000    2.776537538e-01    2.328702062e-01
     2368250000    2.566376925e-01    2.570004761e-01
     2369000000    2.316439897e-01    2.795944512e-01
     2369750000    2.057708502e-01    3.000194132e-01
     2370500000    1.771787852e-01    3.177181482e-01
     2371250000    1.475093812e-01    3.328235149e-01
     2372000000    1.164367050e-01    3.445915580e-01
     2372750000    8.359999955e-02    3.551909328e-01
     2373500000    5.068882555e-02    3.612284660e-01
     2374250000    1.833836548e-02    3.645867407e-01
     2375000000   -1.700789295e-02    3.646665514e-01
     2375750000   -4.896248877e-02    3.629814088e-01
     2376500000   -8.320842683e-02    3.563529253e-01
     2377250000   -1.146397218e-01    3.498339057e-01
     2378000000   -1.470124573e-01    3.375226855e-01
     2378750000   -1.785466671e-01    3.225134015e-01
     2379500000   -2.077044696e-01    3.053906560e-01
     2380250000   -2.336103767e-01    2.878714800e-01
     2381000000   -2.600924671e-01    2.644353211e-01
     2381750000   -2.836527824e-01    2.401424199e-01
     2382500000   -3.034536839e-01    2.156620622e-01
     2383250000   -3.230573535e-01    1.873519868e-01
     2384000000   -3.387581706e-01    1.548121125e-01
     2384750000   -3.512984514e-01    1.262830347e-01
     2385500000   -3.623945713e-01    9.655240178e-02
     2386250000   -3.685286641e-01    5.963800848e-02
     2387000000   -3.733990788e-01    2.684549801e-02
     2387750000   -3.751470447e-01   -4.201063886e-03
     2388500000   -3.735656142e-01   -3.836423531e-02
     2389250000   -3.661490679e-01   -7.430833578e-02
     2390000000   -3.600904644e-01   -1.050291434e-01
     2390750000   -3.492062688e-01   -1.377146691e-01
     2391500000   -3.354095817e-01   -1.693146378e-01
     2392250000   -3.195149004e-01   -1.974613816e-01
     2393000000   -2.983558774e-01   -2.265625745e-01
     2393750000   -2.790100574e-01   -2.520831525e-01
     2394500000   -2.545476258e-01   -2.753860652e-01
     2395250000   -2.291548550e-01   -2.976393998e-01
     2396000000   -2.010914981e-01   -3.164710999e-01
     2396750000   -1.716013700e-01   -3.333020508e-01
     2397500000   -1.399531364e-01   -3.468223810e-01
     2398250000   -1.084942296e-01   -3.580569029e-01
     2399000000   -7.545129955e-02   -3.659723997e-01
     2399750000   -4.142384604e-02   -3.714319766e-01
     2400500000   -6.975018419e-03   -3.734242618e-01
     2401250000    2.717459202e-02   -3.721584678e-01
     2402000000    6.105445698e-02   -3.674634695e-01
     2402750000    9.345000237e-02   -3.608328998e-01
     2403500000    1.261453629e-01   -3.509550095e-01
     2404250000    1.571248770e-01   -3.383128345e-01
     2405000000    1.878171414e-01   -3.227067590e-01
     2405750000    2.166497558e-01   -3.042675853e-01
     2406500000    2.437913269e-01   -2.836650610e-01
     2407250000    2.682960331e-01   -2.610090077e-01
     2408000000    2.916977108e-01   -2.349300385e-01
     2408750000    3.117724657e-01   -2.085426301e-01
     2409500000    3.297189176e-01   -1.790327281e-01
     2410250000    3.450136781e-01   -1.481708586e-01
     2411000000    3.566903174e-01   -1.178360507e-01
     2411750000    3.663369715e-01   -8.536356688e-02
     2412500000    3.728273809e-01   -5.244865641e-02
     2413250000    3.758580089e-01   -1.922242716e-02
     2414000000    3.764187992e-01    1.400718652e-02
     2414750000    3.735422492e-01    4.793597758e-02
     2415500000    3.672467172e-01    8.122825623e-02
     2416250000    3.587825894e-01    1.134932116e-01
     2417000000    3.468621373e-01    1.455567032e-01
     2417750000    3.321767151e-01    1.758802235e-01
     2418500000    3.158331811e-01    2.047775239e-01
     2419250000    2.960569263e-01    2.316123843e-01
     2420000000    2.736551166e-01    2.569108903e-01
     2420750000    2.493025362e-01    2.806189358e-01
     2421500000    2.236341983e-01    3.011917472e-01
     2422250000    1.960439533e-01    3.194888830e-01
     2423000000    1.660304517e-01    3.359513581e-01
     2423750000    1.350381523e-01    3.491896093e-01
     2424500000    1.018352285e-01    3.593636751e-01
     2425250000    7.141924649e-02    3.673291802e-01
     2426000000    3.784552217e-02    3.718742132e-01
     2426750000    4.519052338e-03    3.735915422e-01
     2427500000   -2.868067846e-02    3.719632924e-01
     2428250000   -6.245286018e-02    3.678286076e-01
     2429000000   -9.403126687e-02    3.604513407e-01
     2429750000   -1.254914403e-01    3.509826660e-01
     2430500000   -1.560200751e-01    3.375306129e-01
     2431250000   -1.843506247e-01    3.230738938e-01
     2432000000   -2.135710120e-01    3.038863242e-01
     2432750000   -2.387321740e-01    2.849933803e-01
     2433500000   -2.638913095e-01    2.599669397e-01
     2434250000   -2.840894163e-01    2.370789349e-01
     2435000000   -3.034333885e-01    2.126302719e-01
     2435750000   -3.212664127e-01    1.831114590e-01
     2436500000   -3.360201120e-01    1.523454636e-01
     2437250000   -3.477251828e-01    1.243796870e-01
     2438000000   -3.563767970e-01    9.203688800e-02
     2438750000   -3.618614674e-01    5.888270587e-02
     2439500000   -3.657819629e-01    2.783904597e-02
     2440250000   -3.664906621e-01   -3.764023073e-03
     2441000000   -3.636800051e-01   -3.620253876e-02
     2441750000   -3.576403856e-01   -6.891781837e-02
     2442500000   -3.499954641e-01   -9.872636944e-02
     2443250000   -3.382856846e-01   -1.294861138e-01
     2444000000   -3.255284429e-01   -1.572160870e-01
     2444750000   -3.095211089e-01   -1.855388284e-01
     2445500000   -2.920165956e-01   -2.105420381e-01
     2446250000   -2.709001303e-01   -2.350481600e-01
     2447000000   -2.493278384e-01   -2.568666339e-01
     2447750000   -2.247670442e-01   -2.767707705e-01
     2448500000   -1.993203461e-01   -2.943421304e-01
     2449250000   -1.714994609e-01   -3.100053370e-01
     2450000000   -1.434428692e-01   -3.224411011e-01
     2450750000   -1.143387184e-01   -3.321883678e-01
     2451500000   -8.454192430e-02   -3.398005962e-01
     2452250000   -5.432645231e-02   -3.440965414e-01
     2453000000   -2.407878824e-02   -3.459250033e-01
     2453750000    5.828554742e-03   -3.445840180e-01
     2454500000    3.598146513e-02   -3.408550322e-01
     2455250000    6.532135606e-02   -3.346601725e-01
     2456000000    9.462630004e-02   -3.255934417e-01
     2456750000    1.230421811e-01   -3.135642707e-01
     2457500000    1.479585618e-01   -3.007760346e-01
     2458250000    1.732050180e-01   -2.848520279e-01
     2459000000    1.970850974e-01   -2.663552165e-01
     2459750000    2.191017419e-01   -2.460460216e-01
     2460500000    2.385159880e-01   -2.247663289e-01
     2461250000    2.555825710e-01   -2.017087191e-01
     2462000000    2.720435262e-01   -1.756195426e-01
     2462750000    2.844425142e-01   -1.507965177e-01
     2463500000    2.951186895e-01   -1.250159293e-01
     2464250000    3.032070100e-01   -9.712921083e-02
     2465000000    3.089154363e-01   -6.921365112e-02
     2465750000    3.119579256e-01   -4.092937708e-02
     2466500000    3.121960461e-01   -1.278157812e-02
     2467250000    3.100363314e-01    1.450366620e-02
     2468000000    3.054085672e-01    4.135821760e-02
     2468750000    2.984426022e-01    6.903333217e-02
     2469500000    2.895798385e-01    9.426776320e-02
     2470250000    2.779393494e-01    1.190450415e-01
     2471000000    2.643757463e-01    1.429609209e-01
     2471750000    2.493840754e-01    1.647653431e-01
     2472500000    2.320644110e-01    1.851841956e-01
     2473250000    2.129711360e-01    2.042191178e-01
     2474000000    1.928210855e-01    2.206958383e-01
     2474750000    1.707259417e-01    2.357330471e-01
     2475500000    1.490396112e-01    2.480978966e-01
     2476250000    1.251465827e-01    2.584771514e-01
     2477000000    1.008228362e-01    2.662749290e-01
     2477750000    7.652786374e-02    2.721679807e-01
     2478500000    5.202738941e-02    2.760079503e-01
     2479250000    2.730631083e-02    2.770823836e-01
     2480000000    2.474766923e-03    2.764045894e-01
     2480750000   -2.206949517e-02    2.730016708e-01
     2481500000   -4.519003630e-02    2.677926123e-01
     2482250000   -6.847823411e-02    2.606373429e-01
     2483000000   -9.009394795e-02    2.509192526e-01
     2483750000   -1.110219583e-01    2.401769310e-01
     2484500000   -1.304661334e-01    2.266162634e-01
     2485250000   -1.485958993e-01    2.122593969e-01
     2486000000   -1.649357527e-01    1.967323124e-01
     2486750000   -1.794108152e-01    1.792435944e-01
     2487500000   -1.918417066e-01    1.609331667e-01
     2488250000   -2.021828890e-01    1.418373883e-01
     2489000000   -2.112479806e-01    1.219048277e-01
     2489750000   -2.179601789e-01    1.006922275e-01
     2490500000   -2.225477546e-01    7.982493937e-02
     2491250000   -2.247214019e-01    5.911769718e-02
     2492000000   -2.254597098e-01    3.757736459e-02
     2492750000   -2.240858823e-01    1.659076847e-02
     2493500000   -2.206830680e-01   -4.571467172e-03
     2494250000   -2.159213871e-01   -2.481475659e-02
     2495000000   -2.090027034e-01   -4.458573833e-02
     2495750000   -2.003374398e-01   -6.234999001e-02
     2496500000   -1.904782504e-01   -8.024731278e-02
     2497250000   -1.786943823e-01   -9.639843553e-02
     2498000000   -1.659688205e-01   -1.109021753e-01
     2498750000   -1.512531042e-01   -1.249968708e-01
     2499500000   -1.362872422e-01   -1.360159516e-01
     2500250000   -1.207557246e-01   -1.467167437e-01
     2501000000   -1.036405712e-01   -1.551561356e-01
     2501750000   -8.617474139e-02   -1.618960947e-01
     2502500000   -6.842939556e-02   -1.672933698e-01
     2503250000   -5.058043823e-02   -1.705265492e-01
     2504000000   -3.273904324e-02   -1.723409444e-01
     2504750000   -1.460086554e-02   -1.722733229e-01
     2505500000    2.577008214e-03   -1.702900678e-01
     2506250000    1.926900074e-02   -1.671521366e-01
     2507000000    3.663221374e-02   -1.617791951e-01
     2507750000    5.222200230e-02   -1.552218795e-01
     2508500000    6.644950062e-02   -1.472010463e-01
     2509250000    8.054154366e-02   -1.387908161e-01
     2510000000    9.266845137e-02   -1.286006868e-01
     2510750000    1.045979112e-01   -1.165294051e-01
     2511500000    1.143411994e-01   -1.050507873e-01
     2512250000    1.233578771e-01   -9.247179329e-02
     2513000000    1.298510581e-01   -7.876089960e-02
     2513750000    1.355288476e-01   -6.535452604e-02
     2514500000    1.396715790e-01   -5.084588006e-02
     2515250000    1.421400756e-01   -3.653515503e-02
     2516000000    1.431322247e-01   -2.212112583e-02
     2516750000    1.428676397e-01   -8.778699674e-03
     2517500000    1.408572793e-01    4.694958217e-03
     2518250000    1.374747008e-01    1.794926450e-02
     2519000000    1.326151043e-01    2.980613150e-02
     2519750000    1.260754615e-01    4.195667803e-02
     2520500000    1.192467660e-01    5.202791095e-02
     2521250000    1.103572696e-01    6.203142554e-02
     2522000000    1.007670313e-01    7.014860213e-02
     2522750000    9.066936374e-02    7.764415443e-02
     2523500000    8.018434048e-02    8.315802366e-02
     2524250000    6.794668734e-02    8.768056333e-02
     2525000000    5.521887913e-02    9.142129868e-02
     2525750000    4.333854839e-02    9.362287074e-02
     2526500000    3.028743900e-02    9.430229664e-02
     2527250000    1.775702834e-02    9.324548393e-02
     2528000000    4.088694230e-03    9.250621498e-02
     2528750000   -8.314930834e-03    8.950942755e-02
     2529500000   -1.905343309e-02    8.451089263e-02
     2530250000   -3.104572184e-02    7.910335809e-02
     2531000000   -4.072935134e-02    7.192573696e-02
     2531750000   -5.138158426e-02    6.359905750e-02
     2532500000   -5.955000967e-02    5.549148470e-02
     2533250000   -6.672043353e-02    4.574954137e-02
     2534000000   -7.309096307e-02    3.501391411e-02
     2534750000   -7.882256061e-02    2.427036874e-02
     2535500000   -8.242650330e-02    1.315540262e-02
     2536250000   -8.519674093e-02    1.023716875e-03
     2537000000   -8.574073017e-02   -1.048602629e-02
     2537750000   -8.546243608e-02   -2.232784219e-02
     2538500000   -8.351852000e-02   -3.395474702e-02
     2539250000   -8.014219254e-02   -4.528521374e-02
     2540000000   -7.591664791e-02   -5.676201731e-02
     2540750000   -6.964541227e-02   -6.695282459e-02
     2541500000   -6.248529628e-02   -7.610898465e-02
     2542250000   -5.318598822e-02   -8.475675434e-02
     2543000000   -4.388763756e-02   -9.314955771e-02
     2543750000   -3.320813552e-02   -1.004390046e-01
     2544500000   -2.222383581e-02   -1.052682251e-01
     2545250000   -9.421593510e-03   -1.101096645e-01
     2546000000    2.772478620e-03   -1.139396653e-01
     2546750000    1.610072702e-02   -1.157621592e-01
     2547500000    2.958030999e-02   -1.159062013e-01
     2548250000    4.287551716e-02   -1.135175824e-01
     2549000000    5.680130795e-02   -1.121533960e-01
     2549750000    7.070089877e-02   -1.084079444e-01
     2550500000    8.225861192e-02   -1.017503142e-01
     2551250000    9.494217485e-02   -9.402221441e-02
     2552000000    1.060977504e-01   -8.622913063e-02
     2552750000    1.174755991e-01   -7.583398372e-02
     2553500000    1.258440465e-01   -6.366631389e-02
     2554250000    1.353656948e-01   -5.075941607e-02
     2555000000    1.433173418e-01   -3.861419857e-02
     2555750000    1.480919868e-01   -2.217244357e-02
     2556500000    1.539013386e-01   -6.956665311e-03
     2557250000    1.556256711e-01    9.223796427e-03
     2558000000    1.573110670e-01    2.673339471e-02
     2558750000    1.572522372e-01    4.373582080e-02
     2559500000    1.548525244e-01    6.203337014e-02
     2560250000    1.505639553e-01    7.927706093e-02
     2561000000    1.448252201e-01    9.683138132e-02
     2561750000    1.380924731e-01    1.146384254e-01
     2562500000    1.286710948e-01    1.310506761e-01
     2563250000    1.163917705e-01    1.463571042e-01
     2564000000    1.051715389e-01    1.622403115e-01
     2564750000    9.070564806e-02    1.762791872e-01
     2565500000    7.455348223e-02    1.889800578e-01
     2566250000    5.759194493e-02    2.008726895e-01
     2567000000    3.838344291e-02    2.102766633e-01
     2567750000    1.993388124e-02    2.194942683e-01
     2568500000    7.411425759e-05    2.267618626e-01
     2569250000   -2.267317846e-02    2.299044430e-01
     2570000000   -4.429761693e-02    2.324660122e-01
     2570750000   -6.539430469e-02    2.342295200e-01
     2571500000   -8.831381798e-02    2.315831929e-01
     2572250000   -1.101977900e-01    2.284079343e-01
     2573000000   -1.321875900e-01    2.221030742e-01
     2573750000   -1.545504332e-01    2.139524817e-01
     2574500000   -1.752238274e-01    2.032715678e-01
     2575250000   -1.959152222e-01    1.903662533e-01
     2576000000   -2.155277431e-01    1.759486794e-01
     2576750000   -2.337880135e-01    1.602251232e-01
     2577500000   -2.500689328e-01    1.418028623e-01
     2578250000   -2.649035156e-01    1.214371622e-01
     2579000000   -2.789318562e-01    9.981522709e-02
     2579750000   -2.903848886e-01    7.681071013e-02
     2580500000   -2.992348671e-01    5.166238546e-02
     2581250000   -3.066918850e-01    2.586582489e-02
     2582000000   -3.118732274e-01   -7.329576765e-04
     2582750000   -3.127884567e-01   -2.910888940e-02
     2583500000   -3.145755529e-01   -5.596278235e-02
     2584250000   -3.118393123e-01   -8.420995623e-02
     2585000000   -3.067566156e-01   -1.126017272e-01
     2585750000   -2.985119820e-01   -1.404266804e-01
     2586500000   -2.895070314e-01   -1.676614583e-01
     2587250000   -2.767811418e-01   -1.938581020e-01
     2588000000   -2.615025938e-01   -2.197626084e-01
     2588750000   -2.439422607e-01   -2.439233959e-01
     2589500000   -2.259134203e-01   -2.667320967e-01
     2590250000   -2.044786662e-01   -2.876709402e-01
     2591000000   -1.785322577e-01   -3.073780239e-01
     2591750000   -1.531553715e-01   -3.240425885e-01
     2592500000   -1.271910220e-01   -3.389306962e-01
     2593250000   -9.659669548e-02   -3.505094945e-01
     2594000000   -6.604358554e-02   -3.605802953e-01
     2594750000   -3.646609560e-02   -3.684313595e-01
     2595500000   -2.380750375e-03   -3.721719384e-01
     2596250000    2.982736938e-02   -3.738422692e-01
     2597000000    6.171483546e-02   -3.723556399e-01
     2597750000    9.531878680e-02   -3.679499924e-01
     2598500000    1.285176128e-01   -3.612430096e-01
     2599250000    1.607354581e-01   -3.514659405e-01
     2600000000    1.927974969e-01   -3.369623125e-01
