! NanoVNA-App
! Date: 2026-05-22 17:51:34
! Start: 2.3GHz Stop: 2.6GHz Points: 401
! S-Parameter data: F S11
# Hz S RI R 50
!     Frequency           S11_Real           S11_Imag
     2300000000   -1.004539058e-02   -3.892479539e-01
     2300750000    2.624018490e-02   -3.878345788e-01
     2301500000    6.126497313e-02   -3.844660819e-01
     2302250000    9.565453976e-02   -3.767039180e-01
     2303000000    1.331282258e-01   -3.636462688e-01
     2303750000    1.637817174e-01   -3.518881798e-01
     2304500000    1.966034025e-01   -3.333378732e-01
     2305250000    2.246895283e-01   -3.164827824e-01
     2306000000    2.544921935e-01   -2.914116085e-01
     2306750000    2.795071304e-01   -2.669205666e-01
     2307500000    3.028672636e-01   -2.417183816e-01
     2308250000    3.232242167e-01   -2.117138207e-01
     2309000000    3.419744074e-01   -1.818870604e-01
     2309750000    3.567707241e-01   -1.486658454e-01
     2310500000    3.685082197e-01   -1.163561270e-01
     2311250000    3.775608540e-01   -8.099368215e-02
     2312000000    3.831453323e-01   -4.822166264e-02
     2312750000    3.843601346e-01   -1.080586575e-02
     2313500000    3.843427300e-01    2.364795655e-02
     2314250000    3.795217276e-01    5.728336051e-02
     2315000000    3.732641637e-01    9.203607589e-02
     2315750000    3.619472086e-01    1.262088567e-01
     2316500000    3.483287394e-01    1.586261541e-01
     2317250000    3.330202401e-01    1.886388361e-01
     2318000000    3.147005439e-01    2.178927362e-01
     2318750000    2.922183871e-01    2.453317046e-01
     2319500000    2.686784565e-01    2.700745165e-01
     2320250000    2.415365428e-01    2.936190069e-01
     2321000000    2.145151347e-01    3.143687248e-01
     2321750000    1.849891245e-01    3.314628303e-01
     2322500000    1.533664763e-01    3.461082280e-01
     2323250000    1.236717030e-01    3.570994735e-01
     2324000000    8.946129680e-02    3.666035533e-01
     2324750000    5.492641777e-02    3.713918924e-01
     2325500000    1.944688894e-02    3.740213215e-01
     2326250000   -1.272771973e-02    3.749366105e-01
     2327000000   -4.773783684e-02    3.700389862e-01
     2327750000   -8.206260204e-02    3.621828556e-01
     2328500000   -1.115197241e-01    3.541092575e-01
     2329250000   -1.461210102e-01    3.396042287e-01
     2330000000   -1.756296456e-01    3.245774209e-01
     2330750000   -2.039342374e-01    3.064183593e-01
     2331500000   -2.304556370e-01    2.863338888e-01
     2332250000   -2.546831369e-01    2.643737197e-01
     2333000000   -2.782828212e-01    2.351698726e-01
     2333750000   -2.970904112e-01    2.108553946e-01
     2334500000   -3.146924078e-01    1.819783300e-01
     2335250000   -3.298172653e-01    1.508974433e-01
     2336000000   -3.416239619e-01    1.203649342e-01
     2336750000   -3.499377072e-01    8.646503091e-02
     2337500000   -3.563497961e-01    5.525575206e-02
     2338250000   -3.595132530e-01    2.160773426e-02
     2339000000   -3.594305813e-01   -1.160252187e-02
     2339750000   -3.558879197e-01   -4.487783834e-02
     2340500000   -3.495648205e-01   -7.832998782e-02
     2341250000   -3.403880000e-01   -1.097232774e-01
     2342000000   -3.283169270e-01   -1.402993649e-01
     2342750000   -3.135724962e-01   -1.696797609e-01
     2343500000   -2.968416512e-01   -1.973664761e-01
     2344250000   -2.756241858e-01   -2.245614976e-01
     2345000000   -2.540380359e-01   -2.481749207e-01
     2345750000   -2.283844650e-01   -2.703746259e-01
     2346500000   -2.028047144e-01   -2.903452814e-01
     2347250000   -1.745718867e-01   -3.072809279e-01
     2348000000   -1.457051337e-01   -3.216259778e-01
     2348750000   -1.158109978e-01   -3.340611160e-01
     2349500000   -8.418455720e-02   -3.426282704e-01
     2350250000   -5.326388404e-02   -3.498738706e-01
     2351000000   -1.874067634e-02   -3.515336812e-01
     2351750000    1.381429937e-02   -3.507107496e-01
     2352500000    4.399821535e-02   -3.487950563e-01
     2353250000    7.642760128e-02   -3.436069191e-01
     2354000000    1.082456559e-01   -3.342646360e-01
     2354750000    1.387765855e-01   -3.223844171e-01
     2355500000    1.674740463e-01   -3.092469871e-01
     2356250000    1.948704422e-01   -2.919756174e-01
     2357000000    2.202745080e-01   -2.724410594e-01
     2357750000    2.443604320e-01   -2.516213655e-01
     2358500000    2.663724422e-01   -2.280934751e-01
     2359250000    2.849665880e-01   -2.035727054e-01
     2360000000    3.022506833e-01   -1.753860712e-01
     2360750000    3.172475100e-01   -1.474226862e-01
     2361500000    3.282224536e-01   -1.180535480e-01
     2362250000    3.375433981e-01   -8.775260299e-02
     2363000000    3.435381651e-01   -5.563100055e-02
     2363750000    3.469956517e-01   -2.478537522e-02
     2364500000    3.479322493e-01    5.847769324e-03
     2365250000    3.444327414e-01    3.812351450e-02
     2366000000    3.385702670e-01    6.977584958e-02
     2366750000    3.314917088e-01    9.885016084e-02
     2367500000    3.207535744e-01    1.285582930e-01
     2368250000    3.069277704e-01    1.565311104e-01
     2369000000    2.913712561e-01    1.830975860e-01
     2369750000    2.724075317e-01    2.091939598e-01
     2370500000    2.516826093e-01    2.322517782e-01
     2371250000    2.297192663e-01    2.539613545e-01
     2372000000    2.049996555e-01    2.729728520e-01
     2372750000    1.783951819e-01    2.905858159e-01
     2373500000    1.507246494e-01    3.040588796e-01
     2374250000    1.227312088e-01    3.160580099e-01
     2375000000    9.305165708e-02    3.250398636e-01
     2375750000    6.283079833e-02    3.309535980e-01
     2376500000    3.345473483e-02    3.353081346e-01
     2377250000    1.050186460e-03    3.354799151e-01
     2378000000   -2.843585610e-02    3.336265683e-01
     2378750000   -5.807504058e-02    3.297494054e-01
     2379500000   -8.821868151e-02    3.212448061e-01
     2380250000   -1.172289923e-01    3.104874790e-01
     2381000000   -1.440564692e-01    2.988842130e-01
     2381750000   -1.707091182e-01    2.831896544e-01
     2382500000   -1.954178959e-01    2.647833228e-01
     2383250000   -2.192551792e-01    2.452669442e-01
     2384000000   -2.395628244e-01    2.244821042e-01
     2384750000   -2.573751807e-01    2.017275244e-01
     2385500000   -2.748406827e-01    1.754195839e-01
     2386250000   -2.889983058e-01    1.507371217e-01
     2387000000   -3.009376228e-01    1.222734079e-01
     2387750000   -3.096423745e-01    9.401556104e-02
     2388500000   -3.165321648e-01    6.453435123e-02
     2389250000   -3.198578358e-01    3.579877689e-02
     2390000000   -3.214051425e-01    6.517023314e-03
     2390750000   -3.191364706e-01   -2.485227212e-02
     2391500000   -3.147525191e-01   -5.372195691e-02
     2392250000   -3.083716631e-01   -8.112711459e-02
     2393000000   -2.988759875e-01   -1.099352315e-01
     2393750000   -2.866588831e-01   -1.373772770e-01
     2394500000   -2.726914585e-01   -1.615799814e-01
     2395250000   -2.563708723e-01   -1.857425421e-01
     2396000000   -2.369439751e-01   -2.085999250e-01
     2396750000   -2.156801820e-01   -2.296526730e-01
     2397500000   -1.943099201e-01   -2.478469908e-01
     2398250000   -1.707974076e-01   -2.643974423e-01
     2399000000   -1.453220099e-01   -2.786029279e-01
     2399750000   -1.184153929e-01   -2.907616496e-01
     2400500000   -9.161971509e-02   -3.002853990e-01
     2401250000   -6.416794658e-02   -3.070240319e-01
     2402000000   -3.598857298e-02   -3.111287057e-01
     2402750000   -8.129768074e-03   -3.128017783e-01
     2403500000    1.961334981e-02   -3.121208549e-01
     2404250000    4.816031083e-02   -3.075052798e-01
     2405000000    7.600891590e-02   -3.015485406e-01
     2405750000    1.027850062e-01   -2.929640114e-01
     2406500000    1.274302304e-01   -2.826026082e-01
     2407250000    1.524201483e-01   -2.684027255e-01
     2408000000    1.753818989e-01   -2.531374991e-01
     2408750000    1.972117275e-01   -2.351604253e-01
     2409500000    2.167232633e-01   -2.159700990e-01
     2410250000    2.348923981e-01   -1.947491318e-01
     2411000000    2.503641546e-01   -1.724427491e-01
     2411750000    2.642343938e-01   -1.487680376e-01
     2412500000    2.755669057e-01   -1.227061227e-01
     2413250000    2.843894064e-01   -9.750258178e-02
     2414000000    2.912971079e-01   -7.123812288e-02
     2414750000    2.956299782e-01   -4.386678338e-02
     2415500000    2.970755696e-01   -1.684167422e-02
     2416250000    2.965902388e-01    1.027015503e-02
     2417000000    2.938483059e-01    3.691205755e-02
     2417750000    2.878491879e-01    6.333737820e-02
     2418500000    2.806492746e-01    8.930321783e-02
     2419250000    2.709217966e-01    1.138694882e-01
     2420000000    2.582627535e-01    1.378724724e-01
     2420750000    2.435851395e-01    1.596552581e-01
     2421500000    2.272871435e-01    1.804452688e-01
     2422250000    2.086375654e-01    1.985991299e-01
     2423000000    1.891574115e-01    2.172485292e-01
     2423750000    1.679640561e-01    2.325117588e-01
     2424500000    1.454468071e-01    2.454641163e-01
     2425250000    1.218174845e-01    2.567422986e-01
     2426000000    9.719731659e-02    2.658541501e-01
     2426750000    7.234118134e-02    2.724149823e-01
     2427500000    4.673359916e-02    2.773394287e-01
     2428250000    2.130795270e-02    2.794335783e-01
     2429000000   -4.799975548e-03    2.791527808e-01
     2429750000   -3.050505370e-02    2.767653167e-01
     2430500000   -5.461599678e-02    2.720492184e-01
     2431250000   -7.954291254e-02    2.646311224e-01
     2432000000   -1.025670990e-01    2.557670176e-01
     2432750000   -1.253198087e-01    2.454331368e-01
     2433500000   -1.470370740e-01    2.310597897e-01
     2434250000   -1.662374735e-01    2.164288461e-01
     2435000000   -1.847418696e-01    1.999970675e-01
     2435750000   -2.017105371e-01    1.820847690e-01
     2436500000   -2.164236456e-01    1.631847471e-01
     2437250000   -2.291343361e-01    1.424241215e-01
     2438000000   -2.398190647e-01    1.205544844e-01
     2438750000   -2.485408485e-01    9.877971560e-02
     2439500000   -2.552146316e-01    7.502461225e-02
     2440250000   -2.594438791e-01    5.195768550e-02
     2441000000   -2.621917725e-01    2.896171622e-02
     2441750000   -2.618985772e-01    4.875170998e-03
     2442500000   -2.598301470e-01   -1.820524968e-02
     2443250000   -2.553989589e-01   -4.089482129e-02
     2444000000   -2.492919564e-01   -6.304685771e-02
     2444750000   -2.406767309e-01   -8.529268950e-02
     2445500000   -2.308784276e-01   -1.054698527e-01
     2446250000   -2.193415016e-01   -1.245705634e-01
     2447000000   -2.063656151e-01   -1.429925561e-01
     2447750000   -1.904012710e-01   -1.599019468e-01
     2448500000   -1.745110005e-01   -1.752628982e-01
     2449250000   -1.569902301e-01   -1.884198040e-01
     2450000000   -1.383436620e-01   -2.007867545e-01
     2450750000   -1.195062473e-01   -2.101850957e-01
     2451500000   -9.893242270e-02   -2.177164406e-01
     2452250000   -7.814490795e-02   -2.238864601e-01
     2453000000   -5.716285110e-02   -2.279419154e-01
     2453750000   -3.585931659e-02   -2.294977307e-01
     2454500000   -1.547561213e-02   -2.298711091e-01
     2455250000    5.984509364e-03   -2.277252674e-01
     2456000000    2.645563707e-02   -2.236012965e-01
     2456750000    4.650876671e-02   -2.181296200e-01
     2457500000    6.564767659e-02   -2.107466906e-01
     2458250000    8.400758356e-02   -2.013049871e-01
     2459000000    1.014324054e-01   -1.903024316e-01
     2459750000    1.172844246e-01   -1.781824827e-01
     2460500000    1.325103790e-01   -1.646283269e-01
     2461250000    1.452205181e-01   -1.501834393e-01
     2462000000    1.573378891e-01   -1.338167191e-01
     2462750000    1.674829572e-01   -1.174813285e-01
     2463500000    1.758361906e-01   -9.998033196e-02
     2464250000    1.824057102e-01   -8.200728893e-02
     2465000000    1.876356751e-01   -6.390275806e-02
     2465750000    1.904117465e-01   -4.510940611e-02
     2466500000    1.917279363e-01   -2.673591115e-02
     2467250000    1.915611774e-01   -8.075988851e-03
     2468000000    1.889891922e-01    9.602154605e-03
     2468750000    1.849443763e-01    2.733002231e-02
     2469500000    1.791007668e-01    4.415758699e-02
     2470250000    1.712242961e-01    6.063849106e-02
     2471000000    1.634373516e-01    7.637365162e-02
     2471750000    1.532534957e-01    9.060941637e-02
     2472500000    1.421052963e-01    1.033210605e-01
     2473250000    1.292037964e-01    1.154258847e-01
     2474000000    1.161210686e-01    1.258343309e-01
     2474750000    1.017724350e-01    1.355178058e-01
     2475500000    8.738032728e-02    1.428611875e-01
     2476250000    7.197333127e-02    1.486673802e-01
     2477000000    5.566556379e-02    1.531779468e-01
     2477750000    4.008866847e-02    1.559820175e-01
     2478500000    2.364718355e-02    1.572121680e-01
     2479250000    8.108617738e-03    1.568480730e-01
     2480000000   -9.068166837e-03    1.548094153e-01
     2480750000   -2.318570204e-02    1.510096788e-01
     2481500000   -3.803160414e-02    1.463792026e-01
     2482250000   -5.225355178e-02    1.398371756e-01
     2483000000   -6.562297046e-02    1.324863881e-01
     2483750000   -7.803460211e-02    1.230985150e-01
     2484500000   -8.915255219e-02    1.134042144e-01
     2485250000   -9.947377443e-02    1.026322618e-01
     2486000000   -1.081384644e-01    9.069967270e-02
     2486750000   -1.157396361e-01    7.797192782e-02
     2487500000   -1.214488447e-01    6.492016464e-02
     2488250000   -1.263067424e-01    5.155488104e-02
     2489000000   -1.292124540e-01    3.748673946e-02
     2489750000   -1.308832467e-01    2.290954255e-02
     2490500000   -1.308014095e-01    8.829543367e-03
     2491250000   -1.297481954e-01   -4.670024849e-03
     2492000000   -1.270091832e-01   -1.903908141e-02
     2492750000   -1.233836487e-01   -3.246518224e-02
     2493500000   -1.176465675e-01   -4.543586448e-02
     2494250000   -1.111650765e-01   -5.702304095e-02
     2495000000   -1.031920239e-01   -6.920545548e-02
     2495750000   -9.468530864e-02   -7.882468402e-02
     2496500000   -8.497980237e-02   -8.792814612e-02
     2497250000   -7.477588207e-02   -9.662009031e-02
     2498000000   -6.331698596e-02   -1.032796055e-01
     2498750000   -5.100112408e-02   -1.091286093e-01
     2499500000   -3.921306506e-02   -1.132695228e-01
     2500250000   -2.669495158e-02   -1.160611659e-01
     2501000000   -1.334136724e-02   -1.174811646e-01
     2501750000   -1.155484701e-03   -1.172521040e-01
     2502500000    1.189557835e-02   -1.160247624e-01
     2503250000    2.523878217e-02   -1.140075251e-01
     2504000000    3.754869103e-02   -1.094999611e-01
     2504750000    4.941435531e-02   -1.040872410e-01
     2505500000    6.066487357e-02   -9.774542600e-02
     2506250000    7.117725164e-02   -9.015977383e-02
     2507000000    8.102385700e-02   -8.102382720e-02
     2507750000    8.912115544e-02   -7.097031176e-02
     2508500000    9.717528522e-02   -6.097890809e-02
     2509250000    1.026950702e-01   -4.968050867e-02
     2510000000    1.085825637e-01   -3.767809644e-02
     2510750000    1.124121025e-01   -2.469681390e-02
     2511500000    1.151338071e-01   -1.203988865e-02
     2512250000    1.166621372e-01    6.368890172e-04
     2513000000    1.171561778e-01    1.431163028e-02
     2513750000    1.149162352e-01    2.648670040e-02
     2514500000    1.122935414e-01    3.903880343e-02
     2515250000    1.079748347e-01    5.160144344e-02
     2516000000    1.029226482e-01    6.350672990e-02
     2516750000    9.573326260e-02    7.376561314e-02
     2517500000    8.833200485e-02    8.532674611e-02
     2518250000    7.913829386e-02    9.439470619e-02
     2519000000    6.849555671e-02    1.028105170e-01
     2519750000    5.796481296e-02    1.110334694e-01
     2520500000    4.591653123e-02    1.162819266e-01
     2521250000    3.365052864e-02    1.211842969e-01
     2522000000    2.023171633e-02    1.251191944e-01
     2522750000    7.675021421e-03    1.272026300e-01
     2523500000   -6.377342623e-03    1.281243712e-01
     2524250000   -1.956195384e-02    1.264763921e-01
     2525000000   -3.393740207e-02    1.253299117e-01
     2525750000   -4.727781937e-02    1.216929182e-01
     2526500000   -6.003272161e-02    1.169517860e-01
     2527250000   -7.254821807e-02    1.102396771e-01
     2528000000   -8.477036655e-02    1.025233567e-01
     2528750000   -9.594881535e-02    9.398695827e-02
     2529500000   -1.063197926e-01    8.270806074e-02
     2530250000   -1.151963398e-01    7.160755992e-02
     2531000000   -1.242455393e-01    5.990067124e-02
     2531750000   -1.308697313e-01    4.653939232e-02
     2532500000   -1.372322738e-01    3.275422379e-02
     2533250000   -1.416870803e-01    1.859612390e-02
     2534000000   -1.443770528e-01    3.152918769e-03
     2534750000   -1.459086090e-01   -1.172614936e-02
     2535500000   -1.453360021e-01   -2.719409950e-02
     2536250000   -1.436520070e-01   -4.243892804e-02
     2537000000   -1.400313526e-01   -5.795871094e-02
     2537750000   -1.345974654e-01   -7.216691226e-02
     2538500000   -1.287397295e-01   -8.691530675e-02
     2539250000   -1.203275844e-01   -1.000983119e-01
     2540000000   -1.109151393e-01   -1.137616634e-01
     2540750000   -9.937662631e-02   -1.255410463e-01
     2541500000   -8.688382804e-02   -1.364193261e-01
     2542250000   -7.328354567e-02   -1.464501768e-01
     2543000000   -5.934644863e-02   -1.554122567e-01
     2543750000   -4.373335093e-02   -1.624571383e-01
     2544500000   -2.729215287e-02   -1.674264669e-01
     2545250000   -1.076935604e-02   -1.718993783e-01
     2546000000    6.879071705e-03   -1.740955710e-01
     2546750000    2.475419082e-02   -1.751104295e-01
     2547500000    4.211372137e-02   -1.733994782e-01
     2548250000    6.048062444e-02   -1.696593612e-01
     2549000000    7.766798884e-02   -1.659736782e-01
     2549750000    9.595506638e-02   -1.591701061e-01
     2550500000    1.122846603e-01   -1.509063542e-01
     2551250000    1.287655532e-01   -1.408149153e-01
     2552000000    1.428897679e-01   -1.290328503e-01
     2552750000    1.573168635e-01   -1.157567427e-01
     2553500000    1.714017987e-01   -1.017713845e-01
     2554250000    1.831866056e-01   -8.538603783e-02
     2555000000    1.926168799e-01   -6.845984608e-02
     2555750000    2.020244449e-01   -5.029156804e-02
     2556500000    2.086975276e-01   -3.152863681e-02
     2557250000    2.134732157e-01   -1.265647355e-02
     2558000000    2.160547227e-01    8.518457413e-03
     2558750000    2.171558291e-01    2.858140878e-02
     2559500000    2.158784270e-01    5.028917268e-02
     2560250000    2.135339975e-01    7.043000311e-02
     2561000000    2.075342536e-01    9.135273099e-02
     2561750000    2.002352923e-01    1.128850281e-01
     2562500000    1.910500377e-01    1.317552775e-01
     2563250000    1.812660843e-01    1.507334411e-01
     2564000000    1.671860665e-01    1.694775373e-01
     2564750000    1.519710273e-01    1.859504133e-01
     2565500000    1.353530437e-01    2.026631385e-01
     2566250000    1.186830178e-01    2.176043540e-01
     2567000000    9.613387287e-02    2.288851291e-01
     2567750000    7.799904048e-02    2.413890511e-01
     2568500000    5.689990893e-02    2.511376143e-01
     2569250000    3.241102025e-02    2.568062246e-01
     2570000000    8.710009046e-03    2.619982362e-01
     2570750000   -1.417959668e-02    2.655730546e-01
     2571500000   -3.876224533e-02    2.652898729e-01
     2572250000   -6.267619878e-02    2.642382979e-01
     2573000000   -8.817452937e-02    2.599887252e-01
     2573750000   -1.129476577e-01    2.525918782e-01
     2574500000   -1.359262615e-01    2.445831746e-01
     2575250000   -1.591524035e-01    2.327045202e-01
     2576000000   -1.812596917e-01    2.202734202e-01
     2576750000   -2.020278424e-01    2.048866600e-01
     2577500000   -2.217051536e-01    1.873491555e-01
     2578250000   -2.398194224e-01    1.676770300e-01
     2579000000   -2.568108737e-01    1.468662322e-01
     2579750000   -2.708820105e-01    1.238117442e-01
     2580500000   -2.840765119e-01    1.003778800e-01
     2581250000   -2.943646610e-01    7.445026934e-02
     2582000000   -3.024029434e-01    4.789878055e-02
     2582750000   -3.083909452e-01    2.145874128e-02
     2583500000   -3.121565282e-01   -6.738190539e-03
     2584250000   -3.128525317e-01   -3.423929587e-02
     2585000000   -3.109002709e-01   -6.288171560e-02
     2585750000   -3.059874773e-01   -9.217890352e-02
     2586500000   -2.999382913e-01   -1.188819483e-01
     2587250000   -2.903536260e-01   -1.459407508e-01
     2588000000   -2.787007689e-01   -1.723198742e-01
     2588750000   -2.642370164e-01   -1.979169250e-01
     2589500000   -2.465189099e-01   -2.215819210e-01
     2590250000   -2.291979641e-01   -2.432894409e-01
     2591000000   -2.059175372e-01   -2.645280361e-01
     2591750000   -1.846331805e-01   -2.831207216e-01
     2592500000   -1.593436152e-01   -2.999206483e-01
     2593250000   -1.331952065e-01   -3.128866851e-01
     2594000000   -1.044725701e-01   -3.256101906e-01
     2594750000   -7.504024357e-02   -3.349807858e-01
     2595500000   -4.651402682e-02   -3.431223333e-01
     2596250000   -1.403815858e-02   -3.452614248e-01
     2597000000    1.618325152e-02   -3.464323878e-01
     2597750000    4.642150179e-02   -3.458082974e-01
     2598500000    7.791417092e-02   -3.422986269e-01
     2599250000    1.099217087e-01   -3.330933750e-01
     2600000000    1.397908330e-01   -3.231351674e-01
