! NanoVNA-App
! Date: 2026-05-22 17:52:35
! Start: 4.8GHz Stop: 6GHz Points: 401
! S-Parameter data: F S11
# Hz S RI R 50
!     Frequency           S11_Real           S11_Imag
     4800000000    2.040056288e-01   -1.467864662e-01
     4803000000    2.391636074e-01   -6.527881324e-02
     4806000000    2.452390045e-01    1.986962557e-02
     4809000000    2.194899023e-01    1.033004597e-01
     4812000000    1.651075035e-01    1.721563935e-01
     4815000000    9.081247449e-02    2.169407755e-01
     4818000000    7.019115146e-03    2.338480353e-01
     4821000000   -7.494810969e-02    2.200310975e-01
     4824000000   -1.464499682e-01    1.771756262e-01
     4827000000   -2.001839876e-01    1.128385738e-01
     4830000000   -2.230568379e-01    3.502978757e-02
     4833000000   -2.194226384e-01   -4.658517614e-02
     4836000000   -1.890083998e-01   -1.210540682e-01
     4839000000   -1.331523955e-01   -1.782772839e-01
              0    3.148523569e-01   -8.054571226e-03
              0    3.163723350e-01   -6.101041101e-03
     4848000000    9.274531156e-02   -1.959506571e-01
     4851000000    1.538829654e-01   -1.469507068e-01
     4854000000    1.932177097e-01   -8.246213198e-02
     4857000000    2.089761794e-01   -8.798578754e-03
     4860000000    1.973361671e-01    6.654556096e-02
     4863000000    1.541625261e-01    1.281311512e-01
     4866000000    1.028394625e-01    1.778465211e-01
     4869000000    2.947305515e-02    1.919020861e-01
     4872000000   -3.931219503e-02    1.918495148e-01
     4875000000   -1.038443521e-01    1.638271064e-01
     4878000000   -1.524375081e-01    1.134955585e-01
     4881000000   -1.773714274e-01    5.199901387e-02
     4884000000   -1.809342504e-01   -1.325906068e-02
     4887000000   -1.656036228e-01   -7.861495763e-02
     4890000000   -1.217962652e-01   -1.281391084e-01
     4893000000   -6.438849121e-02   -1.561986208e-01
     4896000000   -3.651031060e-03   -1.664230824e-01
     4899000000    5.437698588e-02   -1.527228504e-01
     4902000000    1.050518379e-01   -1.195601001e-01
     4905000000    1.381153315e-01   -7.139521092e-02
     4908000000    1.538350433e-01   -1.611293107e-02
     4911000000    1.475719064e-01    3.857567161e-02
     4914000000    1.202990636e-01    8.629897982e-02
     4917000000    8.043202013e-02    1.213468462e-01
     4920000000    3.086365201e-02    1.369213462e-01
     4923000000   -2.069400810e-02    1.375073045e-01
     4926000000   -6.723786891e-02    1.193096191e-01
     4929000000   -9.763114899e-02    8.147149533e-02
     4932000000   -1.181846187e-01    3.817143291e-02
     4935000000   -1.203999147e-01   -5.690406077e-03
     4938000000   -1.028075591e-01   -4.729881510e-02
     4941000000   -7.520145923e-02   -7.800820470e-02
     4944000000   -3.880342096e-02   -9.833759815e-02
     4947000000    5.779184867e-04   -9.455950558e-02
     4950000000    3.837167844e-02   -8.704066277e-02
     4953000000    6.477174908e-02   -6.147355214e-02
     4956000000    7.903522998e-02   -2.995200455e-02
     4959000000    7.431918383e-02    3.920235671e-03
     4962000000    7.353679091e-02    3.690832481e-02
     4965000000    4.094261304e-02    5.443360656e-02
     4968000000    1.597596891e-02    6.602203846e-02
     4971000000   -1.148513332e-02    6.484241784e-02
     4974000000   -3.607855737e-02    5.173769593e-02
     4977000000   -5.368594080e-02    3.059293143e-02
     4980000000   -5.854574591e-02    4.246500786e-03
     4983000000   -5.331294611e-02   -2.202313580e-02
     4986000000   -3.713630512e-02   -4.272263125e-02
     4989000000   -1.351910364e-02   -5.467066169e-02
     4992000000    1.063454524e-02   -5.822760239e-02
     4995000000    3.604396060e-02   -4.587296396e-02
     4998000000    5.573113263e-02   -2.372928336e-02
     5001000000    6.356044859e-02    5.502259824e-03
     5004000000    5.893159285e-02    3.200837225e-02
     5007000000    4.500395060e-02    5.718622357e-02
     5010000000    2.105155773e-02    7.394310087e-02
     5013000000   -1.724289171e-02    7.861250639e-02
     5016000000   -4.936705530e-02    7.247000188e-02
     5019000000   -7.664665580e-02    5.423136801e-02
     5022000000   -9.695994854e-02    2.175994031e-02
     5025000000   -1.016700715e-01   -1.895024441e-02
     5028000000   -9.132308513e-02   -5.937077850e-02
     5031000000   -6.824854016e-02   -9.201128781e-02
     5034000000   -2.819174342e-02   -1.165662333e-01
     5037000000    1.522819046e-02   -1.265130341e-01
     5040000000    6.699162722e-02   -1.160173044e-01
     5043000000    1.063282266e-01   -9.034584463e-02
     5046000000    1.376870424e-01   -4.706196859e-02
     5049000000    1.515486687e-01    7.333084941e-04
     5052000000    1.450137347e-01    5.689964071e-02
     5055000000    1.162143424e-01    1.081869453e-01
     5058000000    7.429150492e-02    1.461412907e-01
     5061000000    1.333002467e-02    1.652335376e-01
     5064000000   -4.638354853e-02    1.655618846e-01
     5067000000   -1.072545424e-01    1.383854598e-01
     5070000000   -1.534015387e-01    9.606295079e-02
     5073000000   -1.833535433e-01    3.529085219e-02
     5076000000   -1.898453981e-01   -3.335529193e-02
     5079000000   -1.694090068e-01   -1.006712466e-01
     5082000000   -1.269332319e-01   -1.571884602e-01
     5085000000   -6.699281931e-02   -1.965316087e-01
     5088000000    3.874306567e-03   -2.105819732e-01
     5091000000    7.836450636e-02   -2.004932165e-01
     5094000000    1.447710693e-01   -1.637833565e-01
     5097000000    1.934364736e-01   -1.005363613e-01
     5100000000    2.160319239e-01   -2.608753927e-02
     5103000000    2.162078619e-01    5.314226449e-02
     5106000000    1.807932407e-01    1.262358725e-01
     5109000000    1.284804642e-01    1.876523793e-01
     5112000000    5.261172727e-02    2.171830833e-01
     5115000000   -2.743301727e-02    2.325252444e-01
     5118000000   -1.051604077e-01    2.028690577e-01
     5121000000   -1.746840030e-01    1.560123414e-01
     5124000000   -2.184578478e-01    8.466438949e-02
     5127000000   -2.267715186e-01   -6.225242396e-04
     5130000000   -2.198525965e-01   -8.356017619e-02
     5133000000   -1.724131703e-01   -1.544300169e-01
     5136000000   -1.078965217e-01   -2.094065547e-01
     5139000000   -2.315267920e-02   -2.316935360e-01
     5142000000    6.199558452e-02   -2.288840115e-01
     5145000000    1.412083209e-01   -1.905910820e-01
     5148000000    2.004173994e-01   -1.291495413e-01
     5151000000    2.349852324e-01   -4.975853115e-02
     5154000000    2.372446060e-01    3.804497048e-02
     5157000000    2.080963999e-01    1.205824241e-01
     5160000000    1.514101475e-01    1.888990551e-01
     5163000000    7.626625150e-02    2.313461453e-01
     5166000000   -1.408728771e-02    2.456995398e-01
     5169000000   -9.855312109e-02    2.203274965e-01
     5172000000   -1.705109775e-01    1.690793633e-01
     5175000000   -2.156386822e-01    9.367826581e-02
     5178000000   -2.477437556e-01    6.912932731e-03
     5181000000   -2.199432403e-01   -7.689932734e-02
     5184000000   -1.867676079e-01   -1.603764743e-01
     5187000000   -1.122917831e-01   -2.087326795e-01
     5190000000   -2.736134827e-02   -2.375435680e-01
     5193000000    6.109496951e-02   -2.346412092e-01
     5196000000    1.426937133e-01   -1.990754455e-01
     5199000000    2.121498287e-01   -1.334542334e-01
     5202000000    2.404072881e-01   -5.003295839e-02
     5205000000    2.421788871e-01    3.930715844e-02
     5208000000    2.113223225e-01    1.229451820e-01
     5211000000    1.527932584e-01    1.966872662e-01
     5214000000    7.121673971e-02    2.370577902e-01
     5217000000   -1.961573400e-02    2.483086735e-01
     5220000000   -1.071067676e-01    2.227421403e-01
     5223000000   -1.801936626e-01    1.689706296e-01
     5226000000   -2.341503352e-01    9.469602257e-02
     5229000000   -2.497744113e-01    3.489553230e-03
     5232000000   -2.332130820e-01   -8.568362892e-02
     5235000000   -1.841586828e-01   -1.629707068e-01
     5238000000   -1.136925593e-01   -2.223850489e-01
     5241000000   -2.726529352e-02   -2.469461262e-01
     5244000000    6.803005934e-02   -2.439541221e-01
     5247000000    1.476968527e-01   -1.994434148e-01
     5250000000    2.126265019e-01   -1.327379197e-01
     5253000000    2.363659889e-01   -4.830193147e-02
     5256000000    2.545475960e-01    5.307834223e-02
     5259000000    2.115527093e-01    1.271462440e-01
     5262000000    1.469027698e-01    1.914471984e-01
     5265000000    6.492950022e-02    2.399637103e-01
     5268000000   -3.131357953e-02    2.567520142e-01
     5271000000   -1.053472981e-01    2.190056741e-01
     5274000000   -1.928884834e-01    1.672009677e-01
     5277000000   -2.326893955e-01    9.095012397e-02
     5280000000   -2.585055530e-01   -8.568595164e-03
     5283000000   -2.343396842e-01   -9.717864543e-02
     5286000000   -1.828653663e-01   -1.685120016e-01
     5289000000   -1.080760285e-01   -2.197359800e-01
     5292000000   -1.059812121e-02   -2.600788474e-01
     5295000000    7.758705318e-02   -2.410161793e-01
     5298000000    1.586944610e-01   -1.989992410e-01
     5301000000    2.234657109e-01   -1.262436509e-01
     5304000000    2.487861216e-01   -3.921904415e-02
     5307000000    2.439761609e-01    5.364128575e-02
     5310000000    2.076456100e-01    1.356715113e-01
     5313000000    1.445016861e-01    1.986351758e-01
     5316000000    6.014540419e-02    2.391022742e-01
     5319000000   -2.517494932e-02    2.403254956e-01
     5322000000   -1.183836088e-01    2.133468986e-01
     5325000000   -1.860240102e-01    1.552001387e-01
     5328000000   -2.318438441e-01    7.121420652e-02
     5331000000   -2.391234636e-01   -1.415531244e-02
     5334000000   -2.160821408e-01   -1.007480845e-01
     5337000000   -1.643469334e-01   -1.758846939e-01
     5340000000   -8.801075816e-02   -2.242573649e-01
     5343000000    1.488866867e-03   -2.361369282e-01
     5346000000    8.755561709e-02   -2.205403298e-01
     5349000000    1.642255634e-01   -1.723163128e-01
     5352000000    2.139117271e-01   -9.978729486e-02
     5355000000    2.356653959e-01   -1.346286759e-02
     5358000000    2.261655480e-01    7.508366555e-02
     5361000000    1.838299185e-01    1.630394608e-01
     5364000000    1.126194969e-01    2.165736407e-01
     5367000000    4.145882279e-02    2.291389406e-01
     5370000000   -4.356955364e-02    2.220095247e-01
     5373000000   -1.281981170e-01    1.896914989e-01
     5376000000   -2.164980024e-01    1.252160668e-01
     5379000000   -2.269131243e-01    4.754637554e-02
     5382000000   -2.186594158e-01   -2.891181223e-02
     5385000000   -1.945343763e-01   -1.226154044e-01
     5388000000   -1.332448125e-01   -2.019274086e-01
     5391000000   -6.250290573e-02   -2.162957340e-01
     5394000000    4.107102007e-02   -2.352672964e-01
     5397000000    9.776394069e-02   -1.932232231e-01
     5400000000    1.634508371e-01   -1.418572813e-01
     5403000000    2.287245989e-01   -5.717905238e-02
     5406000000    2.156006992e-01    1.509550959e-02
     5409000000    1.939518750e-01    9.435572475e-02
     5412000000    1.424799412e-01    1.607411951e-01
     5415000000    7.269584388e-02    2.061021626e-01
     5418000000   -1.191007625e-02    2.164165080e-01
     5421000000   -9.494738281e-02    1.970770210e-01
     5424000000   -1.646515429e-01    1.480023712e-01
     5427000000   -1.936663538e-01    8.282808214e-02
     5430000000   -2.235036343e-01   -1.518364251e-02
     5433000000   -1.977470666e-01   -8.607257903e-02
     5436000000   -1.502989829e-01   -1.553699225e-01
     5439000000   -9.339244664e-02   -1.849973202e-01
     5442000000    6.671068841e-04   -2.183038145e-01
     5445000000    7.562135160e-02   -2.006041110e-01
     5448000000    1.692862511e-01   -1.536650807e-01
     5451000000    2.016246170e-01   -8.748746663e-02
     5454000000    2.260197997e-01    5.392560852e-04
     5457000000    2.108566463e-01    7.746373117e-02
     5460000000    1.646370888e-01    1.642353982e-01
     5463000000    9.693442285e-02    2.143943012e-01
     5466000000    2.048986219e-02    2.294993103e-01
     5469000000   -7.430475205e-02    2.272511870e-01
     5472000000   -1.603341103e-01    1.802004725e-01
     5475000000   -2.134042382e-01    1.129101515e-01
     5478000000   -2.401018888e-01    2.830888145e-02
     5481000000   -2.287135273e-01   -4.937800393e-02
     5484000000   -1.940449625e-01   -1.478277296e-01
     5487000000   -1.232416257e-01   -2.175317556e-01
     5490000000   -4.028887674e-02   -2.429431379e-01
     5493000000    5.502187461e-02   -2.432020754e-01
     5496000000    1.426308602e-01   -2.085648030e-01
     5499000000    2.143518627e-01   -1.376173347e-01
     5502000000    2.493963987e-01   -5.636874586e-02
     5505000000    2.574812770e-01    5.315082148e-02
     5508000000    2.207444906e-01    1.404025108e-01
     5511000000    1.570321321e-01    2.127897739e-01
     5514000000    6.389802694e-02    2.665092051e-01
     5517000000   -3.555578366e-02    2.734974623e-01
     5520000000   -1.301163286e-01    2.443459332e-01
     5523000000   -2.244513333e-01    1.792139262e-01
     5526000000   -2.698597610e-01    9.568029642e-02
     5529000000   -2.914677262e-01   -1.711734571e-02
     5532000000   -2.692995965e-01   -1.093782037e-01
     5535000000   -2.121552080e-01   -2.133813202e-01
     5538000000   -1.236256883e-01   -2.715881169e-01
     5541000000   -1.217791252e-02   -3.029344976e-01
     5544000000    9.342662245e-02   -2.912150919e-01
     5547000000    2.160975933e-01   -2.297996134e-01
     5550000000    2.813027203e-01   -1.468120515e-01
     5553000000    3.135038316e-01   -4.681975022e-02
     5556000000    3.110271096e-01    6.404654682e-02
     5559000000    2.637510300e-01    1.993093342e-01
     5562000000    1.831655353e-01    2.715305686e-01
     5565000000    6.201488525e-02    3.263851106e-01
     5568000000   -2.820773982e-02    3.277780116e-01
     5571000000   -1.614274383e-01    2.947702110e-01
     5574000000   -2.539018393e-01    2.230588198e-01
     5577000000   -3.255223930e-01    1.106403247e-01
     5580000000   -3.462403119e-01   -1.163127273e-02
     5583000000   -3.235818446e-01   -1.306569576e-01
     5586000000   -2.593204677e-01   -2.381172776e-01
     5589000000   -1.662481874e-01   -3.052515686e-01
     5592000000   -3.327207640e-02   -3.466987610e-01
     5595000000    9.085731953e-02   -3.387446702e-01
     5598000000    2.046110928e-01   -2.830904424e-01
     5601000000    2.774563134e-01   -2.113481164e-01
     5604000000    3.373073637e-01   -7.945784181e-02
     5607000000    3.422918618e-01    5.078367516e-02
     5610000000    2.972574532e-01    1.800316423e-01
     5613000000    2.366316170e-01    2.533451021e-01
     5616000000    1.020579413e-01    3.277595639e-01
     5619000000   -1.148644462e-02    3.441435099e-01
     5622000000   -1.327204257e-01    3.159697354e-01
     5625000000   -2.364405394e-01    2.464814782e-01
     5628000000   -3.092676997e-01    1.483352333e-01
     5631000000   -3.389135003e-01    3.024367988e-02
     5634000000   -3.182004690e-01   -1.039204374e-01
     5637000000   -2.617424428e-01   -2.103102356e-01
     5640000000   -1.789165437e-01   -2.811256647e-01
     5643000000   -7.292249799e-02   -3.247868121e-01
     5646000000    7.233066857e-02   -3.231355548e-01
     5649000000    1.831420213e-01   -2.694920897e-01
     5652000000    2.644826770e-01   -1.914267242e-01
     5655000000    3.119284511e-01   -1.062797904e-01
     5658000000    3.159008622e-01    5.023789033e-02
     5661000000    2.862812877e-01    1.479346156e-01
     5664000000    2.256664634e-01    2.330936044e-01
     5667000000    1.222397164e-01    2.954681516e-01
     5670000000    4.288537602e-04    3.149569333e-01
     5673000000   -1.132364348e-01    2.910357416e-01
     5676000000   -2.024773508e-01    2.414066195e-01
     5679000000   -2.753613889e-01    1.360412985e-01
     5682000000   -3.080615997e-01    4.747091234e-02
     5685000000   -2.929738164e-01   -7.975909859e-02
     5688000000   -2.468618006e-01   -1.723277867e-01
     5691000000   -1.563802063e-01   -2.521091104e-01
     5694000000   -5.979835615e-02   -2.910634577e-01
     5697000000    3.687249869e-02   -2.969520986e-01
     5700000000    1.500074416e-01   -2.453190684e-01
     5703000000    2.194258273e-01   -1.943797916e-01
     5706000000    2.687623501e-01   -8.945547789e-02
     5709000000    2.814665437e-01    9.740307927e-03
     5712000000    2.413358241e-01    1.183366030e-01
     5715000000    1.897945553e-01    1.910635978e-01
     5718000000    1.226804480e-01    2.458694875e-01
     5721000000    1.042542513e-02    2.597037554e-01
     5724000000   -7.937607914e-02    2.473205626e-01
     5727000000   -1.613376886e-01    1.990192682e-01
     5730000000   -2.189682126e-01    1.222488582e-01
     5733000000   -2.474422306e-01    4.714116827e-02
     5736000000   -2.407789677e-01   -4.766684398e-02
     5739000000   -1.929350644e-01   -1.308514029e-01
     5742000000   -1.413228214e-01   -1.920375079e-01
     5745000000   -5.856484920e-02   -2.244980186e-01
     5748000000    2.736413293e-02   -2.236705124e-01
     5751000000    1.084294468e-01   -1.983219534e-01
     5754000000    1.681665778e-01   -1.332723945e-01
     5757000000    2.010587156e-01   -5.921136215e-02
     5760000000    2.131760269e-01    1.026648283e-02
     5763000000    1.945855469e-01    8.418734372e-02
     5766000000    1.270551831e-01    1.446611285e-01
     5769000000    8.161132038e-02    1.862641871e-01
     5772000000   -1.184386574e-02    1.810760647e-01
     5775000000   -6.796031445e-02    1.821516305e-01
     5778000000   -1.279879212e-01    1.253246665e-01
     5781000000   -1.646264791e-01    7.307407260e-02
     5784000000   -1.703839004e-01   -4.129989538e-03
     5787000000   -1.649112701e-01   -6.233619153e-02
     5790000000   -1.218492314e-01   -1.152888164e-01
     5793000000   -6.069730222e-02   -1.482576579e-01
     5796000000   -1.173301414e-02   -1.694107652e-01
     5799000000    5.608889833e-02   -1.493434906e-01
     5802000000    1.081778482e-01   -1.163572222e-01
     5805000000    1.429124475e-01   -6.915374100e-02
     5808000000    1.578204781e-01   -9.852166288e-03
     5811000000    1.450008750e-01    5.379903316e-02
     5814000000    9.986265004e-02    1.031922475e-01
     5817000000    6.543885916e-02    1.383125484e-01
     5820000000    3.481729189e-03    1.460499167e-01
     5823000000   -5.146381259e-02    1.395338923e-01
     5826000000   -9.900622070e-02    1.092047393e-01
     5829000000   -1.353202909e-01    7.048101723e-02
     5832000000   -1.361309737e-01    3.115478670e-03
     5835000000   -1.425751448e-01   -4.194974527e-02
     5838000000   -1.187164113e-01   -9.124140441e-02
     5841000000   -7.414887846e-02   -1.274985224e-01
     5844000000   -7.991129532e-03   -1.334572434e-01
     5847000000    4.266740754e-02   -1.290886104e-01
     5850000000    8.730100095e-02   -9.452571720e-02
     5853000000    1.212858558e-01   -6.987765431e-02
     5856000000    1.321445256e-01   -1.061311364e-02
     5859000000    1.289049238e-01    4.030214995e-02
     5862000000    1.008061171e-01    8.501411974e-02
     5865000000    5.388592556e-02    1.153264269e-01
     5868000000    7.979108021e-03    1.250056475e-01
     5871000000   -4.110218585e-02    1.204029769e-01
     5874000000   -8.524557948e-02    9.310466796e-02
     5877000000   -1.171486974e-01    5.493808165e-02
     5880000000   -1.247423440e-01    4.041004868e-04
     5883000000   -1.169773117e-01   -4.715410620e-02
     5886000000   -1.102524325e-01   -9.029746056e-02
     5889000000   -5.773379281e-02   -1.231500879e-01
     5892000000    5.665857811e-03   -1.246416345e-01
     5895000000    4.492227733e-02   -1.309953183e-01
     5898000000    9.187393636e-02   -8.881351352e-02
     5901000000    1.264253706e-01   -6.413543969e-02
     5904000000    1.309679151e-01    2.457065042e-03
     5907000000    1.420087963e-01    4.291449487e-02
     5910000000    8.982541412e-02    9.361564368e-02
     5913000000    6.634420156e-02    1.294698715e-01
     5916000000    2.716887742e-03    1.359511316e-01
     5919000000   -5.025320500e-02    1.352346838e-01
     5922000000   -9.623849392e-02    1.193004027e-01
     5925000000   -1.311149448e-01    6.072856113e-02
     5928000000   -1.463755518e-01    6.287013181e-03
     5931000000   -1.433620155e-01   -4.390514642e-02
     5934000000   -1.181651503e-01   -9.640926123e-02
     5937000000   -7.818771154e-02   -1.373862773e-01
     5940000000   -1.346368529e-02   -1.504481882e-01
     5943000000    4.086944461e-02   -1.557466239e-01
     5946000000    9.728052467e-02   -1.116333753e-01
     5949000000    1.394175738e-01   -8.949016780e-02
     5952000000    1.630789787e-01   -2.675083093e-02
     5955000000    1.585076898e-01    3.828927875e-02
     5958000000    1.493952572e-01    9.278405458e-02
     5961000000    9.840758890e-02    1.400896013e-01
     5964000000    3.959719837e-02    1.639967114e-01
     5967000000   -2.120020054e-02    1.749035269e-01
     5970000000   -8.495028317e-02    1.470284164e-01
     5973000000   -1.334457546e-01    1.043649837e-01
     5976000000   -1.621272415e-01    4.406225681e-02
     5979000000   -1.780220121e-01   -1.431798562e-02
     5982000000   -1.599181592e-01   -7.988769561e-02
     5985000000   -1.082752794e-01   -1.328348666e-01
     5988000000   -6.343496591e-02   -1.732858866e-01
     5991000000    1.130934525e-02   -1.762899905e-01
     5994000000    6.905417889e-02   -1.774253696e-01
     5997000000    1.306743771e-01   -1.291207671e-01
     6000000000    1.709791422e-01   -7.923424989e-02
