! NanoVNA-App
! Date: 2026-05-25 01:58:33
! Start: 4.8GHz Stop: 6GHz Points: 401
! S-Parameter data: F S11
# Hz S RI R 50
!     Frequency           S11_Real           S11_Imag
     4800000000    3.774218857e-01    3.392123058e-02
     4803000000    3.400719166e-01    1.698055565e-01
     4806000000    2.529274225e-01    2.816957831e-01
     4809000000    1.332548559e-01    3.548329473e-01
     4812000000   -8.831745014e-03    3.802869320e-01
     4815000000   -1.484801471e-01    3.505272567e-01
     4818000000   -2.660827637e-01    2.715267837e-01
     4821000000   -3.493068218e-01    1.571192741e-01
     4824000000   -3.802730143e-01    1.728673093e-02
     4827000000   -3.620487750e-01   -1.232009456e-01
     4830000000   -2.916216552e-01   -2.458346635e-01
     4833000000   -1.820036769e-01   -3.355924189e-01
     4836000000   -4.590826854e-02   -3.794883490e-01
     4839000000    9.609518200e-02   -3.701784611e-01
     4842000000    2.248763740e-01   -3.086767197e-01
     4845000000    3.225836754e-01   -2.064712644e-01
     4848000000    3.749450147e-01   -7.435271889e-02
     4851000000    3.750962317e-01    6.869924068e-02
     4854000000    3.248407543e-01    2.013087869e-01
     4857000000    2.305177748e-01    3.041284382e-01
     4860000000    1.001452729e-01    3.665573299e-01
     4863000000   -4.171554372e-02    3.777472973e-01
     4866000000   -1.757578254e-01    3.385014534e-01
     4869000000   -2.899938524e-01    2.490527034e-01
     4872000000   -3.596809208e-01    1.275403649e-01
     4875000000   -3.823302090e-01   -1.235349663e-02
     4878000000   -3.510744274e-01   -1.515199244e-01
     4881000000   -2.730917037e-01   -2.671079338e-01
     4884000000   -1.564333290e-01   -3.484393656e-01
     4887000000   -1.754890941e-02   -3.810520768e-01
     4890000000    1.212969422e-01   -3.604496121e-01
     4893000000    2.442169935e-01   -2.908088267e-01
     4896000000    3.325909972e-01   -1.810514629e-01
     4899000000    3.738081753e-01   -4.893490672e-02
     4902000000    3.654184043e-01    9.297484905e-02
     4905000000    3.042005002e-01    2.201833874e-01
     4908000000    2.024418265e-01    3.154876530e-01
     4911000000    7.341506332e-02    3.682892621e-01
     4914000000   -6.818809360e-02    3.692669570e-01
     4917000000   -1.975220293e-01    3.203339875e-01
     4920000000   -3.013210595e-01    2.254917622e-01
     4923000000   -3.622725010e-01    1.009118259e-01
     4926000000   -3.735134900e-01   -3.841347620e-02
     4929000000   -3.340110481e-01   -1.706270427e-01
     4932000000   -2.487546504e-01   -2.782077789e-01
     4935000000   -1.296363324e-01   -3.487077057e-01
     4938000000    7.667488419e-03   -3.700456917e-01
     4941000000    1.431052089e-01   -3.389531374e-01
     4944000000    2.579482794e-01   -2.620274425e-01
     4947000000    3.356345892e-01   -1.532478482e-01
     4950000000    3.670066297e-01   -1.601175219e-02
     4953000000    3.475545943e-01    1.183346733e-01
     4956000000    2.806483805e-01    2.363860011e-01
     4959000000    1.739101261e-01    3.207089305e-01
     4962000000    4.492329061e-02    3.627316654e-01
     4965000000   -9.024388343e-02    3.521534801e-01
     4968000000   -2.127104700e-01    2.944472730e-01
     4971000000   -3.046991825e-01    1.946572214e-01
     4974000000   -3.533326685e-01    7.017335296e-02
     4977000000   -3.527295887e-01   -6.671228260e-02
     4980000000   -3.031700552e-01   -1.905600429e-01
     4983000000   -2.110449076e-01   -2.882359922e-01
     4986000000   -8.917690068e-02   -3.471097648e-01
     4989000000    4.606092349e-02   -3.538838625e-01
     4992000000    1.738886684e-01   -3.145515621e-01
     4995000000    2.759060860e-01   -2.297131270e-01
     4998000000    3.444102407e-01   -1.141725332e-01
     5001000000    3.605182767e-01    2.157217637e-02
     5004000000    3.264756203e-01    1.501191258e-01
     5007000000    2.523996234e-01    2.588588893e-01
     5010000000    1.397152990e-01    3.343946934e-01
     5013000000    5.895800889e-03    3.590541482e-01
     5016000000   -1.237532720e-01    3.380875885e-01
     5019000000   -2.387614399e-01    2.678004801e-01
     5022000000   -3.203078806e-01    1.622712761e-01
     5025000000   -3.588509262e-01    3.400544077e-02
     5028000000   -3.446594775e-01   -9.922327101e-02
     5031000000   -2.848958373e-01   -2.172421813e-01
     5034000000   -1.846218556e-01   -3.072775006e-01
     5037000000   -5.913236365e-02   -3.521451056e-01
     5040000000    7.462611049e-02   -3.484811187e-01
     5043000000    1.952351034e-01   -2.981692553e-01
     5046000000    2.915402949e-01   -2.042922974e-01
     5049000000    3.473575115e-01   -8.363763243e-02
     5052000000    3.513543606e-01    4.918874055e-02
     5055000000    3.111864626e-01    1.764690280e-01
     5058000000    2.253466398e-01    2.775391042e-01
     5061000000    1.073619425e-01    3.397603631e-01
     5064000000   -2.431963757e-02    3.571011722e-01
     5067000000   -1.521957815e-01    3.234513700e-01
     5070000000   -2.589588463e-01    2.444837838e-01
     5073000000   -3.273123801e-01    1.324625015e-01
     5076000000   -3.542157412e-01    2.358634258e-03
     5079000000   -3.306459486e-01   -1.278674901e-01
     5082000000   -2.618511319e-01   -2.389350682e-01
     5085000000   -1.550396234e-01   -3.183956742e-01
     5088000000   -2.802876383e-02   -3.522962928e-01
     5091000000    1.009941027e-01   -3.374099731e-01
     5094000000    2.200421095e-01   -2.772324681e-01
     5097000000    3.016759157e-01   -1.749408692e-01
     5100000000    3.455735445e-01   -5.231200159e-02
     5103000000    3.451204896e-01    8.037862927e-02
     5106000000    2.915235460e-01    1.982025355e-01
     5109000000    1.980714053e-01    2.957960665e-01
     5112000000    7.709556818e-02    3.390660882e-01
     5115000000   -5.502562597e-02    3.514609039e-01
     5118000000   -1.780208647e-01    3.055688739e-01
     5121000000   -2.743083239e-01    2.169102728e-01
     5124000000   -3.322552145e-01    1.023272052e-01
     5127000000   -3.473995626e-01   -3.025920317e-02
     5130000000   -3.124809861e-01   -1.548376977e-01
     5133000000   -2.348309755e-01   -2.607708871e-01
     5136000000   -1.231962219e-01   -3.267306387e-01
     5139000000    5.761312786e-03   -3.481646180e-01
     5142000000    1.332641691e-01   -3.258951604e-01
     5145000000    2.414852977e-01   -2.505436242e-01
     5148000000    3.159956336e-01   -1.443397105e-01
     5151000000    3.469907939e-01   -1.970939711e-02
     5154000000    3.306982517e-01    1.094060093e-01
     5157000000    2.673629522e-01    2.230112851e-01
     5160000000    1.675391197e-01    3.038524687e-01
     5163000000    4.348749295e-02    3.451734483e-01
     5166000000   -8.647095412e-02    3.343819380e-01
     5169000000   -2.031711787e-01    2.805809379e-01
     5172000000   -2.920979857e-01    1.864474863e-01
     5175000000   -3.418374956e-01    6.542272866e-02
     5178000000   -3.383430243e-01   -6.426049024e-02
     5181000000   -2.971006334e-01   -1.874086857e-01
     5184000000   -2.078310102e-01   -2.771894038e-01
     5187000000   -9.089585394e-02   -3.400443792e-01
     5190000000    3.938061744e-02   -3.460258543e-01
     5193000000    1.609877944e-01   -3.081716299e-01
     5196000000    2.639870346e-01   -2.300896943e-01
     5199000000    3.253268898e-01   -1.152974218e-01
     5202000000    3.412689567e-01    9.537993930e-03
     5205000000    3.185069263e-01    1.392465532e-01
     5208000000    2.407105565e-01    2.436076254e-01
     5211000000    1.325815171e-01    3.185282052e-01
     5214000000    7.439895999e-03    3.423912227e-01
     5217000000   -1.185980216e-01    3.237871230e-01
     5220000000   -2.296665758e-01    2.563284039e-01
     5223000000   -3.063823283e-01    1.547184736e-01
     5226000000   -3.454418480e-01    3.106166795e-02
     5229000000   -3.327974379e-01   -9.572274983e-02
     5232000000   -2.740246058e-01   -2.105025202e-01
     5235000000   -1.786613166e-01   -2.981767952e-01
     5238000000   -5.738913640e-02   -3.417043686e-01
     5241000000    7.184527814e-02   -3.386682272e-01
     5244000000    1.893368661e-01   -2.871553600e-01
     5247000000    2.847294211e-01   -1.967556626e-01
     5250000000    3.316042125e-01   -8.014442772e-02
     5253000000    3.440679014e-01    5.065361410e-02
     5256000000    3.042361140e-01    1.750363857e-01
     5259000000    2.205882370e-01    2.700036168e-01
     5262000000    1.014686823e-01    3.472165465e-01
     5265000000   -2.029852010e-02    3.444660902e-01
     5268000000   -1.532480270e-01    3.241067231e-01
     5271000000   -2.467975467e-01    2.393091470e-01
     5274000000   -3.267432451e-01    1.312757581e-01
     5277000000   -3.501040936e-01    3.836551681e-03
     5280000000   -3.226419091e-01   -1.222326830e-01
     5283000000   -2.540103495e-01   -2.299602777e-01
     5286000000   -1.508803070e-01   -3.186308146e-01
     5289000000   -2.794987895e-02   -3.442871869e-01
     5292000000    1.016592905e-01   -3.328354359e-01
     5295000000    2.136508822e-01   -2.711603642e-01
     5298000000    3.025812805e-01   -1.726974398e-01
     5301000000    3.485686779e-01   -4.966919497e-02
     5304000000    3.447926044e-01    8.068162948e-02
     5307000000    2.916730940e-01    1.982300580e-01
     5310000000    1.995393634e-01    2.880837023e-01
     5313000000    8.120849729e-02    3.379227221e-01
     5316000000   -4.721027240e-02    3.432349861e-01
     5319000000   -1.724862605e-01    3.033937216e-01
     5322000000   -2.714223564e-01    2.179947346e-01
     5325000000   -3.341741264e-01    1.042694822e-01
     5328000000   -3.469087481e-01   -2.506158128e-02
     5331000000   -3.144691885e-01   -1.492313296e-01
     5334000000   -2.376217097e-01   -2.580512762e-01
     5337000000   -1.275806874e-01   -3.290835023e-01
     5340000000   -2.420728269e-04   -3.489157856e-01
     5343000000    1.249823645e-01   -3.241485059e-01
     5346000000    2.313266248e-01   -2.557328939e-01
     5349000000    3.074740469e-01   -1.525932848e-01
     5352000000    3.418353796e-01   -2.716684714e-02
     5355000000    3.267759979e-01    9.580872953e-02
     5358000000    2.669972181e-01    2.253883034e-01
     5361000000    1.717748940e-01    2.918583155e-01
     5364000000    4.808515683e-02    3.337140977e-01
     5367000000   -7.556229830e-02    3.346660733e-01
     5370000000   -1.976635307e-01    2.828970253e-01
     5373000000   -2.912958562e-01    1.890877783e-01
     5376000000   -3.324353993e-01    7.203052193e-02
     5379000000   -3.340792358e-01   -5.273053423e-02
     5382000000   -2.933985591e-01   -1.701549888e-01
     5385000000   -2.113209367e-01   -2.639653385e-01
     5388000000   -9.689830989e-02   -3.256577253e-01
     5391000000    1.708413102e-02   -3.296766579e-01
     5394000000    1.757957786e-01   -3.170401752e-01
     5397000000    2.194353640e-01   -2.273845226e-01
     5400000000    3.184195161e-01   -1.159456000e-01
     5403000000    3.377117813e-01    6.707570516e-03
     5406000000    3.092550337e-01    1.281328350e-01
     5409000000    2.396461964e-01    2.352197617e-01
     5412000000    1.340235323e-01    3.144900501e-01
     5415000000    1.467372105e-02    3.388710022e-01
     5418000000   -9.986399114e-02    3.176742494e-01
     5421000000   -2.215495408e-01    2.580744028e-01
     5424000000   -2.936963737e-01    1.629086584e-01
     5427000000   -3.373579383e-01    3.769763187e-02
     5430000000   -3.196641207e-01   -7.482055575e-02
     5433000000   -2.703595459e-01   -1.967528909e-01
     5436000000   -1.759713590e-01   -2.832434773e-01
     5439000000   -6.072552130e-02   -3.289310634e-01
     5442000000    8.494029194e-02   -3.362205327e-01
     5445000000    1.653460264e-01   -2.803060412e-01
     5448000000    2.811529636e-01   -1.937910467e-01
     5451000000    3.164002299e-01   -9.225997329e-02
     5454000000    3.377471566e-01    5.301465839e-02
     5457000000    2.942134142e-01    1.631211042e-01
     5460000000    2.141234130e-01    2.601179779e-01
     5463000000    1.060479283e-01    3.183612227e-01
     5466000000   -1.504991949e-02    3.343382776e-01
     5469000000   -1.369377077e-01    3.060492873e-01
     5472000000   -2.516900003e-01    2.301124036e-01
     5475000000   -3.127487600e-01    1.247662380e-01
     5478000000   -3.373805285e-01   -1.958918991e-03
     5481000000   -3.112900257e-01   -1.143506393e-01
     5484000000   -2.462505400e-01   -2.176103294e-01
     5487000000   -1.422727257e-01   -3.064284623e-01
     5490000000   -2.721253783e-02   -3.345958292e-01
     5493000000    9.096318483e-02   -3.207600117e-01
     5496000000    2.255464196e-01   -2.628168762e-01
     5499000000    2.805393636e-01   -1.769886315e-01
     5502000000    3.222314119e-01   -6.486950815e-02
     5505000000    3.299805522e-01    7.639073581e-02
     5508000000    2.790592015e-01    1.854793876e-01
     5511000000    1.907144189e-01    2.709433436e-01
     5514000000    7.132182270e-02    3.278120756e-01
     5517000000   -5.505410582e-02    3.316174746e-01
     5520000000   -1.590797305e-01    2.878534496e-01
     5523000000   -2.681462169e-01    2.042499781e-01
     5526000000   -3.198553026e-01    9.590606391e-02
     5529000000   -3.335070610e-01   -2.762829885e-02
     5532000000   -2.995761931e-01   -1.265795082e-01
     5535000000   -2.198299319e-01   -2.624545991e-01
     5538000000   -1.334087700e-01   -2.961697876e-01
     5541000000    8.770285174e-03   -3.358853161e-01
     5544000000    1.347626597e-01   -3.102321327e-01
     5547000000    2.344457954e-01   -2.377680838e-01
     5550000000    2.937932014e-01   -1.492333561e-01
     5553000000    3.330844641e-01   -1.361064985e-02
     5556000000    3.169868886e-01    9.764346480e-02
     5559000000    2.678405643e-01    1.808662862e-01
     5562000000    1.624627709e-01    2.894467115e-01
     5565000000    4.715697095e-02    3.278816938e-01
     5568000000   -6.966042519e-02    3.210261464e-01
     5571000000   -1.847976148e-01    2.716624141e-01
     5574000000   -2.729831636e-01    1.827039123e-01
     5577000000   -3.215846419e-01    7.310764492e-02
     5580000000   -3.233536482e-01   -4.589789733e-02
     5583000000   -2.858844399e-01   -1.537542492e-01
     5586000000   -1.918020248e-01   -2.694939971e-01
     5589000000   -1.101815552e-01   -3.049657643e-01
     5592000000    4.123952612e-02   -3.269127309e-01
     5595000000    1.399468184e-01   -2.942385375e-01
     5598000000    2.449864894e-01   -2.182976305e-01
     5601000000    2.997994423e-01   -1.227538660e-01
     5604000000    3.237899244e-01   -2.918934333e-04
     5607000000    3.040443063e-01    9.955712408e-02
     5610000000    2.310477793e-01    2.260098010e-01
     5613000000    1.334694922e-01    2.914633751e-01
     5616000000    1.945208199e-02    3.202139437e-01
     5619000000   -8.368924260e-02    3.095400333e-01
     5622000000   -2.059831768e-01    2.465539426e-01
     5625000000   -2.722016871e-01    1.635690480e-01
     5628000000   -3.166970909e-01    5.161782727e-02
     5631000000   -3.088224828e-01   -6.866203994e-02
     5634000000   -2.576662302e-01   -1.805827022e-01
     5637000000   -1.871341765e-01   -2.523269355e-01
     5640000000   -5.984878540e-02   -3.106144965e-01
     5643000000    2.714518644e-02   -3.134056926e-01
     5646000000    1.658409983e-01   -2.695047855e-01
     5649000000    2.526347935e-01   -1.889215559e-01
     5652000000    3.025346994e-01   -9.011487663e-02
     5655000000    3.144838214e-01    1.542420592e-02
     5658000000    2.883205712e-01    1.273114830e-01
     5661000000    2.121629566e-01    2.306472063e-01
     5664000000    1.131452322e-01    2.906779349e-01
     5667000000    3.053027904e-03    3.127381504e-01
     5670000000   -1.118846461e-01    2.898706794e-01
     5673000000   -2.084568590e-01    2.309344411e-01
     5676000000   -2.820326686e-01    1.301149577e-01
     5679000000   -3.102435172e-01    2.539977804e-02
     5682000000   -2.978720367e-01   -8.939434588e-02
     5685000000   -2.409066409e-01   -1.936290115e-01
     5688000000   -1.635099500e-01   -2.626509070e-01
     5691000000   -4.745128006e-02   -3.036814630e-01
     5694000000    4.435168207e-02   -3.078745306e-01
     5697000000    1.732501537e-01   -2.507631481e-01
     5700000000    2.414265126e-01   -1.892755628e-01
     5703000000    2.922164798e-01   -7.772628218e-02
     5706000000    3.009769619e-01    3.932578862e-02
     5709000000    2.628961205e-01    1.458092183e-01
     5712000000    1.951849759e-01    2.273257822e-01
     5715000000    1.084534079e-01    2.819412053e-01
     5718000000   -1.608617231e-02    2.993820608e-01
     5721000000   -1.061330885e-01    2.818117440e-01
     5724000000   -2.189866304e-01    2.007870078e-01
     5727000000   -2.715052962e-01    1.223818511e-01
     5730000000   -2.927087843e-01    1.380772796e-02
     5733000000   -2.778016925e-01   -9.671848267e-02
     5736000000   -2.265741527e-01   -1.827526242e-01
     5739000000   -1.352755725e-01   -2.558060288e-01
     5742000000   -3.488932177e-02   -2.883133888e-01
     5745000000    6.438610703e-02   -2.824049890e-01
     5748000000    1.751392335e-01   -2.200319618e-01
     5751000000    2.360379398e-01   -1.747107655e-01
     5754000000    2.772365808e-01   -4.391453788e-02
     5757000000    2.786978185e-01    5.647034571e-02
     5760000000    2.413485944e-01    1.510631740e-01
     5763000000    1.622917205e-01    2.314792126e-01
     5766000000    8.955267817e-02    2.744013369e-01
     5769000000   -3.682610393e-02    2.765101194e-01
     5772000000   -1.152820140e-01    2.655317485e-01
     5775000000   -2.101754546e-01    1.784011871e-01
     5778000000   -2.591473460e-01    9.535373747e-02
     5781000000   -2.731052935e-01   -8.931388147e-03
     5784000000   -2.527259588e-01   -1.052269787e-01
     5787000000   -1.911926419e-01   -1.912822425e-01
     5790000000   -1.062980518e-01   -2.471318990e-01
     5793000000   -1.092825364e-02   -2.700536251e-01
     5796000000    8.428681642e-02   -2.605613172e-01
     5799000000    1.774197817e-01   -2.056172192e-01
     5802000000    2.391466796e-01   -1.239347234e-01
     5805000000    2.711572051e-01   -3.392706811e-02
     5808000000    2.525549233e-01    7.664157450e-02
     5811000000    2.207168043e-01    1.572922021e-01
     5814000000    1.480225027e-01    2.246212065e-01
     5817000000    5.725552514e-02    2.625668347e-01
     5820000000   -4.568741098e-02    2.599200010e-01
     5823000000   -1.365637481e-01    2.285707593e-01
     5826000000   -2.079905123e-01    1.657859683e-01
     5829000000   -2.489989847e-01    6.447988003e-02
     5832000000   -2.651166618e-01   -1.823537797e-02
     5835000000   -2.284733951e-01   -1.197275445e-01
     5838000000   -1.759407818e-01   -1.940982491e-01
     5841000000   -9.152950346e-02   -2.435743958e-01
     5844000000    3.337317146e-03   -2.618264854e-01
     5847000000    1.050218642e-01   -2.308753431e-01
     5850000000    1.832984239e-01   -1.799363345e-01
     5853000000    2.381504625e-01   -1.143921316e-01
     5856000000    2.569192946e-01   -1.533945370e-02
     5859000000    2.468416840e-01    7.601914555e-02
     5862000000    1.943311840e-01    1.627922356e-01
     5865000000    1.204370260e-01    2.199203521e-01
     5868000000    3.960218281e-02    2.527326047e-01
     5871000000   -5.979932100e-02    2.432792038e-01
     5874000000   -1.431131065e-01    2.118289173e-01
     5877000000   -2.108507007e-01    1.335310042e-01
     5880000000   -2.461773902e-01    4.991569743e-02
     5883000000   -2.506486475e-01   -4.088059068e-02
     5886000000   -2.037586123e-01   -1.343584508e-01
     5889000000   -1.528649330e-01   -2.007148564e-01
     5892000000   -7.523784786e-02   -2.455299795e-01
     5895000000    2.413913794e-02   -2.469051480e-01
     5898000000    1.105276197e-01   -2.193832397e-01
     5901000000    1.822848320e-01   -1.722787470e-01
     5904000000    2.314197570e-01   -8.644361049e-02
     5907000000    2.502073646e-01   -1.783297746e-03
     5910000000    2.206815183e-01    9.163554758e-02
     5913000000    1.771703959e-01    1.722035706e-01
     5916000000    1.013599858e-01    2.230247706e-01
     5919000000    6.264349446e-03    2.405605465e-01
     5922000000   -7.755419612e-02    2.407753766e-01
     5925000000   -1.573937982e-01    1.921228915e-01
     5928000000   -2.178886086e-01    1.243449822e-01
     5931000000   -2.438319027e-01    3.571233526e-02
     5934000000   -2.445818633e-01   -5.565791205e-02
     5937000000   -2.062327564e-01   -1.386188418e-01
     5940000000   -1.281326115e-01   -1.943230927e-01
     5943000000   -5.233075842e-02   -2.326391041e-01
     5946000000    3.375146911e-02   -2.377512753e-01
     5949000000    1.192005798e-01   -2.092777193e-01
     5952000000    1.919770986e-01   -1.636035889e-01
     5955000000    2.150712907e-01   -6.105697155e-02
     5958000000    2.396938950e-01    1.560551953e-02
     5961000000    2.175605744e-01    1.017501354e-01
     5964000000    1.761548966e-01    1.771320105e-01
     5967000000    9.228625894e-02    2.195100784e-01
     5970000000    1.534868148e-03    2.292700559e-01
     5973000000   -7.916099578e-02    2.180336118e-01
     5976000000   -1.564228684e-01    1.781643182e-01
     5979000000   -2.135232687e-01    1.133556291e-01
     5982000000   -2.322117835e-01    2.647724189e-02
     5985000000   -2.239532173e-01   -5.937062204e-02
     5988000000   -1.904828399e-01   -1.386385113e-01
     5991000000   -1.189671680e-01   -1.911542714e-01
     5994000000   -4.149814323e-02   -2.226104736e-01
     5997000000    4.297797009e-02   -2.256897986e-01
     6000000000    1.169836745e-01   -1.901034713e-01
