! NanoVNA-App
! Date: 2026-05-25 01:58:16
! Start: 2.3GHz Stop: 2.6GHz Points: 401
! S-Parameter data: F S11
# Hz S RI R 50
!     Frequency           S11_Real           S11_Imag
     2300000000    4.896269143e-01   -2.523137331e-01
     2300750000    5.119028091e-01   -2.040693611e-01
     2301500000    5.284286141e-01   -1.585139632e-01
     2302250000    5.410012603e-01   -1.050596163e-01
     2303000000    5.493810773e-01   -5.625415966e-02
     2303750000    5.520604253e-01   -7.557533681e-03
     2304500000    5.504056215e-01    4.586733505e-02
     2305250000    5.425918102e-01    9.998052567e-02
     2306000000    5.313017368e-01    1.499042809e-01
     2306750000    5.147408247e-01    1.995634437e-01
     2307500000    4.943222702e-01    2.456150800e-01
     2308250000    4.674976766e-01    2.921533287e-01
     2309000000    4.400721192e-01    3.326274753e-01
     2309750000    4.073068500e-01    3.720458746e-01
     2310500000    3.678274453e-01    4.096801877e-01
     2311250000    3.277480602e-01    4.424127340e-01
     2312000000    2.860547602e-01    4.704423249e-01
     2312750000    2.394358367e-01    4.948536754e-01
     2313500000    1.903047860e-01    5.161490440e-01
     2314250000    1.433739364e-01    5.306007862e-01
     2315000000    9.056451917e-02    5.421260595e-01
     2315750000    3.932278976e-02    5.478469729e-01
     2316500000   -1.248227060e-02    5.489463210e-01
     2317250000   -6.475212425e-02    5.453940034e-01
     2318000000   -1.108103693e-01    5.388528109e-01
     2318750000   -1.631340086e-01    5.252556801e-01
     2319500000   -2.128172517e-01    5.063281059e-01
     2320250000   -2.606586814e-01    4.834907055e-01
     2321000000   -3.086670637e-01    4.547863901e-01
     2321750000   -3.463356197e-01    4.275919497e-01
     2322500000   -3.830217421e-01    3.953103721e-01
     2323250000   -4.197311997e-01    3.553354144e-01
     2324000000   -4.549460113e-01    3.082742393e-01
     2324750000   -4.777707160e-01    2.733878195e-01
     2325500000   -5.037424564e-01    2.215480953e-01
     2326250000   -5.218839049e-01    1.779778600e-01
     2327000000   -5.362980962e-01    1.266588271e-01
     2327750000   -5.456430316e-01    7.023748755e-02
     2328500000   -5.502338409e-01    2.440399863e-02
     2329250000   -5.497760773e-01   -3.033640236e-02
     2330000000   -5.461673141e-01   -7.742120326e-02
     2330750000   -5.354688764e-01   -1.313139200e-01
     2331500000   -5.215454698e-01   -1.786284745e-01
     2332250000   -5.005418658e-01   -2.291448265e-01
     2333000000   -4.764610827e-01   -2.750676572e-01
     2333750000   -4.513996840e-01   -3.150143325e-01
     2334500000   -4.167900383e-01   -3.583978117e-01
     2335250000   -3.843894899e-01   -3.939874172e-01
     2336000000   -3.430059254e-01   -4.294440150e-01
     2336750000   -3.038957715e-01   -4.575687945e-01
     2337500000   -2.584823966e-01   -4.845603108e-01
     2338250000   -2.105265409e-01   -5.067476034e-01
     2339000000   -1.607968658e-01   -5.239888430e-01
     2339750000   -1.110616401e-01   -5.356580615e-01
     2340500000   -6.136548519e-02   -5.440711975e-01
     2341250000   -9.651970118e-03   -5.469111204e-01
     2342000000    4.236438870e-02   -5.451165438e-01
     2342750000    9.286540002e-02   -5.381596088e-01
     2343500000    1.432751715e-01   -5.264422297e-01
     2344250000    1.926117688e-01   -5.108069181e-01
     2345000000    2.397336513e-01   -4.894077778e-01
     2345750000    2.855629921e-01   -4.634748399e-01
     2346500000    3.279516101e-01   -4.354557097e-01
     2347250000    3.633566499e-01   -4.060511589e-01
     2348000000    4.023087025e-01   -3.660207987e-01
     2348750000    4.386216402e-01   -3.212836981e-01
     2349500000    4.642704427e-01   -2.831185460e-01
     2350250000    4.888851643e-01   -2.397444248e-01
     2351000000    5.095499158e-01   -1.876358241e-01
     2351750000    5.246058106e-01   -1.448551714e-01
     2352500000    5.352866650e-01   -8.701199293e-02
     2353250000    5.431069732e-01   -4.325730354e-02
     2354000000    5.434270501e-01    1.430472452e-02
     2354750000    5.407481790e-01    6.203978881e-02
     2355500000    5.329261422e-01    1.139989793e-01
     2356250000    5.185551047e-01    1.663966030e-01
     2357000000    4.995712042e-01    2.147344351e-01
     2357750000    4.784980714e-01    2.601614594e-01
     2358500000    4.547190070e-01    3.019772768e-01
     2359250000    4.215011597e-01    3.455474973e-01
     2360000000    3.877885044e-01    3.834142387e-01
     2360750000    3.518262208e-01    4.171153009e-01
     2361500000    3.108933866e-01    4.482809007e-01
     2362250000    2.666321397e-01    4.758989513e-01
     2363000000    2.209635526e-01    4.990678132e-01
     2363750000    1.732377112e-01    5.175652504e-01
     2364500000    1.224701479e-01    5.312851071e-01
     2365250000    7.002491504e-02    5.405288935e-01
     2366000000    2.129958756e-02    5.448833108e-01
     2366750000   -3.164121881e-02    5.438441634e-01
     2367500000   -8.214215934e-02    5.384911299e-01
     2368250000   -1.327424198e-01    5.280521512e-01
     2369000000   -1.823173165e-01    5.126727819e-01
     2369750000   -2.310533077e-01    4.932021797e-01
     2370500000   -2.754622698e-01    4.699759781e-01
     2371250000   -3.187263012e-01    4.415808618e-01
     2372000000   -3.590096831e-01    4.091582894e-01
     2372750000   -3.970256150e-01    3.730725050e-01
     2373500000   -4.310030043e-01    3.341515064e-01
     2374250000   -4.604002833e-01    2.925043702e-01
     2375000000   -4.865568280e-01    2.461747974e-01
     2375750000   -5.081506371e-01    1.979068816e-01
     2376500000   -5.248432159e-01    1.521816850e-01
     2377250000   -5.377799869e-01    9.741558135e-02
     2378000000   -5.452966094e-01    5.133323744e-02
     2378750000   -5.477380157e-01   -4.258007742e-03
     2379500000   -5.443799496e-01   -5.843790248e-02
     2380250000   -5.403305292e-01   -1.020401046e-01
     2381000000   -5.270045996e-01   -1.567072868e-01
     2381750000   -5.095272660e-01   -2.066958845e-01
     2382500000   -4.889949262e-01   -2.528773546e-01
     2383250000   -4.632470608e-01   -2.986254394e-01
     2384000000   -4.270361066e-01   -3.472564518e-01
     2384750000   -4.030408263e-01   -3.784500659e-01
     2385500000   -3.608269989e-01   -4.187836051e-01
     2386250000   -3.205837011e-01   -4.508253038e-01
     2387000000   -2.773019671e-01   -4.795527160e-01
     2387750000   -2.311690450e-01   -5.035923123e-01
     2388500000   -1.895720959e-01   -5.232058167e-01
     2389250000   -1.373991370e-01   -5.391349196e-01
     2390000000   -8.227489144e-02   -5.500286818e-01
     2390750000   -3.144812211e-02   -5.564309359e-01
     2391500000    2.246659808e-02   -5.567169189e-01
     2392250000    7.119613141e-02   -5.535385013e-01
     2393000000    1.249021143e-01   -5.438066125e-01
     2393750000    1.758072376e-01   -5.300915837e-01
     2394500000    2.232126147e-01   -5.121657848e-01
     2395250000    2.698647380e-01   -4.899496436e-01
     2396000000    3.172627091e-01   -4.595862925e-01
     2396750000    3.564586639e-01   -4.314853847e-01
     2397500000    3.965030313e-01   -3.941939771e-01
     2398250000    4.313335419e-01   -3.557797372e-01
     2399000000    4.625065625e-01   -3.153110743e-01
     2399750000    4.911307991e-01   -2.677602172e-01
     2400500000    5.145726800e-01   -2.203064710e-01
     2401250000    5.332211852e-01   -1.700224876e-01
     2402000000    5.465750694e-01   -1.209219396e-01
     2402750000    5.558186173e-01   -7.116314024e-02
     2403500000    5.600822568e-01   -1.541402377e-02
     2404250000    5.596776605e-01    3.603405505e-02
     2405000000    5.550636053e-01    8.821994811e-02
     2405750000    5.434766412e-01    1.423112005e-01
     2406500000    5.289807320e-01    1.919570863e-01
     2407250000    5.082852840e-01    2.407602817e-01
     2408000000    4.837614894e-01    2.882910967e-01
     2408750000    4.541347921e-01    3.336978853e-01
     2409500000    4.223858714e-01    3.745972216e-01
     2410250000    3.875848353e-01    4.121449888e-01
     2411000000    3.436802328e-01    4.489580393e-01
     2411750000    3.019430637e-01    4.790101647e-01
     2412500000    2.569398284e-01    5.052088499e-01
     2413250000    2.075184286e-01    5.280617476e-01
     2414000000    1.576562077e-01    5.459702611e-01
     2414750000    1.058258638e-01    5.593072176e-01
     2415500000    5.116934702e-02    5.671139359e-01
     2416250000   -1.870185719e-03    5.694466829e-01
     2417000000   -5.708997324e-02    5.667405725e-01
     2417750000   -1.092830747e-01    5.605907440e-01
     2418500000   -1.606528759e-01    5.490497351e-01
     2419250000   -2.105092108e-01    5.326636434e-01
     2420000000   -2.601088583e-01    5.111035705e-01
     2420750000   -3.082057834e-01    4.840058982e-01
     2421500000   -3.518573940e-01    4.543732107e-01
     2422250000   -3.925763369e-01    4.203353822e-01
     2423000000   -4.310368598e-01    3.822447360e-01
     2423750000   -4.652809203e-01    3.413822055e-01
     2424500000   -4.958093762e-01    2.964681089e-01
     2425250000   -5.220407844e-01    2.482833415e-01
     2426000000   -5.431860089e-01    2.014031857e-01
     2426750000   -5.601474047e-01    1.477710009e-01
     2427500000   -5.726919770e-01    9.510518610e-02
     2428250000   -5.793486238e-01    4.024369270e-02
     2429000000   -5.807957649e-01   -1.336142421e-02
     2429750000   -5.782155991e-01   -6.633636355e-02
     2430500000   -5.712057948e-01   -1.169769764e-01
     2431250000   -5.556806922e-01   -1.742174178e-01
     2432000000   -5.395247936e-01   -2.231593579e-01
     2432750000   -5.171780586e-01   -2.717570066e-01
     2433500000   -4.866470695e-01   -3.215507865e-01
     2434250000   -4.579486847e-01   -3.634554744e-01
     2435000000   -4.234535396e-01   -4.037031531e-01
     2435750000   -3.808079362e-01   -4.435445070e-01
     2436500000   -3.398494124e-01   -4.764270484e-01
     2437250000   -2.934803069e-01   -5.062795281e-01
     2438000000   -2.489413023e-01   -5.302557945e-01
     2438750000   -1.957305968e-01   -5.522421002e-01
     2439500000   -1.425077468e-01   -5.685732961e-01
     2440250000   -9.321400523e-02   -5.793586969e-01
     2441000000   -3.785236180e-02   -5.854154825e-01
     2441750000    2.110327967e-02   -5.853811502e-01
     2442500000    7.161982358e-02   -5.819881558e-01
     2443250000    1.238562986e-01   -5.741249919e-01
     2444000000    1.828019917e-01   -5.563889146e-01
     2444750000    2.314388901e-01   -5.391265154e-01
     2445500000    2.806143761e-01   -5.153498650e-01
     2446250000    3.267585039e-01   -4.875462353e-01
     2447000000    3.717008233e-01   -4.536025822e-01
     2447750000    4.122901857e-01   -4.170422256e-01
     2448500000    4.486946166e-01   -3.785091639e-01
     2449250000    4.825606644e-01   -3.341209888e-01
     2450000000    5.118832588e-01   -2.880847454e-01
     2450750000    5.370489955e-01   -2.376018763e-01
     2451500000    5.567902923e-01   -1.884917766e-01
     2452250000    5.721067786e-01   -1.341493726e-01
     2453000000    5.827054977e-01   -8.103499562e-02
     2453750000    5.877658129e-01   -2.584998868e-02
     2454500000    5.868903399e-01    3.129085526e-02
     2455250000    5.830591917e-01    8.281719685e-02
     2456000000    5.734964013e-01    1.370759159e-01
     2456750000    5.573230386e-01    1.919126958e-01
     2457500000    5.353596210e-01    2.448734790e-01
     2458250000    5.154557824e-01    2.883238494e-01
     2459000000    4.812982380e-01    3.402200639e-01
     2459750000    4.523515403e-01    3.800684214e-01
     2460500000    4.107201397e-01    4.239851236e-01
     2461250000    3.763136566e-01    4.573152065e-01
     2462000000    3.225227594e-01    4.945262372e-01
     2462750000    2.824397087e-01    5.207790732e-01
     2463500000    2.299470454e-01    5.453842878e-01
     2464250000    1.838560998e-01    5.638525486e-01
     2465000000    1.225757673e-01    5.789086819e-01
     2465750000    7.180997729e-02    5.888760686e-01
     2466500000    1.424458157e-02    5.924534798e-01
     2467250000   -3.612734750e-02    5.932984948e-01
     2468000000   -9.365544468e-02    5.858935714e-01
     2468750000   -1.488165259e-01    5.747033358e-01
     2469500000   -2.004648596e-01    5.593502522e-01
     2470250000   -2.474733144e-01    5.419442654e-01
     2471000000   -3.012205064e-01    5.122657418e-01
     2471750000   -3.468986452e-01    4.827864468e-01
     2472500000   -3.897732794e-01    4.490766525e-01
     2473250000   -4.281681180e-01    4.137138724e-01
     2474000000   -4.670326710e-01    3.670546114e-01
     2474750000   -4.991445243e-01    3.216380179e-01
     2475500000   -5.244504213e-01    2.808160484e-01
     2476250000   -5.487850904e-01    2.246000469e-01
     2477000000   -5.670371652e-01    1.751211137e-01
     2477750000   -5.803872347e-01    1.184498519e-01
     2478500000   -5.886487365e-01    6.611630321e-02
     2479250000   -5.923048258e-01    1.243260596e-02
     2480000000   -5.891617537e-01   -4.757083207e-02
     2480750000   -5.837339163e-01   -9.933624417e-02
     2481500000   -5.718035102e-01   -1.536399126e-01
     2482250000   -5.547531247e-01   -2.069041431e-01
     2483000000   -5.324826241e-01   -2.586774528e-01
     2483750000   -5.061125159e-01   -3.068366647e-01
     2484500000   -4.747417271e-01   -3.534125686e-01
     2485250000   -4.403578341e-01   -3.960880935e-01
     2486000000   -4.003279209e-01   -4.362289608e-01
     2486750000   -3.583980799e-01   -4.719166160e-01
     2487500000   -3.115096688e-01   -5.039036870e-01
     2488250000   -2.661489248e-01   -5.303183198e-01
     2489000000   -2.139457464e-01   -5.535755754e-01
     2489750000   -1.616538912e-01   -5.718400478e-01
     2490500000   -1.058382615e-01   -5.837377906e-01
     2491250000   -5.639244616e-02   -5.925028324e-01
     2492000000    1.955463551e-03   -5.947042108e-01
     2492750000    5.790242180e-02   -5.909001231e-01
     2493500000    1.104501858e-01   -5.845421553e-01
     2494250000    1.661264598e-01   -5.712107420e-01
     2495000000    2.213467062e-01   -5.512347817e-01
     2495750000    2.672731280e-01   -5.324893594e-01
     2496500000    3.203368783e-01   -5.007497072e-01
     2497250000    3.621909022e-01   -4.720377028e-01
     2498000000    4.064038098e-01   -4.338370264e-01
     2498750000    4.451026022e-01   -3.956866264e-01
     2499500000    4.775587618e-01   -3.565441966e-01
     2500250000    5.118286014e-01   -3.025996089e-01
     2501000000    5.359784365e-01   -2.606170177e-01
     2501750000    5.588333607e-01   -2.045051157e-01
     2502500000    5.758049488e-01   -1.567204446e-01
     2503250000    5.875292420e-01   -9.555541724e-02
     2504000000    5.942949057e-01   -4.421497136e-02
     2504750000    5.961532593e-01    9.670610540e-03
     2505500000    5.924485326e-01    6.820886582e-02
     2506250000    5.827621818e-01    1.225425154e-01
     2507000000    5.697129965e-01    1.767787039e-01
     2507750000    5.519444346e-01    2.273313105e-01
     2508500000    5.277566314e-01    2.773726881e-01
     2509250000    4.979410470e-01    3.279199600e-01
     2510000000    4.690034688e-01    3.689979315e-01
     2510750000    4.286296070e-01    4.147424698e-01
     2511500000    3.907678723e-01    4.515847862e-01
     2512250000    3.456402123e-01    4.866473079e-01
     2513000000    3.002587557e-01    5.161687136e-01
     2513750000    2.481888682e-01    5.424775481e-01
     2514500000    1.981626153e-01    5.636885762e-01
     2515250000    1.449913681e-01    5.795408487e-01
     2516000000    8.794977516e-02    5.913085341e-01
     2516750000    3.362444416e-02    5.966187716e-01
     2517500000   -2.187380195e-02    5.977395177e-01
     2518250000   -7.656476647e-02    5.931169391e-01
     2519000000   -1.321404725e-01    5.833616257e-01
     2519750000   -1.848892123e-01    5.703272223e-01
     2520500000   -2.388273478e-01    5.497176647e-01
     2521250000   -2.875795662e-01    5.255638957e-01
     2522000000   -3.362579644e-01    4.962881804e-01
     2522750000   -3.805271685e-01    4.635162354e-01
     2523500000   -4.222745299e-01    4.262007177e-01
     2524250000   -4.602093101e-01    3.835487068e-01
     2525000000   -4.937169552e-01    3.395273983e-01
     2525750000   -5.234618187e-01    2.921983898e-01
     2526500000   -5.484442711e-01    2.436302900e-01
     2527250000   -5.682861805e-01    1.907622665e-01
     2528000000   -5.834645629e-01    1.365237683e-01
     2528750000   -5.945551991e-01    8.386866003e-02
     2529500000   -5.996819735e-01    2.574514039e-02
     2530250000   -5.986963511e-01   -3.034662269e-02
     2531000000   -5.940345526e-01   -8.553832769e-02
     2531750000   -5.827514529e-01   -1.414056867e-01
     2532500000   -5.676875114e-01   -1.939028054e-01
     2533250000   -5.464580655e-01   -2.472047061e-01
     2534000000   -5.220390558e-01   -2.971138060e-01
     2534750000   -4.918717146e-01   -3.450402915e-01
     2535500000   -4.580904245e-01   -3.893773854e-01
     2536250000   -4.195993543e-01   -4.303568006e-01
     2537000000   -3.782902658e-01   -4.673121870e-01
     2537750000   -3.354052603e-01   -4.995647371e-01
     2538500000   -2.860550880e-01   -5.288355350e-01
     2539250000   -2.361110449e-01   -5.526810884e-01
     2540000000   -1.843547523e-01   -5.721302629e-01
     2540750000   -1.293364912e-01   -5.872352719e-01
     2541500000   -7.366222888e-02   -5.966349840e-01
     2542250000   -1.844925620e-02   -6.011289954e-01
     2543000000    3.747730330e-02   -6.005433798e-01
     2543750000    9.388046712e-02   -5.938289165e-01
     2544500000    1.496957839e-01   -5.820186138e-01
     2545250000    2.011471689e-01   -5.671388507e-01
     2546000000    2.535544932e-01   -5.458586812e-01
     2546750000    3.055189252e-01   -5.181407332e-01
     2547500000    3.505541086e-01   -4.889443517e-01
     2548250000    3.981262445e-01   -4.517544508e-01
     2549000000    4.360628426e-01   -4.165260196e-01
     2549750000    4.751697183e-01   -3.713783324e-01
     2550500000    5.062212348e-01   -3.280580342e-01
     2551250000    5.355855823e-01   -2.798118293e-01
     2552000000    5.589721799e-01   -2.290161103e-01
     2552750000    5.783204436e-01   -1.737483889e-01
     2553500000    5.916972756e-01   -1.218803898e-01
     2554250000    6.008934975e-01   -6.343847513e-02
     2555000000    6.049992442e-01   -1.312302519e-02
     2555750000    6.029649973e-01    4.659760743e-02
     2556500000    5.955593586e-01    1.035228595e-01
     2557250000    5.837427974e-01    1.564411372e-01
     2558000000    5.697044730e-01    2.058332860e-01
     2558750000    5.445895791e-01    2.615844607e-01
     2559500000    5.183040500e-01    3.116858900e-01
     2560250000    4.880167544e-01    3.575955927e-01
     2561000000    4.537131190e-01    4.006834626e-01
     2561750000    4.091236591e-01    4.448890984e-01
     2562500000    3.706542850e-01    4.782680869e-01
     2563250000    3.237538338e-01    5.101034045e-01
     2564000000    2.741007805e-01    5.387478471e-01
     2564750000    2.248187512e-01    5.611637235e-01
     2565500000    1.719832122e-01    5.801739097e-01
     2566250000    1.196013838e-01    5.932773352e-01
     2567000000    5.837767199e-02    6.017736793e-01
     2567750000    5.753423553e-03    6.046869755e-01
     2568500000   -5.179684237e-02    6.024860144e-01
     2569250000   -1.082530767e-01    5.949288607e-01
     2570000000   -1.620345861e-01    5.827462077e-01
     2570750000   -2.144409716e-01    5.658260584e-01
     2571500000   -2.671286762e-01    5.423126817e-01
     2572250000   -3.146723509e-01    5.169464350e-01
     2573000000   -3.621478379e-01    4.840815961e-01
     2573750000   -4.062880576e-01    4.483565688e-01
     2574500000   -4.456285238e-01    4.101013243e-01
     2575250000   -4.821186960e-01    3.659274578e-01
     2576000000   -5.146965981e-01    3.200024962e-01
     2576750000   -5.412366390e-01    2.718767822e-01
     2577500000   -5.638462305e-01    2.202470005e-01
     2578250000   -5.822764039e-01    1.665002853e-01
     2579000000   -5.948783159e-01    1.108895615e-01
     2579750000   -6.025009751e-01    5.506029353e-02
     2580500000   -6.049914360e-01   -7.814747514e-04
     2581250000   -6.026709080e-01   -5.618038028e-02
     2582000000   -5.952076316e-01   -1.113014147e-01
     2582750000   -5.822588801e-01   -1.653174609e-01
     2583500000   -5.627369881e-01   -2.206243575e-01
     2584250000   -5.424296260e-01   -2.688736916e-01
     2585000000   -5.123785138e-01   -3.195689023e-01
     2585750000   -4.796121716e-01   -3.660837710e-01
     2586500000   -4.460118115e-01   -4.086076319e-01
     2587250000   -4.066478312e-01   -4.470411837e-01
     2588000000   -3.623935282e-01   -4.837694168e-01
     2588750000   -3.149428070e-01   -5.144372582e-01
     2589500000   -2.681000531e-01   -5.406902432e-01
     2590250000   -2.146521807e-01   -5.632669926e-01
     2591000000   -1.621791571e-01   -5.804345012e-01
     2591750000   -1.088013574e-01   -5.928009748e-01
     2592500000   -5.118258297e-02   -6.001088023e-01
     2593250000    3.665482858e-03   -6.013783813e-01
     2594000000    6.303045899e-02   -5.973557234e-01
     2594750000    1.147197932e-01   -5.905280113e-01
     2595500000    1.700726897e-01   -5.766903758e-01
     2596250000    2.227390856e-01   -5.578552485e-01
     2597000000    2.741312087e-01   -5.332564116e-01
     2597750000    3.212496042e-01   -5.073198080e-01
     2598500000    3.688802421e-01   -4.725138545e-01
     2599250000    4.123848379e-01   -4.351206422e-01
     2600000000    4.486419261e-01   -3.996299505e-01
