! NanoVNA-App
! Date: 2026-05-25 02:03:26
! Start: 4.8GHz Stop: 6GHz Points: 401
! S-Parameter data: F S11
# Hz S RI R 50
!     Frequency           S11_Real           S11_Imag
     4800000000    7.811927050e-02   -1.132998336e-02
     4803000000    1.015674621e-01    5.514821038e-02
     4806000000    1.047230065e-01    1.189841852e-01
     4809000000    9.015368670e-02    1.738981903e-01
     4812000000    5.777982622e-02    2.146389633e-01
     4815000000    1.600893773e-02    2.333488017e-01
     4818000000   -2.835251950e-02    2.289050519e-01
     4821000000   -6.568782032e-02    2.021028697e-01
     4824000000   -9.155763686e-02    1.549149901e-01
     4827000000   -1.023225859e-01    9.549263865e-02
     4830000000   -9.140286595e-02    2.922014147e-02
     4833000000   -6.305883080e-02   -3.553957120e-02
     4836000000   -1.864012890e-02   -8.992766589e-02
     4839000000    3.552976623e-02   -1.281272173e-01
     4842000000    9.193709493e-02   -1.452302337e-01
     4845000000    1.436210126e-01   -1.411806941e-01
     4848000000    1.821624041e-01   -1.202655360e-01
     4851000000    2.025611252e-01   -8.373554051e-02
     4854000000    1.991520375e-01   -3.808514774e-02
     4857000000    1.743099689e-01    3.307969775e-03
     4860000000    1.254636943e-01    4.035796225e-02
     4863000000    6.165095419e-02    6.217611581e-02
     4866000000   -1.009084564e-02    6.789658219e-02
     4869000000   -8.440326154e-02    5.260063708e-02
     4872000000   -1.477446109e-01    2.355550230e-02
     4875000000   -1.954984516e-01   -2.062526532e-02
     4878000000   -2.231248170e-01   -7.456527650e-02
     4881000000   -2.272332013e-01   -1.232459173e-01
     4884000000   -2.084434330e-01   -1.648775637e-01
     4887000000   -1.715635359e-01   -1.933615804e-01
     4890000000   -1.219620928e-01   -1.992650181e-01
     4893000000   -6.741841137e-02   -1.813099682e-01
     4896000000   -1.586300321e-02   -1.372534335e-01
     4899000000    2.521013469e-02   -7.951350510e-02
     4902000000    5.390525237e-02   -7.103344426e-03
     4905000000    6.397733092e-02    6.911677122e-02
     4908000000    5.503981560e-02    1.393904239e-01
     4911000000    2.994612232e-02    1.962706149e-01
     4914000000   -8.985821158e-03    2.317412198e-01
     4917000000   -5.116567388e-02    2.464676797e-01
     4920000000   -9.347698092e-02    2.317372561e-01
     4923000000   -1.245226860e-01    2.061426491e-01
     4926000000   -1.339265257e-01    1.533433348e-01
     4929000000   -1.258507669e-01    9.598927200e-02
     4932000000   -9.717507660e-02    3.530297428e-02
     4935000000   -4.270698130e-02   -2.354511432e-02
     4938000000    2.133197524e-02   -6.658292562e-02
     4941000000    9.093051404e-02   -9.371849149e-02
     4944000000    1.603419930e-01   -9.795428813e-02
     4947000000    2.132368386e-01   -8.731417358e-02
     4950000000    2.536675930e-01   -5.251931027e-02
     4953000000    2.715591490e-01   -1.282776799e-02
     4956000000    2.614541650e-01    2.955410816e-02
     4959000000    2.316089720e-01    6.681525707e-02
     4962000000    1.795664877e-01    9.115512669e-02
     4965000000    1.096160188e-01    9.347615391e-02
     4968000000    3.305020928e-02    7.736760378e-02
     4971000000   -3.816990927e-02    4.705471173e-02
     4974000000   -1.019572616e-01   -9.121880867e-04
     4977000000   -1.471849531e-01   -5.969297513e-02
     4980000000   -1.707077771e-01   -1.176001355e-01
     4983000000   -1.700010598e-01   -1.712446213e-01
     4986000000   -1.506770253e-01   -2.138942927e-01
     4989000000   -1.139636487e-01   -2.323154360e-01
     4992000000   -7.305188477e-02   -2.312217802e-01
     4995000000   -3.276035190e-02   -2.030414343e-01
     4998000000    1.311305328e-03   -1.545087248e-01
     5001000000    2.461669408e-02   -8.941140771e-02
     5004000000    2.267598547e-02   -3.755886806e-03
     5007000000    1.880733669e-02    6.695452332e-02
     5010000000   -1.723893359e-02    1.388854533e-01
     5013000000   -5.957734585e-02    1.894555092e-01
     5016000000   -1.062955335e-01    2.183618397e-01
     5019000000   -1.538969725e-01    2.231273204e-01
     5022000000   -1.925474405e-01    2.066604048e-01
     5025000000   -2.126079351e-01    1.706997007e-01
     5028000000   -2.146049589e-01    1.244162023e-01
     5031000000   -1.870257109e-01    7.285027206e-02
     5034000000   -1.366551220e-01    2.460686304e-02
     5037000000   -7.025523484e-02   -1.455039252e-02
     5040000000    9.463248774e-03   -4.080184922e-02
     5043000000    8.789438009e-02   -4.778826982e-02
     5046000000    1.618770212e-01   -3.483211249e-02
     5049000000    2.205089331e-01   -8.082327433e-03
     5052000000    2.571341991e-01    3.312783316e-02
     5055000000    2.696723938e-01    7.684592903e-02
     5058000000    2.573089600e-01    1.176390946e-01
     5061000000    2.209813297e-01    1.405930370e-01
     5064000000    1.702675670e-01    1.476889104e-01
     5067000000    1.077395305e-01    1.277891248e-01
     5070000000    4.450450838e-02    8.876989782e-02
     5073000000   -1.406229939e-02    2.785683423e-02
     5076000000   -6.087433547e-02   -4.175442830e-02
     5079000000   -8.672384918e-02   -1.179438829e-01
     5082000000   -9.632337093e-02   -1.912509650e-01
     5085000000   -7.727076858e-02   -2.501940727e-01
     5088000000   -4.632363096e-02   -2.897509336e-01
     5091000000   -5.436182488e-03   -3.072680235e-01
     5094000000    3.774263337e-02   -2.995641232e-01
     5097000000    7.216731459e-02   -2.678395808e-01
     5100000000    8.164901286e-02   -2.114355713e-01
     5103000000    8.601687849e-02   -1.458296478e-01
     5106000000    5.851133168e-02   -6.864501536e-02
     5109000000    1.632236503e-02    6.307163276e-03
     5112000000   -3.757600859e-02    7.337521762e-02
     5115000000   -1.025892422e-01    1.199482158e-01
     5118000000   -1.659819335e-01    1.488887817e-01
     5121000000   -2.231555283e-01    1.453235149e-01
     5124000000   -2.615962923e-01    1.264794022e-01
     5127000000   -2.874497473e-01    9.221210331e-02
     5130000000   -2.788138688e-01    5.586737767e-02
     5133000000   -2.544602454e-01    1.781198755e-02
     5136000000   -1.969344020e-01   -4.363688175e-03
     5139000000   -1.263370812e-01   -1.801306196e-02
     5142000000   -4.176717252e-02   -1.231652126e-02
     5145000000    4.173574224e-02    1.361539215e-02
     5148000000    1.155894250e-01    4.978324100e-02
     5151000000    1.721054912e-01    9.977829456e-02
     5154000000    2.010061145e-01    1.532732546e-01
     5157000000    2.090446204e-01    2.034207880e-01
     5160000000    1.929832548e-01    2.436736822e-01
     5163000000    1.605315804e-01    2.649823427e-01
     5166000000    1.179785803e-01    2.594842315e-01
     5169000000    7.266896218e-02    2.288252860e-01
     5172000000    3.071595356e-02    1.754642725e-01
     5175000000    2.598611871e-03    9.419871122e-02
     5178000000   -1.138256770e-02    7.107066922e-03
     5181000000   -1.651608944e-02   -8.211907744e-02
     5184000000    3.448946169e-03   -1.623615324e-01
     5187000000    3.616980091e-02   -2.301327139e-01
     5190000000    7.990963012e-02   -2.636971176e-01
     5193000000    1.232483834e-01   -2.821582556e-01
     5196000000    1.643063426e-01   -2.752554119e-01
     5199000000    1.776032448e-01   -2.414426655e-01
     5202000000    1.857821047e-01   -1.951516271e-01
     5205000000    1.549078226e-01   -1.419265121e-01
     5208000000    9.940008074e-02   -8.785485476e-02
     5211000000    3.955808654e-02   -2.916031331e-02
     5214000000   -4.409164190e-02    1.069518179e-02
     5217000000   -1.302168220e-01    2.858225442e-02
     5220000000   -2.105714530e-01    3.387754038e-02
     5223000000   -2.714776397e-01    1.357012428e-02
     5226000000   -3.102948368e-01   -1.958158053e-02
     5229000000   -3.235690594e-01   -5.489731207e-02
     5232000000   -3.109950423e-01   -8.961067349e-02
     5235000000   -2.798753679e-01   -1.148704439e-01
     5238000000   -2.247733623e-01   -1.250563860e-01
     5241000000   -1.544542760e-01   -1.037743092e-01
     5244000000   -7.844292372e-02   -6.964021921e-02
     5247000000   -6.531838793e-03   -6.456128787e-03
     5250000000    5.570953339e-02    6.355706602e-02
     5253000000    9.780327976e-02    1.398479491e-01
     5256000000    1.121292859e-01    2.099171281e-01
     5259000000    1.089562550e-01    2.779781520e-01
     5262000000    8.106710762e-02    3.130544722e-01
     5265000000    4.153608158e-02    3.363304734e-01
     5268000000    4.960233346e-03    3.267161250e-01
     5271000000   -1.923154853e-02    2.825236320e-01
     5274000000   -3.583690897e-02    2.245067954e-01
     5277000000   -5.358905345e-02    1.502985656e-01
     5280000000   -2.794334106e-02    5.980997905e-02
     5283000000    1.361902151e-02   -2.855806239e-02
     5286000000    6.460707635e-02   -1.069418639e-01
     5289000000    1.258987188e-01   -1.566119790e-01
     5292000000    1.908740401e-01   -1.939304024e-01
     5295000000    2.483180612e-01   -1.963410079e-01
     5298000000    2.872014642e-01   -1.787120402e-01
     5301000000    3.068714440e-01   -1.453767717e-01
     5304000000    2.986615002e-01   -1.034439504e-01
     5307000000    2.662335038e-01   -6.309578568e-02
     5310000000    2.023205012e-01   -2.982621640e-02
     5313000000    1.153402627e-01   -1.035306323e-02
     5316000000    1.873780042e-02   -8.263491094e-03
     5319000000   -7.715523243e-02   -2.386122569e-02
     5322000000   -1.613020599e-01   -5.494567379e-02
     5325000000   -2.276675850e-01   -1.007321700e-01
     5328000000   -2.680925131e-01   -1.556278020e-01
     5331000000   -2.780037522e-01   -2.044865638e-01
     5334000000   -2.659257352e-01   -2.508901060e-01
     5337000000   -2.323091924e-01   -2.746760249e-01
     5340000000   -1.861789376e-01   -2.693537176e-01
     5343000000   -1.385100782e-01   -2.332766652e-01
     5346000000   -8.442346752e-02   -1.757889241e-01
     5349000000   -4.799906909e-02   -8.805552125e-02
     5352000000   -2.273185365e-02    9.542127140e-03
     5355000000   -1.176194102e-02    1.096843779e-01
     5358000000   -2.569457889e-02    2.019494176e-01
     5361000000   -5.670836195e-02    2.730015814e-01
     5364000000   -9.596177191e-02    3.162105381e-01
     5367000000   -1.388105154e-01    3.250532746e-01
     5370000000   -1.828294843e-01    3.209343851e-01
     5373000000   -2.463787496e-01    2.890370488e-01
     5376000000   -2.208101302e-01    2.445403337e-01
     5379000000   -2.080010474e-01    1.752780676e-01
     5382000000   -1.465997845e-01    1.095198914e-01
     5385000000   -7.179810107e-02    4.335596785e-02
     5388000000    1.569601335e-02   -2.969876491e-02
     5391000000    1.114092544e-01   -4.636480659e-02
     5394000000    2.008643895e-01   -5.747055262e-02
     5397000000    2.710876763e-01   -4.404893890e-02
     5400000000    3.219252527e-01   -1.712937467e-02
     5403000000    3.719469011e-01    3.869308904e-02
     5406000000    3.496106863e-01    6.263876706e-02
     5409000000    3.206721842e-01    9.556528926e-02
     5412000000    2.655165792e-01    1.160032675e-01
     5415000000    1.984903067e-01    8.515590429e-02
     5418000000    1.086824909e-01    5.731233582e-02
     5421000000    1.747501642e-02    4.250126891e-03
     5424000000   -4.798465595e-02   -6.950744987e-02
     5427000000   -1.051870808e-01   -1.526295096e-01
     5430000000   -1.311801523e-01   -2.337528765e-01
     5433000000   -1.312388927e-01   -2.889538407e-01
     5436000000   -1.066802964e-01   -3.509154618e-01
     5439000000   -8.663044125e-02   -3.564538658e-01
     5442000000   -2.746298909e-02   -3.718026876e-01
     5445000000    6.125549320e-03   -3.389189839e-01
     5448000000    3.337704390e-02   -2.786000371e-01
     5451000000    3.943789378e-02   -1.943417788e-01
     5454000000    2.406465262e-02   -9.707270563e-02
     5457000000   -1.448517665e-02    4.779784940e-03
     5460000000   -6.749943644e-02    9.308967739e-02
     5463000000   -1.366559565e-01    1.701928973e-01
     5466000000   -1.936300695e-01    2.080689073e-01
     5469000000   -2.639219165e-01    2.232895494e-01
     5472000000   -3.102566898e-01    2.160755247e-01
     5475000000   -3.650387824e-01    1.679135561e-01
     5478000000   -3.486427963e-01    1.407448351e-01
     5481000000   -3.275054693e-01    8.557200432e-02
     5484000000   -2.707572877e-01    4.040188715e-02
     5487000000   -1.861163676e-01    3.334939107e-02
     5490000000   -8.235288411e-02    1.188415382e-02
     5493000000    1.918199472e-02    2.599346451e-02
     5496000000    1.140216142e-01    4.989191890e-02
     5499000000    2.053385377e-01    9.550355375e-02
     5502000000    2.635569274e-01    1.554821581e-01
     5505000000    2.840731144e-01    1.896678656e-01
     5508000000    2.856740355e-01    2.474170029e-01
     5511000000    2.569271028e-01    2.810930014e-01
     5514000000    2.242979705e-01    2.743811309e-01
     5517000000    1.701101512e-01    2.572534680e-01
     5520000000    1.122924387e-01    2.045850903e-01
     5523000000    7.058373839e-02    1.209811792e-01
     5526000000    3.526685387e-02    2.068906464e-02
     5529000000    2.351680025e-02   -7.646807283e-02
     5532000000    2.282571606e-02   -1.774354130e-01
     5535000000    5.208114162e-02   -2.734099627e-01
     5538000000    6.742396206e-02   -3.168111145e-01
     5541000000    1.424113810e-01   -3.565483689e-01
     5544000000    1.663535386e-01   -3.555508256e-01
     5547000000    1.882701963e-01   -3.367367089e-01
     5550000000    2.158300579e-01   -2.823216617e-01
     5553000000    1.937043816e-01   -2.215213180e-01
     5556000000    1.427249908e-01   -1.577104777e-01
     5559000000    6.749144942e-02   -9.595691413e-02
     5562000000   -2.579284273e-02   -3.368841112e-02
     5565000000   -1.202843636e-01    1.304141595e-03
     5568000000   -2.121244818e-01    2.038609795e-02
     5571000000   -2.869365811e-01    2.146921679e-02
     5574000000   -3.535603583e-01   -7.500983309e-03
     5577000000   -3.855710030e-01   -4.759719968e-02
     5580000000   -3.901927471e-01   -1.045616195e-01
     5583000000   -3.645588160e-01   -1.260663271e-01
     5586000000   -3.148733377e-01   -1.322401911e-01
     5589000000   -2.381414920e-01   -1.329254210e-01
     5592000000   -1.599764526e-01   -9.459511191e-02
     5595000000   -7.329353690e-02   -3.373972327e-02
     5598000000    7.569527719e-03    4.152056575e-02
     5601000000    7.264660299e-02    1.260742843e-01
     5604000000    1.126269624e-01    2.098168731e-01
     5607000000    1.211637557e-01    2.986577749e-01
     5610000000    1.053512096e-01    3.565801680e-01
     5613000000    8.733008802e-02    3.853800595e-01
     5616000000    3.225097060e-02    3.982699811e-01
     5619000000    1.152310520e-02    3.725910187e-01
     5622000000   -2.556623705e-02    3.213819265e-01
     5625000000   -3.163237125e-02    2.451154888e-01
     5628000000   -2.494552545e-02    1.481138468e-01
     5631000000    1.066723373e-02    4.142583162e-02
     5634000000    6.100409850e-02   -4.852733016e-02
     5637000000    1.180605143e-01   -1.253027916e-01
     5640000000    1.857236028e-01   -1.834610701e-01
     5643000000    2.459921539e-01   -2.151523381e-01
     5646000000    2.936998904e-01   -2.185886949e-01
     5649000000    3.389707208e-01   -1.835672408e-01
     5652000000    3.406117260e-01   -1.584098488e-01
     5655000000    3.181008697e-01   -1.149552539e-01
     5658000000    2.629631460e-01   -5.968512967e-02
     5661000000    1.824164987e-01   -4.516231641e-02
     5664000000    8.852698654e-02   -4.102933407e-02
     5667000000   -1.520857122e-02   -4.421056062e-02
     5670000000   -1.277776361e-01   -7.273761183e-02
     5673000000   -2.087462693e-01   -1.107085571e-01
     5676000000   -2.680878937e-01   -1.531976610e-01
     5679000000   -2.986720800e-01   -2.049115300e-01
     5682000000   -2.930240631e-01   -2.669209540e-01
     5685000000   -2.723139822e-01   -2.932905555e-01
     5688000000   -2.350985855e-01   -3.015248477e-01
     5691000000   -1.837160587e-01   -2.805538476e-01
     5694000000   -1.301200390e-01   -2.346331924e-01
     5697000000   -6.995289028e-02   -1.492127329e-01
     5700000000   -4.257421568e-02   -5.426681414e-02
     5703000000   -2.076586522e-02    4.101803526e-02
     5706000000   -2.189252526e-02    1.629498154e-01
     5709000000   -3.619363159e-02    2.484318316e-01
     5712000000   -6.302482635e-02    3.113516271e-01
     5715000000   -1.123137549e-01    3.485845029e-01
     5718000000   -1.559499651e-01    3.557466567e-01
     5721000000   -1.893063784e-01    3.346718848e-01
     5724000000   -1.999991089e-01    2.936070263e-01
     5727000000   -1.882589757e-01    2.253686786e-01
     5730000000   -1.426402628e-01    1.612801999e-01
     5733000000   -7.301475108e-02    9.015746415e-02
     5736000000    1.013643574e-02    3.142705187e-02
     5739000000    1.157474443e-01   -2.159557305e-02
     5742000000    2.099659890e-01   -4.844402522e-02
     5745000000    2.956327200e-01   -4.841946438e-02
     5748000000    3.610413671e-01   -2.272051014e-02
     5751000000    3.962603807e-01   -3.091679187e-03
     5754000000    3.997120559e-01    6.933238357e-02
     5757000000    3.909840286e-01    8.006487042e-02
     5760000000    3.167018294e-01    1.313986033e-01
     5763000000    2.774877250e-01    1.086248532e-01
     5766000000    1.650907099e-01    8.653286099e-02
     5769000000    9.364119917e-02    4.118888453e-02
     5772000000   -2.252005273e-03   -3.596061096e-02
     5775000000   -7.636027783e-02   -1.086602956e-01
     5778000000   -1.314072311e-01   -1.935946792e-01
     5781000000   -1.469357610e-01   -2.793585956e-01
     5784000000   -1.382414699e-01   -3.424057662e-01
     5787000000   -1.167584360e-01   -3.787847459e-01
     5790000000   -7.841943949e-02   -3.924480081e-01
     5793000000   -4.093256593e-02   -3.764443994e-01
     5796000000   -1.063036080e-02   -3.323048651e-01
     5799000000    6.919362582e-03   -2.586113811e-01
     5802000000   -1.256999676e-03   -1.640610248e-01
     5805000000   -2.574023418e-02   -7.140095532e-02
     5808000000   -7.043649256e-02    3.357140347e-02
     5811000000   -1.290104687e-01    1.189306378e-01
     5814000000   -1.936876774e-01    1.783334315e-01
     5817000000   -2.622431815e-01    2.054607421e-01
     5820000000   -3.126648962e-01    2.158304006e-01
     5823000000   -3.539084792e-01    1.937584579e-01
     5826000000   -3.639464974e-01    1.496215761e-01
     5829000000   -3.453555703e-01    9.990735352e-02
     5832000000   -2.959926128e-01    5.536739156e-02
     5835000000   -2.354157269e-01    3.699201718e-02
     5838000000   -1.338988841e-01    1.777979359e-02
     5841000000   -1.411384065e-02    2.189787291e-02
     5844000000    9.118131548e-02    3.758871555e-02
     5847000000    1.882920861e-01    6.931592524e-02
     5850000000    2.594565749e-01    1.239828542e-01
     5853000000    3.007607162e-01    1.787502319e-01
     5856000000    3.086360097e-01    2.312071025e-01
     5859000000    2.902085483e-01    2.711098194e-01
     5862000000    2.475107163e-01    2.901688218e-01
     5865000000    2.007669508e-01    2.806916833e-01
     5868000000    1.407863945e-01    2.410950661e-01
     5871000000    8.578634262e-02    1.682186127e-01
     5874000000    4.569927230e-02    8.540424705e-02
     5877000000    1.448655128e-02   -2.660529502e-02
     5880000000    4.940330051e-03   -1.387004554e-01
     5883000000    1.921071298e-02   -2.361847311e-01
     5886000000    6.281094998e-02   -3.070072234e-01
     5889000000    9.192951769e-02   -3.519825041e-01
     5892000000    1.458003521e-01   -3.603603542e-01
     5895000000    1.757033914e-01   -3.552936614e-01
     5898000000    1.967561096e-01   -3.235898018e-01
     5901000000    2.006057799e-01   -2.484453768e-01
     5904000000    1.763698906e-01   -1.921107620e-01
     5907000000    1.072803065e-01   -1.051935777e-01
     5910000000    4.450226575e-02   -3.974793851e-02
     5913000000   -6.895348430e-02    1.532698236e-02
     5916000000   -1.604600102e-01    6.002231315e-02
     5919000000   -2.585395873e-01    6.100494415e-02
     5922000000   -3.294224143e-01    3.737147525e-02
     5925000000   -3.763174415e-01    1.992087252e-02
     5928000000   -3.924677074e-01   -2.075701207e-02
     5931000000   -3.822917342e-01   -6.001746655e-02
     5934000000   -3.417335153e-01   -9.656009078e-02
     5937000000   -2.793323100e-01   -1.063540205e-01
     5940000000   -1.939325631e-01   -8.640956134e-02
     5943000000   -1.111674830e-01   -5.345375091e-02
     5946000000   -1.973737404e-02    1.678796858e-02
     5949000000    5.659896508e-02    1.004760563e-01
     5952000000    1.091199666e-01    1.853955537e-01
     5955000000    1.349101961e-01    2.661006451e-01
     5958000000    1.337434649e-01    3.358531594e-01
     5961000000    1.108087376e-01    3.843027651e-01
     5964000000    8.104645461e-02    4.140401483e-01
     5967000000    1.876044087e-03    3.854043186e-01
     5970000000   -2.255937830e-02    3.705898821e-01
     5973000000   -5.711079016e-02    2.853012979e-01
     5976000000   -6.832318008e-02    2.119220644e-01
     5979000000   -4.574617743e-02    1.010364816e-01
     5982000000   -1.129507925e-02   -6.331727374e-03
     5985000000    4.615747184e-02   -1.092122495e-01
     5988000000    1.231967062e-01   -1.807292700e-01
     5991000000    1.947174966e-01   -2.267567068e-01
     5994000000    2.562078834e-01   -2.482758611e-01
     5997000000    3.107009530e-01   -2.362417132e-01
     6000000000    3.376717567e-01   -2.072657943e-01
