! NanoVNA-App
! Date: 2026-05-25 01:59:28
! Start: 2.3GHz Stop: 2.6GHz Points: 401
! S-Parameter data: F S11
# Hz S RI R 50
!     Frequency           S11_Real           S11_Imag
     2300000000    5.006984472e-01   -2.247018814e-01
     2300750000    5.210468769e-01   -1.754054129e-01
     2301500000    5.353162289e-01   -1.263874918e-01
     2302250000    5.447478294e-01   -7.693309337e-02
     2303000000    5.499691367e-01   -2.468410321e-02
     2303750000    5.500112176e-01    2.532099746e-02
     2304500000    5.451784730e-01    7.871150225e-02
     2305250000    5.353950858e-01    1.292644441e-01
     2306000000    5.234746933e-01    1.736513376e-01
     2306750000    5.012704134e-01    2.282903939e-01
     2307500000    4.776842892e-01    2.743000388e-01
              0    1.582258940e-01    1.019759178e-01
              0    1.578276157e-01    1.026565656e-01
              0    1.577159017e-01    1.030668616e-01
              0    1.578017920e-01    1.031709611e-01
              0    1.573183537e-01    1.039381847e-01
     2312000000    2.563789487e-01    4.864268899e-01
     2312750000    2.109861970e-01    5.077820420e-01
     2313500000    1.619695276e-01    5.253784060e-01
     2314250000    1.136964485e-01    5.379990339e-01
     2315000000    6.071224436e-02    5.467485785e-01
     2315750000    9.015364572e-03    5.497995615e-01
     2316500000   -4.013225436e-02    5.485884547e-01
     2317250000   -9.644370526e-02    5.408811569e-01
     2318000000   -1.479536146e-01    5.295531750e-01
     2318750000   -1.963791996e-01    5.137143731e-01
     2319500000   -2.436600775e-01    4.938346446e-01
     2320250000   -2.891574204e-01    4.690733552e-01
     2321000000   -3.317638040e-01    4.411974847e-01
     2321750000   -3.713698089e-01    4.089478552e-01
     2322500000   -4.114021361e-01    3.678442240e-01
     2323250000   -4.421480894e-01    3.304920197e-01
     2324000000   -4.712186754e-01    2.906044424e-01
     2324750000   -4.977642298e-01    2.400148213e-01
     2325500000   -5.177485943e-01    1.972962618e-01
     2326250000   -5.361039639e-01    1.413510889e-01
     2327000000   -5.465304852e-01    8.970392495e-02
     2327750000   -5.532122850e-01    4.808076844e-02
     2328500000   -5.537208915e-01   -1.224827301e-02
     2329250000   -5.525750518e-01   -5.766172335e-02
     2330000000   -5.427088141e-01   -1.156956553e-01
     2330750000   -5.311939120e-01   -1.622618586e-01
     2331500000   -5.158410072e-01   -2.074050307e-01
     2332250000   -4.882023931e-01   -2.627904415e-01
     2333000000   -4.668641090e-01   -3.003853559e-01
     2333750000   -4.330324233e-01   -3.455546796e-01
     2334500000   -3.995842636e-01   -3.840324283e-01
     2335250000   -3.644850254e-01   -4.176186323e-01
     2336000000   -3.204576969e-01   -4.518639743e-01
     2336750000   -2.783109546e-01   -4.787683189e-01
     2337500000   -2.306446433e-01   -5.030642748e-01
     2338250000   -1.827956885e-01   -5.223067999e-01
     2339000000   -1.317335367e-01   -5.369938016e-01
     2339750000   -8.030576259e-02   -5.465590954e-01
     2340500000   -3.174532950e-02   -5.520642996e-01
     2341250000    2.362371236e-02   -5.518112183e-01
     2342000000    7.433881611e-02   -5.471234918e-01
     2342750000    1.250833571e-01   -5.379992723e-01
     2343500000    1.784024537e-01   -5.219013691e-01
     2344250000    2.240017802e-01   -5.044494867e-01
     2345000000    2.718462646e-01   -4.798387885e-01
     2345750000    3.148255050e-01   -4.527848363e-01
     2346500000    3.591319025e-01   -4.187662899e-01
     2347250000    3.947310746e-01   -3.851875961e-01
     2348000000    4.304419756e-01   -3.445907235e-01
     2348750000    4.610528648e-01   -3.020943105e-01
     2349500000    4.875839353e-01   -2.587825656e-01
     2350250000    5.110753775e-01   -2.070680857e-01
     2351000000    5.280091166e-01   -1.654847711e-01
     2351750000    5.409003496e-01   -1.104844883e-01
     2352500000    5.487096310e-01   -5.757035315e-02
     2353250000    5.527473092e-01   -4.557926673e-03
     2354000000    5.513387322e-01    4.657373205e-02
     2354750000    5.446394682e-01    9.921748191e-02
     2355500000    5.343090892e-01    1.487865597e-01
     2356250000    5.177268386e-01    1.985505521e-01
     2357000000    4.965271354e-01    2.459726483e-01
     2357750000    4.735939801e-01    2.898738086e-01
     2358500000    4.430343509e-01    3.356746137e-01
     2359250000    4.073296189e-01    3.764810562e-01
     2360000000    3.749300838e-01    4.105114341e-01
     2360750000    3.324281275e-01    4.456351399e-01
     2361500000    2.896625698e-01    4.740448892e-01
     2362250000    2.455037087e-01    4.987093508e-01
     2363000000    1.907816529e-01    5.210266113e-01
     2363750000    1.427101344e-01    5.356817842e-01
     2364500000    9.341743588e-02    5.469021201e-01
     2365250000    4.156755656e-02    5.532148480e-01
     2366000000   -1.058353111e-02    5.547335148e-01
     2366750000   -6.237403676e-02    5.511912107e-01
     2367500000   -1.163078994e-01    5.419887304e-01
     2368250000   -1.627841443e-01    5.307295918e-01
     2369000000   -2.144816667e-01    5.110980272e-01
     2369750000   -2.634049356e-01    4.878239930e-01
     2370500000   -3.084394932e-01    4.609853625e-01
     2371250000   -3.496491611e-01    4.311954677e-01
     2372000000   -3.899303973e-01    3.951638937e-01
     2372750000   -4.264399409e-01    3.572121859e-01
     2373500000   -4.595467448e-01    3.116698861e-01
     2374250000   -4.855031371e-01    2.708846331e-01
     2375000000   -5.109871626e-01    2.178120166e-01
     2375750000   -5.283548236e-01    1.737284362e-01
     2376500000   -5.436844230e-01    1.234890446e-01
     2377250000   -5.536551476e-01    7.062625885e-02
     2378000000   -5.574613214e-01    1.170854084e-02
     2378750000   -5.574694276e-01   -3.841546178e-02
     2379500000   -5.521808863e-01   -9.174060076e-02
     2380250000   -5.448337793e-01   -1.362265348e-01
     2381000000   -5.283241272e-01   -1.913312525e-01
     2381750000   -5.054603815e-01   -2.451827377e-01
     2382500000   -4.833155274e-01   -2.883964777e-01
     2383250000   -4.562511444e-01   -3.323532343e-01
     2384000000   -4.195249379e-01   -3.772853911e-01
     2384750000   -3.831853867e-01   -4.146906734e-01
     2385500000   -3.456592262e-01   -4.487963021e-01
     2386250000   -3.054076731e-01   -4.786457121e-01
     2387000000   -2.592172623e-01   -5.058215261e-01
     2387750000   -2.038729489e-01   -5.297821164e-01
     2388500000   -1.549845189e-01   -5.474999547e-01
     2389250000   -1.066958606e-01   -5.597811341e-01
     2390000000   -5.332411826e-02   -5.678412914e-01
     2390750000    1.968653174e-03   -5.708749890e-01
     2391500000    5.546113849e-02   -5.689206123e-01
     2392250000    1.069401875e-01   -5.623123050e-01
     2393000000    1.629220545e-01   -5.490365624e-01
     2393750000    2.115391046e-01   -5.331856012e-01
     2394500000    2.607302964e-01   -5.108711720e-01
     2395250000    3.085948825e-01   -4.839597940e-01
     2396000000    3.512874544e-01   -4.547785521e-01
     2396750000    3.941927254e-01   -4.184225798e-01
     2397500000    4.311421216e-01   -3.805455863e-01
     2398250000    4.649910629e-01   -3.388604820e-01
     2399000000    4.952825904e-01   -2.936352491e-01
     2399750000    5.205738544e-01   -2.464856505e-01
     2400500000    5.423648953e-01   -1.956726164e-01
     2401250000    5.579364896e-01   -1.476588398e-01
     2402000000    5.697251558e-01   -9.187948704e-02
     2402750000    5.762709379e-01   -3.619684279e-02
     2403500000    5.782420039e-01    1.522691734e-02
     2404250000    5.737403631e-01    7.046288252e-02
     2405000000    5.636799932e-01    1.281253546e-01
     2405750000    5.515694618e-01    1.774330735e-01
     2406500000    5.334289074e-01    2.281025350e-01
     2407250000    5.084879398e-01    2.792329192e-01
     2408000000    4.810185134e-01    3.255617917e-01
     2408750000    4.493755400e-01    3.689682484e-01
     2409500000    4.110857844e-01    4.109918177e-01
     2410250000    3.718429208e-01    4.476587772e-01
     2411000000    3.298072815e-01    4.811505973e-01
     2411750000    2.825680971e-01    5.112202168e-01
     2412500000    2.314021736e-01    5.367440581e-01
     2413250000    1.828669608e-01    5.560064316e-01
     2414000000    1.279227436e-01    5.716688633e-01
     2414750000    7.432323694e-02    5.821862221e-01
     2415500000    1.875245571e-02    5.870184898e-01
     2416250000   -3.603803366e-02    5.875284672e-01
     2417000000   -9.321229160e-02    5.816831589e-01
     2417750000   -1.463093162e-01    5.716690421e-01
     2418500000   -1.997955441e-01    5.563008189e-01
     2419250000   -2.510497868e-01    5.364064574e-01
     2420000000   -2.983195186e-01    5.126531124e-01
     2420750000   -3.481526971e-01    4.815258980e-01
     2421500000   -3.913256526e-01    4.490446746e-01
     2422250000   -4.319173396e-01    4.106147289e-01
     2423000000   -4.692322910e-01    3.695193827e-01
     2423750000   -5.027868152e-01    3.234670758e-01
     2424500000   -5.311952233e-01    2.763868570e-01
     2425250000   -5.568996668e-01    2.229116708e-01
     2426000000   -5.756816864e-01    1.743507683e-01
     2426750000   -5.903976560e-01    1.175796464e-01
     2427500000   -5.995525718e-01    6.643015146e-02
     2428250000   -6.030272245e-01    5.752586294e-03
     2429000000   -6.019395590e-01   -4.915708303e-02
     2429750000   -5.963904858e-01   -1.040249243e-01
     2430500000   -5.859398246e-01   -1.567988992e-01
     2431250000   -5.671927333e-01   -2.140751332e-01
     2432000000   -5.467062593e-01   -2.647247910e-01
     2432750000   -5.186637640e-01   -3.161902428e-01
     2433500000   -4.889316857e-01   -3.621036112e-01
     2434250000   -4.553267360e-01   -4.045881033e-01
     2435000000   -4.166546166e-01   -4.452027082e-01
     2435750000   -3.682282567e-01   -4.853381515e-01
     2436500000   -3.296951652e-01   -5.148110390e-01
     2437250000   -2.744740546e-01   -5.454370379e-01
     2438000000   -2.286037207e-01   -5.673843622e-01
     2438750000   -1.681946814e-01   -5.868325233e-01
     2439500000   -1.179241389e-01   -6.005207300e-01
     2440250000   -6.116374210e-02   -6.091238856e-01
     2441000000   -9.583417559e-04   -6.119056940e-01
     2441750000    4.968176037e-02   -6.110714078e-01
     2442500000    1.082455590e-01   -6.035115719e-01
     2443250000    1.648702174e-01   -5.910555720e-01
     2444000000    2.213372290e-01   -5.717055798e-01
     2444750000    2.754738927e-01   -5.480341315e-01
     2445500000    3.208209872e-01   -5.244304538e-01
     2446250000    3.691239953e-01   -4.908049703e-01
     2447000000    4.146473110e-01   -4.535404742e-01
     2447750000    4.547422826e-01   -4.151268303e-01
     2448500000    4.933426082e-01   -3.676848114e-01
     2449250000    5.247980952e-01   -3.235634565e-01
     2450000000    5.533503890e-01   -2.707214952e-01
     2450750000    5.759660602e-01   -2.197572142e-01
     2451500000    5.943319201e-01   -1.656390727e-01
     2452250000    6.075404882e-01   -1.097287983e-01
     2453000000    6.158312559e-01   -5.680442974e-02
     2453750000    6.181195974e-01    3.422371112e-03
     2454500000    6.154349446e-01    6.044510007e-02
     2455250000    6.076877713e-01    1.176924556e-01
     2456000000    5.927849412e-01    1.775123328e-01
     2456750000    5.748910904e-01    2.310772389e-01
     2457500000    5.526147485e-01    2.811004817e-01
     2458250000    5.237835050e-01    3.318066895e-01
     2459000000    4.911223948e-01    3.801996112e-01
     2459750000    4.522472620e-01    4.254819751e-01
     2460500000    4.099947810e-01    4.668363333e-01
     2461250000    3.713642359e-01    4.998929501e-01
     2462000000    3.179603219e-01    5.350047350e-01
     2462750000    2.650863826e-01    5.627512336e-01
     2463500000    2.173231989e-01    5.841659904e-01
     2464250000    1.633437127e-01    6.023820043e-01
     2465000000    1.014799625e-01    6.150479317e-01
     2465750000    4.545564577e-02    6.229827404e-01
     2466500000   -8.185053244e-03    6.253983378e-01
     2467250000   -7.246145606e-02    6.202473044e-01
     2468000000   -1.240155399e-01    6.134347916e-01
     2468750000   -1.851900667e-01    5.967811942e-01
     2469500000   -2.388690263e-01    5.781079531e-01
     2470250000   -2.886791229e-01    5.557161570e-01
     2471000000   -3.385937214e-01    5.269443989e-01
     2471750000   -3.835561872e-01    4.960646629e-01
     2472500000   -4.299745560e-01    4.551515877e-01
     2473250000   -4.724811912e-01    4.099294245e-01
     2474000000   -5.079996586e-01    3.648243845e-01
     2474750000   -5.389983058e-01    3.177991509e-01
     2475500000   -5.650584698e-01    2.691287398e-01
     2476250000   -5.875436664e-01    2.113258392e-01
     2477000000   -6.041910648e-01    1.591710746e-01
     2477750000   -6.165192723e-01    9.960220009e-02
     2478500000   -6.228289604e-01    4.134501517e-02
     2479250000   -6.238411069e-01   -1.594914496e-02
     2480000000   -6.200216413e-01   -7.446020097e-02
     2480750000   -6.093649268e-01   -1.344019026e-01
     2481500000   -5.947174430e-01   -1.900940239e-01
     2482250000   -5.749083161e-01   -2.446541786e-01
     2483000000   -5.502836108e-01   -2.961261272e-01
     2483750000   -5.198778510e-01   -3.469280005e-01
     2484500000   -4.855743647e-01   -3.946950138e-01
     2485250000   -4.474524260e-01   -4.371606708e-01
     2486000000   -4.061952829e-01   -4.766744673e-01
     2486750000   -3.594408333e-01   -5.132289529e-01
     2487500000   -3.102222681e-01   -5.446769595e-01
     2488250000   -2.558379769e-01   -5.721514821e-01
     2489000000   -2.033704519e-01   -5.931497812e-01
     2489750000   -1.466657817e-01   -6.102219820e-01
     2490500000   -8.934359252e-02   -6.210378408e-01
     2491250000   -3.435716778e-02   -6.273781061e-01
     2492000000    2.585607767e-02   -6.284841299e-01
     2492750000    8.488877863e-02   -6.220779419e-01
     2493500000    1.412277222e-01   -6.129760742e-01
     2494250000    2.011136264e-01   -5.952247977e-01
     2495000000    2.521389127e-01   -5.768319964e-01
     2495750000    3.047609031e-01   -5.503533483e-01
     2496500000    3.586394489e-01   -5.170086622e-01
     2497250000    4.022581577e-01   -4.845177233e-01
     2498000000    4.447273016e-01   -4.458122551e-01
     2498750000    4.859338701e-01   -4.009914994e-01
     2499500000    5.205642581e-01   -3.545500636e-01
     2500250000    5.525404215e-01   -3.021014929e-01
     2501000000    5.772789717e-01   -2.525356710e-01
     2501750000    5.980926752e-01   -1.976601183e-01
     2502500000    6.144278646e-01   -1.466498673e-01
     2503250000    6.245718002e-01   -8.432304114e-02
     2504000000    6.292721033e-01   -2.254291251e-02
     2504750000    6.302935481e-01    3.100021370e-02
     2505500000    6.250534058e-01    8.750828356e-02
     2506250000    6.114249229e-01    1.497343034e-01
     2507000000    5.944921374e-01    2.082681209e-01
     2507750000    5.747092962e-01    2.588534951e-01
     2508500000    5.492565632e-01    3.099443614e-01
     2509250000    5.158597827e-01    3.626629710e-01
     2510000000    4.784738123e-01    4.094136059e-01
     2510750000    4.375056624e-01    4.537693858e-01
     2511500000    3.955622315e-01    4.917110503e-01
     2512250000    3.481640518e-01    5.261555910e-01
     2513000000    2.994421124e-01    5.556726456e-01
     2513750000    2.410390526e-01    5.826936364e-01
     2514500000    1.905122697e-01    6.031660438e-01
     2515250000    1.302521676e-01    6.184456944e-01
     2516000000    7.351068407e-02    6.284307837e-01
     2516750000    1.537225116e-02    6.326152086e-01
     2517500000   -4.236733168e-02    6.320210099e-01
     2518250000   -1.014908478e-01    6.261420250e-01
     2519000000   -1.556944847e-01    6.161594987e-01
     2519750000   -2.170317918e-01    5.966275930e-01
     2520500000   -2.724731266e-01    5.736186504e-01
     2521250000   -3.210120499e-01    5.489467382e-01
     2522000000   -3.730060160e-01    5.145705342e-01
     2522750000   -4.179970622e-01    4.788403809e-01
     2523500000   -4.608772397e-01    4.380064309e-01
     2524250000   -4.990621209e-01    3.937224448e-01
     2525000000   -5.338903069e-01    3.448169529e-01
     2525750000   -5.636248589e-01    2.944339812e-01
     2526500000   -5.883727670e-01    2.424454242e-01
     2527250000   -6.083522439e-01    1.855992377e-01
     2528000000   -6.231466532e-01    1.291218996e-01
     2528750000   -6.323060989e-01    6.939424574e-02
     2529500000   -6.362279654e-01    9.968321770e-03
     2530250000   -6.350519061e-01   -4.689678922e-02
     2531000000   -6.277829409e-01   -1.066637486e-01
     2531750000   -6.153222919e-01   -1.647004038e-01
     2532500000   -5.976657271e-01   -2.211907506e-01
     2533250000   -5.730662942e-01   -2.777247131e-01
     2534000000   -5.465299487e-01   -3.284926414e-01
     2534750000   -5.129981637e-01   -3.781457841e-01
     2535500000   -4.754137695e-01   -4.245564044e-01
     2536250000   -4.358011186e-01   -4.660028815e-01
     2537000000   -3.902316689e-01   -5.045526624e-01
     2537750000   -3.446788490e-01   -5.371295810e-01
     2538500000   -2.913279831e-01   -5.676288009e-01
     2539250000   -2.380139083e-01   -5.917444229e-01
     2540000000   -1.825129390e-01   -6.117121577e-01
     2540750000   -1.240160167e-01   -6.255750656e-01
     2541500000   -6.499376148e-02   -6.345235705e-01
     2542250000   -5.813309923e-03   -6.373298764e-01
     2543000000    5.384302884e-02   -6.349756122e-01
     2543750000    1.105145514e-01   -6.283115149e-01
     2544500000    1.689828038e-01   -6.144044399e-01
     2545250000    2.273363024e-01   -5.953351259e-01
     2546000000    2.797433734e-01   -5.727512836e-01
     2546750000    3.319028616e-01   -5.448724627e-01
     2547500000    3.828102052e-01   -5.094195604e-01
     2548250000    4.283614159e-01   -4.737215042e-01
     2549000000    4.703065753e-01   -4.306169152e-01
     2549750000    5.095146894e-01   -3.858238161e-01
     2550500000    5.404255390e-01   -3.409890532e-01
     2551250000    5.729566813e-01   -2.811371684e-01
     2552000000    5.940431952e-01   -2.360899448e-01
     2552750000    6.139962077e-01   -1.787472814e-01
     2553500000    6.273910999e-01   -1.167330742e-01
     2554250000    6.362812519e-01   -5.877735838e-02
     2555000000    6.400275826e-01   -2.961456077e-03
     2555750000    6.370512247e-01    5.825452507e-02
     2556500000    6.270073056e-01    1.208077446e-01
     2557250000    6.163116693e-01    1.723070145e-01
     2558000000    5.944469571e-01    2.337377518e-01
     2558750000    5.746481419e-01    2.813408375e-01
     2559500000    5.423269868e-01    3.382605910e-01
     2560250000    5.080360174e-01    3.875342607e-01
     2561000000    4.731765091e-01    4.302774668e-01
     2561750000    4.316757917e-01    4.728755951e-01
     2562500000    3.852943778e-01    5.109708309e-01
     2563250000    3.319558203e-01    5.450134873e-01
     2564000000    2.861666977e-01    5.725647211e-01
     2564750000    2.253870368e-01    5.969859362e-01
     2565500000    1.732689291e-01    6.159389615e-01
     2566250000    1.140245274e-01    6.284701824e-01
     2567000000    5.738117546e-02    6.375057101e-01
     2567750000   -1.067435602e-03    6.398838162e-01
     2568500000   -6.215391681e-02    6.366534829e-01
     2569250000   -1.197180524e-01    6.285560131e-01
     2570000000   -1.781824529e-01    6.142780781e-01
     2570750000   -2.315214276e-01    5.963434577e-01
     2571500000   -2.877842784e-01    5.707557797e-01
     2572250000   -3.375874162e-01    5.428721309e-01
     2573000000   -3.869213760e-01    5.089536905e-01
     2573750000   -4.331152737e-01    4.707267880e-01
     2574500000   -4.743221402e-01    4.289779961e-01
     2575250000   -5.110402703e-01    3.827580214e-01
     2576000000   -5.451797247e-01    3.350164592e-01
     2576750000   -5.734615922e-01    2.819266617e-01
     2577500000   -5.957950950e-01    2.279870361e-01
     2578250000   -6.145855188e-01    1.729729921e-01
     2579000000   -6.272727847e-01    1.135005206e-01
     2579750000   -6.352989674e-01    5.605295300e-02
     2580500000   -6.371271014e-01   -2.765238052e-03
     2581250000   -6.347820163e-01   -6.050285324e-02
     2582000000   -6.256912947e-01   -1.200450286e-01
     2582750000   -6.112840772e-01   -1.768995970e-01
     2583500000   -5.924805999e-01   -2.330144644e-01
     2584250000   -5.673962831e-01   -2.866545022e-01
     2585000000   -5.393294692e-01   -3.368450999e-01
     2585750000   -5.057493448e-01   -3.850759268e-01
     2586500000   -4.672283530e-01   -4.294866323e-01
     2587250000   -4.254735708e-01   -4.700924754e-01
     2588000000   -3.803381324e-01   -5.079477429e-01
     2588750000   -3.293664753e-01   -5.408241749e-01
     2589500000   -2.798452973e-01   -5.671042800e-01
     2590250000   -2.270115316e-01   -5.903654099e-01
     2591000000   -1.703099459e-01   -6.084664464e-01
     2591750000   -1.151052564e-01   -6.213802695e-01
     2592500000   -5.211532488e-02   -6.274641752e-01
     2593250000    2.274785424e-03   -6.295783520e-01
     2594000000    6.520579755e-02   -6.251254678e-01
     2594750000    1.173485890e-01   -6.185817719e-01
     2595500000    1.796903908e-01   -6.028257012e-01
     2596250000    2.325269729e-01   -5.841962695e-01
     2597000000    2.871728539e-01   -5.575373769e-01
     2597750000    3.361964226e-01   -5.296116471e-01
     2598500000    3.845721781e-01   -4.965615869e-01
     2599250000    4.294011891e-01   -4.569761157e-01
     2600000000    4.669915140e-01   -4.190310240e-01
