! NanoVNA-App
! Date: 2026-05-25 02:03:51
! Start: 2.3GHz Stop: 2.6GHz Points: 401
! S-Parameter data: F S11
# Hz S RI R 50
!     Frequency           S11_Real           S11_Imag
     2300000000    3.160311580e-01   -8.424567431e-02
     2300750000    3.130738139e-01   -9.299251437e-02
     2301500000    3.091628850e-01   -1.095481366e-01
     2302250000    3.046960235e-01   -1.178115085e-01
     2303000000    3.006383479e-01   -1.300454438e-01
     2303750000    2.946721315e-01   -1.424221247e-01
     2304500000    2.887877822e-01   -1.517268419e-01
     2305250000    2.817602754e-01   -1.617933512e-01
     2306000000    2.749669552e-01   -1.731163114e-01
     2306750000    2.670016587e-01   -1.833837330e-01
     2307500000    2.588138878e-01   -1.921485811e-01
     2308250000    2.496299297e-01   -2.027446330e-01
     2309000000    2.404023111e-01   -2.128974795e-01
     2309750000    2.307332903e-01   -2.215810716e-01
     2310500000    2.197166979e-01   -2.291603237e-01
     2311250000    2.092931569e-01   -2.380050272e-01
     2312000000    1.971050501e-01   -2.462931424e-01
     2312750000    1.845163405e-01   -2.544723153e-01
     2313500000    1.724282056e-01   -2.615362406e-01
     2314250000    1.584382653e-01   -2.691939473e-01
     2315000000    1.451510638e-01   -2.758680284e-01
     2315750000    1.314664930e-01   -2.821460366e-01
     2316500000    1.171194538e-01   -2.879793346e-01
     2317250000    1.027170569e-01   -2.944350243e-01
     2318000000    8.644939959e-02   -2.987055182e-01
     2318750000    7.169817388e-02   -3.029694259e-01
     2319500000    5.552456528e-02   -3.067822754e-01
     2320250000    4.191190004e-02   -3.119441867e-01
     2321000000    2.510159835e-02   -3.138413727e-01
     2321750000    1.193563826e-02   -3.177176714e-01
     2322500000   -4.779471084e-03   -3.199217916e-01
     2323250000   -2.203892358e-02   -3.206615150e-01
     2324000000   -3.216397762e-02   -3.239850402e-01
     2324750000   -5.124941096e-02   -3.224092722e-01
     2325500000   -6.836920977e-02   -3.206681907e-01
     2326250000   -7.679039240e-02   -3.230217099e-01
     2327000000   -9.470663220e-02   -3.198867142e-01
     2327750000   -1.054899096e-01   -3.203180134e-01
     2328500000   -1.201722473e-01   -3.168142438e-01
     2329250000   -1.361656785e-01   -3.125326335e-01
     2330000000   -1.478793323e-01   -3.098928332e-01
     2330750000   -1.594038159e-01   -3.061965704e-01
     2331500000   -1.719792485e-01   -3.013990819e-01
     2332250000   -1.801999360e-01   -2.973486483e-01
     2333000000   -1.947372854e-01   -2.901691496e-01
     2333750000   -2.043129206e-01   -2.846421599e-01
     2334500000   -2.131671906e-01   -2.784780860e-01
     2335250000   -2.225981206e-01   -2.718283236e-01
     2336000000   -2.317672223e-01   -2.641659677e-01
     2336750000   -2.395049483e-01   -2.501271367e-01
     2337500000   -2.473790199e-01   -2.419227064e-01
     2338250000   -2.546880245e-01   -2.333468199e-01
     2339000000   -2.628685236e-01   -2.235483378e-01
     2339750000   -2.700310647e-01   -2.136177570e-01
     2340500000   -2.763218582e-01   -2.039848268e-01
     2341250000   -2.826655209e-01   -1.931884885e-01
     2342000000   -2.882786393e-01   -1.817486882e-01
     2342750000   -2.939928174e-01   -1.698431969e-01
     2343500000   -2.986761332e-01   -1.580960155e-01
     2344250000   -3.016587496e-01   -1.470509171e-01
     2345000000   -3.074960411e-01   -1.324507445e-01
     2345750000   -3.101607859e-01   -1.195398420e-01
     2346500000   -3.139872253e-01   -1.063323244e-01
     2347250000   -3.164888024e-01   -9.215372801e-02
     2348000000   -3.185756207e-01   -7.796640694e-02
     2348750000   -3.204806447e-01   -6.248164177e-02
     2349500000   -3.219518065e-01   -4.758800939e-02
     2350250000   -3.230979741e-01   -3.198717162e-02
     2351000000   -3.233821988e-01   -1.603479311e-02
     2351750000   -3.250554204e-01   -2.570417942e-03
     2352500000   -3.247979283e-01    1.461888012e-02
     2353250000   -3.227224946e-01    3.124596179e-02
     2354000000   -3.231985569e-01    4.527858645e-02
     2354750000   -3.192985356e-01    6.358864903e-02
     2355500000   -3.159083128e-01    7.902833819e-02
     2356250000   -3.171275854e-01    9.183791280e-02
     2357000000   -3.094249070e-01    1.124114394e-01
     2357750000   -3.089182377e-01    1.234457865e-01
     2358500000   -3.031432331e-01    1.399777085e-01
     2359250000   -3.005096316e-01    1.525111049e-01
     2360000000   -2.923785746e-01    1.695425063e-01
     2360750000   -2.880810797e-01    1.812164038e-01
     2361500000   -2.820586264e-01    1.946813166e-01
     2362250000   -2.752552330e-01    2.069448829e-01
     2363000000   -2.691212893e-01    2.191449106e-01
     2363750000   -2.592307925e-01    2.325733006e-01
     2364500000   -2.524936497e-01    2.419400215e-01
     2365250000   -2.443421483e-01    2.528400719e-01
     2366000000   -2.361440510e-01    2.623551190e-01
     2366750000   -2.264470160e-01    2.719403803e-01
     2367500000   -2.181711346e-01    2.808002830e-01
     2368250000   -2.086319625e-01    2.876081765e-01
     2369000000   -1.978196055e-01    2.960942686e-01
     2369750000   -1.888974309e-01    3.020507395e-01
     2370500000   -1.777409613e-01    3.094815612e-01
     2371250000   -1.670593917e-01    3.147258162e-01
     2372000000   -1.553266048e-01    3.201273978e-01
     2372750000   -1.439355910e-01    3.256840706e-01
     2373500000   -1.319706142e-01    3.292160332e-01
     2374250000   -1.193108112e-01    3.327480257e-01
     2375000000   -1.061967388e-01    3.365494311e-01
     2375750000   -9.160749614e-02    3.399308026e-01
     2376500000   -7.815189660e-02    3.414211869e-01
     2377250000   -6.495883316e-02    3.426246345e-01
     2378000000   -5.007580295e-02    3.437381685e-01
     2378750000   -3.697265312e-02    3.430104554e-01
     2379500000   -2.085487545e-02    3.434450030e-01
     2380250000   -4.349437077e-03    3.420616090e-01
     2381000000    9.809423238e-03    3.405528069e-01
     2381750000    2.564614639e-02    3.382992446e-01
     2382500000    4.401736334e-02    3.354227543e-01
     2383250000    5.745120347e-02    3.326205909e-01
     2384000000    7.561162114e-02    3.281074464e-01
     2384750000    9.127622843e-02    3.246823251e-01
     2385500000    1.083458215e-01    3.190076351e-01
     2386250000    1.252994239e-01    3.133458495e-01
     2387000000    1.407464743e-01    3.076993227e-01
     2387750000    1.573511958e-01    3.014760911e-01
     2388500000    1.732459515e-01    2.936503589e-01
     2389250000    1.888180077e-01    2.874117792e-01
     2390000000    2.046264410e-01    2.790783942e-01
     2390750000    2.200427800e-01    2.698073983e-01
     2391500000    2.337542623e-01    2.634391487e-01
     2392250000    2.487739921e-01    2.536679208e-01
     2393000000    2.615723014e-01    2.450519800e-01
     2393750000    2.756820619e-01    2.308043987e-01
     2394500000    2.877150476e-01    2.227276266e-01
     2395250000    2.993032634e-01    2.137475759e-01
     2396000000    3.104543388e-01    2.009615302e-01
     2396750000    3.199231923e-01    1.936208457e-01
     2397500000    3.309464455e-01    1.799713522e-01
     2398250000    3.379971683e-01    1.716811210e-01
     2399000000    3.474617302e-01    1.583379656e-01
     2399750000    3.539317846e-01    1.487150788e-01
     2400500000    3.610245287e-01    1.349059343e-01
     2401250000    3.671139479e-01    1.240328848e-01
     2402000000    3.725849390e-01    1.108632311e-01
     2402750000    3.771637678e-01    9.926693141e-02
     2403500000    3.797366023e-01    8.930741996e-02
     2404250000    3.829696178e-01    7.673110813e-02
     2405000000    3.860212862e-01    6.419175863e-02
     2405750000    3.883067667e-01    5.137196556e-02
     2406500000    3.883056641e-01    3.987704590e-02
     2407250000    3.891409636e-01    2.598801814e-02
     2408000000    3.879912198e-01    1.518871170e-02
     2408750000    3.881072402e-01    8.041509864e-05
     2409500000    3.853365183e-01   -1.242749952e-02
     2410250000    3.832052350e-01   -2.431385964e-02
     2411000000    3.797267377e-01   -3.833059222e-02
     2411750000    3.767306805e-01   -5.213761702e-02
     2412500000    3.721107244e-01   -6.604720652e-02
     2413250000    3.664547503e-01   -7.911128551e-02
     2414000000    3.602934182e-01   -9.334948659e-02
     2414750000    3.541176021e-01   -1.075229496e-01
     2415500000    3.463800848e-01   -1.214193776e-01
     2416250000    3.384757936e-01   -1.361815482e-01
     2417000000    3.300231099e-01   -1.503483504e-01
     2417750000    3.204323649e-01   -1.643128544e-01
     2418500000    3.104527891e-01   -1.785652488e-01
     2419250000    3.001683652e-01   -1.924492121e-01
     2420000000    2.881813347e-01   -2.065610737e-01
     2420750000    2.767026722e-01   -2.201534808e-01
     2421500000    2.651750147e-01   -2.333644629e-01
     2422250000    2.516075075e-01   -2.463477403e-01
     2423000000    2.398879975e-01   -2.583223581e-01
     2423750000    2.252929062e-01   -2.705426216e-01
     2424500000    2.114564180e-01   -2.828303277e-01
     2425250000    1.982999444e-01   -2.933304310e-01
     2426000000    1.846804023e-01   -3.036011755e-01
     2426750000    1.699680686e-01   -3.135222197e-01
     2427500000    1.559490114e-01   -3.223204911e-01
     2428250000    1.384631395e-01   -3.307347596e-01
     2429000000    1.255944967e-01   -3.384261727e-01
     2429750000    1.112704128e-01   -3.447396457e-01
     2430500000    9.859368205e-02   -3.516637683e-01
     2431250000    8.169905096e-02   -3.569317758e-01
     2432000000    6.811348349e-02   -3.615244031e-01
     2432750000    5.204313621e-02   -3.650418818e-01
     2433500000    3.894673288e-02   -3.681126535e-01
     2434250000    1.953829266e-02   -3.715426326e-01
     2435000000    1.201084349e-02   -3.717873991e-01
     2435750000   -3.572397633e-03   -3.724938929e-01
     2436500000   -1.892754436e-02   -3.726885021e-01
     2437250000   -3.110251948e-02   -3.716118932e-01
     2438000000   -4.493959993e-02   -3.698876202e-01
     2438750000   -5.779091641e-02   -3.669963181e-01
     2439500000   -7.026582956e-02   -3.636160791e-01
     2440250000   -8.190757036e-02   -3.594236970e-01
     2441000000   -9.798112512e-02   -3.545960188e-01
     2441750000   -1.082895473e-01   -3.482895494e-01
     2442500000   -1.228443384e-01   -3.418755531e-01
     2443250000   -1.347949058e-01   -3.346050978e-01
     2444000000   -1.474506259e-01   -3.262272775e-01
     2444750000   -1.599886417e-01   -3.173485100e-01
     2445500000   -1.718730778e-01   -3.079679608e-01
     2446250000   -1.857046783e-01   -2.965704799e-01
     2447000000   -1.964820176e-01   -2.848826349e-01
     2447750000   -2.080563158e-01   -2.727843225e-01
     2448500000   -2.200410962e-01   -2.596411705e-01
     2449250000   -2.313447893e-01   -2.460955977e-01
     2450000000   -2.421649247e-01   -2.314998657e-01
     2450750000   -2.533180714e-01   -2.154199928e-01
     2451500000   -2.637853026e-01   -1.997450441e-01
     2452250000   -2.739702463e-01   -1.836746931e-01
     2453000000   -2.832896113e-01   -1.664451510e-01
     2453750000   -2.929509580e-01   -1.489867866e-01
     2454500000   -3.016819060e-01   -1.307205558e-01
     2455250000   -3.093698025e-01   -1.123395413e-01
     2456000000   -3.172211945e-01   -9.604033828e-02
     2456750000   -3.245702982e-01   -7.674526423e-02
     2457500000   -3.324528933e-01   -6.053799763e-02
     2458250000   -3.360235393e-01   -3.830531240e-02
     2459000000   -3.417154253e-01   -2.064175345e-02
     2459750000   -3.468084633e-01   -2.371383132e-03
     2460500000   -3.497216105e-01    1.687295549e-02
     2461250000   -3.528266549e-01    3.474781290e-02
     2462000000   -3.563054800e-01    4.687654227e-02
     2462750000   -3.572024405e-01    6.751684099e-02
     2463500000   -3.582016230e-01    8.575741202e-02
     2464250000   -3.589188755e-01    9.862802178e-02
     2465000000   -3.577469289e-01    1.178377271e-01
     2465750000   -3.580435216e-01    1.297520697e-01
     2466500000   -3.559056222e-01    1.464348137e-01
     2467250000   -3.549761772e-01    1.585786939e-01
     2468000000   -3.519747853e-01    1.706332415e-01
     2468750000   -3.489348590e-01    1.839355081e-01
     2469500000   -3.450698256e-01    1.986041665e-01
     2470250000   -3.416057825e-01    2.061101049e-01
     2471000000   -3.362893760e-01    2.176855505e-01
     2471750000   -3.309772611e-01    2.283385992e-01
     2472500000   -3.243525922e-01    2.401858121e-01
     2473250000   -3.188809752e-01    2.472641319e-01
     2474000000   -3.116922677e-01    2.551746964e-01
     2474750000   -3.043992221e-01    2.621698380e-01
     2475500000   -2.954752147e-01    2.715962231e-01
     2476250000   -2.855682075e-01    2.805054486e-01
     2477000000   -2.768650055e-01    2.850738764e-01
     2477750000   -2.667806745e-01    2.929062247e-01
     2478500000   -2.557292283e-01    2.990096211e-01
     2479250000   -2.432419658e-01    3.051913977e-01
     2480000000   -2.311739475e-01    3.107609153e-01
     2480750000   -2.181889415e-01    3.156902790e-01
     2481500000   -2.047741860e-01    3.204855025e-01
     2482250000   -1.903357357e-01    3.248829544e-01
     2483000000   -1.750955731e-01    3.291033506e-01
     2483750000   -1.588698030e-01    3.329201639e-01
     2484500000   -1.430802196e-01    3.359369934e-01
     2485250000   -1.252636462e-01    3.391568065e-01
     2486000000   -1.084099412e-01    3.413889408e-01
     2486750000   -9.000307322e-02    3.432899117e-01
     2487500000   -7.128215581e-02    3.441627324e-01
     2488250000   -5.282029882e-02    3.458155394e-01
     2489000000   -3.445232287e-02    3.466325700e-01
     2489750000   -1.270877104e-02    3.448626101e-01
     2490500000    4.618337378e-03    3.456329703e-01
     2491250000    2.447176352e-02    3.447868526e-01
     2492000000    4.474430904e-02    3.420719802e-01
     2492750000    6.492599845e-02    3.398971260e-01
     2493500000    8.331785351e-02    3.376276493e-01
     2494250000    1.024237126e-01    3.334985673e-01
     2495000000    1.196675822e-01    3.310025036e-01
     2495750000    1.415448487e-01    3.243436217e-01
     2496500000    1.607213318e-01    3.177308142e-01
     2497250000    1.731562167e-01    3.161893487e-01
     2498000000    1.950993985e-01    3.067484200e-01
     2498750000    2.078716904e-01    3.028132617e-01
     2499500000    2.266065776e-01    2.944113910e-01
     2500250000    2.376223356e-01    2.900033295e-01
     2501000000    2.495900542e-01    2.838726044e-01
     2501750000    2.679384351e-01    2.723874748e-01
     2502500000    2.761683464e-01    2.672620118e-01
     2503250000    2.908519208e-01    2.572258413e-01
     2504000000    3.004679680e-01    2.485816628e-01
     2504750000    3.122372031e-01    2.387679070e-01
     2505500000    3.194749057e-01    2.306031585e-01
     2506250000    3.256406486e-01    2.216708511e-01
     2507000000    3.356751204e-01    2.114614397e-01
     2507750000    3.418933153e-01    2.012526244e-01
     2508500000    3.507645726e-01    1.881218255e-01
     2509250000    3.549994230e-01    1.784424782e-01
     2510000000    3.616690934e-01    1.641784459e-01
     2510750000    3.632602990e-01    1.558008641e-01
     2511500000    3.677895963e-01    1.419793218e-01
     2512250000    3.717780411e-01    1.278816760e-01
     2513000000    3.729102612e-01    1.157962680e-01
     2513750000    3.746440709e-01    1.014675722e-01
     2514500000    3.754502535e-01    8.776738495e-02
     2515250000    3.761301339e-01    7.291577756e-02
     2516000000    3.758257031e-01    5.749724805e-02
     2516750000    3.745051920e-01    4.150496051e-02
     2517500000    3.724692166e-01    2.634931728e-02
     2518250000    3.703961074e-01    1.053190976e-02
     2519000000    3.671303689e-01   -7.958349772e-03
     2519750000    3.645565510e-01   -2.435257658e-02
     2520500000    3.609897494e-01   -4.135406390e-02
     2521250000    3.550219834e-01   -6.009788811e-02
     2522000000    3.489337265e-01   -7.787863165e-02
     2522750000    3.448225856e-01   -9.497958422e-02
     2523500000    3.372457325e-01   -1.132731959e-01
     2524250000    3.290174305e-01   -1.321191341e-01
     2525000000    3.240263462e-01   -1.482711881e-01
     2525750000    3.143942654e-01   -1.672929078e-01
     2526500000    3.047867417e-01   -1.848822087e-01
     2527250000    2.984101474e-01   -2.012130916e-01
     2528000000    2.889616787e-01   -2.179494053e-01
     2528750000    2.769164443e-01   -2.358222306e-01
     2529500000    2.691727877e-01   -2.508688271e-01
     2530250000    2.578097582e-01   -2.661779523e-01
     2531000000    2.431082577e-01   -2.844954431e-01
     2531750000    2.382563055e-01   -2.939280272e-01
     2532500000    2.268146873e-01   -3.069505394e-01
     2533250000    2.139637470e-01   -3.200280964e-01
     2534000000    2.048892379e-01   -3.304335177e-01
     2534750000    1.928397715e-01   -3.421472609e-01
     2535500000    1.818895489e-01   -3.532445729e-01
     2536250000    1.712084711e-01   -3.612847328e-01
     2537000000    1.622057557e-01   -3.689492643e-01
     2537750000    1.504326314e-01   -3.769401908e-01
     2538500000    1.393862516e-01   -3.836422861e-01
     2539250000    1.286888123e-01   -3.889818788e-01
     2540000000    1.172884703e-01   -3.945240378e-01
     2540750000    1.082277223e-01   -3.981116414e-01
     2541500000    9.647988528e-02   -4.020455480e-01
     2542250000    8.626745641e-02   -4.044628143e-01
     2543000000    7.487493753e-02   -4.067488313e-01
     2543750000    6.255662441e-02   -4.083438218e-01
     2544500000    5.137352645e-02   -4.084453285e-01
     2545250000    4.050068930e-02   -4.082516730e-01
     2546000000    2.799679898e-02   -4.073489606e-01
     2546750000    1.692873053e-02   -4.060153365e-01
     2547500000    4.471288063e-03   -4.028455019e-01
     2548250000   -7.566808257e-03   -3.995815814e-01
     2549000000   -2.011575364e-02   -3.959684074e-01
     2549750000   -3.251238912e-02   -3.908186257e-01
     2550500000   -4.762749001e-02   -3.852142990e-01
     2551250000   -5.939284712e-02   -3.788118660e-01
     2552000000   -7.401916385e-02   -3.716023266e-01
     2552750000   -8.731417358e-02   -3.636323810e-01
     2553500000   -1.031445935e-01   -3.538211286e-01
     2554250000   -1.152172387e-01   -3.459843993e-01
     2555000000   -1.325300783e-01   -3.337938488e-01
     2555750000   -1.455718428e-01   -3.238863647e-01
     2556500000   -1.591127962e-01   -3.133244514e-01
     2557250000   -1.755788773e-01   -2.989799082e-01
     2558000000   -1.891260445e-01   -2.878956497e-01
     2558750000   -2.048605829e-01   -2.723363936e-01
     2559500000   -2.187725753e-01   -2.565139532e-01
     2560250000   -2.321118414e-01   -2.447673380e-01
     2561000000   -2.459472567e-01   -2.304504663e-01
     2561750000   -2.599218786e-01   -2.126993239e-01
     2562500000   -2.717500031e-01   -1.987634599e-01
     2563250000   -2.853230834e-01   -1.819027960e-01
     2564000000   -2.961061299e-01   -1.639993340e-01
     2564750000   -3.074849844e-01   -1.493158787e-01
     2565500000   -3.173564374e-01   -1.342131048e-01
     2566250000   -3.269926310e-01   -1.180329248e-01
     2567000000   -3.357810676e-01   -1.024103537e-01
     2567750000   -3.434235454e-01   -8.390530944e-02
     2568500000   -3.502068818e-01   -7.006568462e-02
     2569250000   -3.571985960e-01   -5.333144963e-02
     2570000000   -3.628088236e-01   -3.856584430e-02
     2570750000   -3.665456772e-01   -2.476492152e-02
     2571500000   -3.702237904e-01   -1.008975599e-02
     2572250000   -3.729459345e-01    3.932373133e-03
     2573000000   -3.757562637e-01    1.797077805e-02
     2573750000   -3.766808212e-01    3.049268201e-02
     2574500000   -3.771581054e-01    4.344158620e-02
     2575250000   -3.767557442e-01    5.610685423e-02
     2576000000   -3.756349981e-01    6.843715161e-02
     2576750000   -3.737257421e-01    8.080052584e-02
     2577500000   -3.709358871e-01    9.289908409e-02
     2578250000   -3.675864935e-01    1.029531732e-01
     2579000000   -3.636291027e-01    1.149858236e-01
     2579750000   -3.583039939e-01    1.261752844e-01
     2580500000   -3.521413505e-01    1.363083422e-01
     2581250000   -3.457354903e-01    1.463600844e-01
     2582000000   -3.383981884e-01    1.570742726e-01
     2582750000   -3.303974867e-01    1.677174270e-01
     2583500000   -3.210207522e-01    1.784332395e-01
     2584250000   -3.113422096e-01    1.880531460e-01
     2585000000   -3.005047143e-01    1.987143010e-01
     2585750000   -2.898103595e-01    2.080892920e-01
     2586500000   -2.776607871e-01    2.182204872e-01
     2587250000   -2.643555105e-01    2.279739529e-01
     2588000000   -2.496945113e-01    2.380570173e-01
     2588750000   -2.356381565e-01    2.469672412e-01
     2589500000   -2.200648785e-01    2.566357255e-01
     2590250000   -2.048336864e-01    2.659945488e-01
     2591000000   -1.894513816e-01    2.742301226e-01
     2591750000   -1.743422449e-01    2.835315168e-01
     2592500000   -1.523891240e-01    2.920863628e-01
     2593250000   -1.375379711e-01    2.999864817e-01
     2594000000   -1.224689782e-01    3.071743250e-01
     2594750000   -1.009220257e-01    3.149084151e-01
     2595500000   -8.249845356e-02    3.214948475e-01
     2596250000   -6.279001385e-02    3.260742724e-01
     2597000000   -5.004412308e-02    3.341271877e-01
     2597750000   -2.649952285e-02    3.378959596e-01
     2598500000   -1.086292416e-02    3.424097896e-01
     2599250000    7.129920647e-03    3.472580910e-01
     2600000000    2.420934290e-02    3.505882621e-01
