! NanoVNA-App
! Date: 2026-05-25 01:59:41
! Start: 4.8GHz Stop: 6GHz Points: 401
! S-Parameter data: F S11
# Hz S RI R 50
!     Frequency           S11_Real           S11_Imag
     4800000000    4.159107506e-01    1.979488693e-02
     4803000000    3.789228201e-01    1.712592393e-01
     4806000000    2.898020744e-01    2.982163131e-01
     4809000000    1.599914730e-01    3.844954669e-01
     4812000000    6.410739385e-03    4.187830687e-01
     4815000000   -1.489735991e-01    3.926641643e-01
     4818000000   -2.823072672e-01    3.107650876e-01
     4821000000   -3.778471053e-01    1.885216534e-01
     4824000000   -4.182985127e-01    3.678562120e-02
     4827000000   -4.041499197e-01   -1.208870634e-01
     4830000000   -3.329674602e-01   -2.592391968e-01
     4833000000   -2.141908407e-01   -3.634703159e-01
     4836000000   -6.724735349e-02   -4.180804491e-01
     4839000000    8.945611119e-02   -4.146199822e-01
     4842000000    2.350209206e-01   -3.515843451e-01
     4845000000    3.464800119e-01   -2.424129546e-01
     4848000000    4.099217951e-01   -9.811124206e-02
     4851000000    4.176171422e-01    5.923867226e-02
     4854000000    3.686718345e-01    2.069606483e-01
     4857000000    2.661586702e-01    3.260917068e-01
     4860000000    1.273825169e-01    4.013143480e-01
     4863000000   -3.057982400e-02    4.190140069e-01
     4866000000   -1.804261357e-01    3.819082081e-01
     4869000000   -3.099659085e-01    2.865889966e-01
     4872000000   -3.921657801e-01    1.550328135e-01
     4875000000   -4.228058159e-01    2.160403645e-03
     4878000000   -3.939428031e-01   -1.539444625e-01
     4881000000   -3.115705848e-01   -2.861547768e-01
     4884000000   -1.870331466e-01   -3.797199726e-01
     4887000000   -3.380706906e-02   -4.216580093e-01
     4890000000    1.207430959e-01   -4.052744806e-01
     4893000000    2.605403066e-01   -3.326725960e-01
     4896000000    3.629364073e-01   -2.135986686e-01
     4899000000    4.145318866e-01   -6.698012352e-02
     4902000000    4.111478031e-01    8.955184370e-02
     4905000000    3.486411870e-01    2.330730110e-01
     4908000000    2.389887869e-01    3.438851535e-01
     4911000000    9.739415348e-02    4.086716771e-01
     4914000000   -5.886740610e-02    4.150521457e-01
     4917000000   -2.060235888e-01    3.652999699e-01
     4920000000   -3.254654408e-01    2.638188004e-01
     4923000000   -3.987068832e-01    1.273208857e-01
     4926000000   -4.167841077e-01   -2.636942454e-02
     4929000000   -3.774175346e-01   -1.746242046e-01
     4932000000   -2.868279219e-01   -2.993349433e-01
     4935000000   -1.564983279e-01   -3.830154836e-01
     4938000000   -5.870393012e-03   -4.108019173e-01
     4941000000    1.464424580e-01   -3.825854361e-01
     4944000000    2.768214643e-01   -3.020164967e-01
     4947000000    3.677525818e-01   -1.815402657e-01
     4950000000    4.092068970e-01   -3.082989901e-02
     4953000000    3.928454816e-01    1.193391904e-01
     4956000000    3.215324581e-01    2.538050115e-01
     4959000000    2.067229599e-01    3.527946472e-01
     4962000000    6.462982297e-02    4.026570916e-01
     4965000000   -8.805321157e-02    3.955432773e-01
     4968000000   -2.267020792e-01    3.355536163e-01
     4971000000   -3.323158622e-01    2.285859287e-01
     4974000000   -3.920114636e-01    8.999155462e-02
     4977000000   -3.963911235e-01   -6.153817475e-02
     4980000000   -3.451927602e-01   -2.025994509e-01
     4983000000   -2.455108613e-01   -3.152664900e-01
     4986000000   -1.118476018e-01   -3.854270875e-01
     4989000000    3.792935982e-02   -3.973082602e-01
     4992000000    1.825900078e-01   -3.571148515e-01
     4995000000    3.009034097e-01   -2.681095004e-01
     4998000000    3.766559362e-01   -1.390316784e-01
     5001000000    4.046566486e-01    1.026533730e-02
     5004000000    3.722605705e-01    1.556972563e-01
     5007000000    2.907718718e-01    2.779658139e-01
     5010000000    1.672750711e-01    3.627059460e-01
     5013000000    1.969431154e-02    4.011684060e-01
     5016000000   -1.254135966e-01    3.816874027e-01
     5019000000   -2.574550509e-01    3.097286820e-01
     5022000000   -3.498543501e-01    1.944034696e-01
     5025000000   -3.950385153e-01    5.270838365e-02
     5028000000   -3.874868751e-01   -9.628283232e-02
     5031000000   -3.225136399e-01   -2.292228192e-01
     5034000000   -2.152113020e-01   -3.322815895e-01
     5037000000   -7.655536383e-02   -3.844527602e-01
     5040000000    7.207325101e-02   -3.859519362e-01
     5043000000    2.062841058e-01   -3.322402537e-01
     5046000000    3.154336512e-01   -2.318855077e-01
     5049000000    3.795067072e-01   -9.955231845e-02
     5052000000    3.910171986e-01    4.916449636e-02
     5055000000    3.462058902e-01    1.882219911e-01
     5058000000    2.550072372e-01    3.048267663e-01
     5061000000    1.265984625e-01    3.754428327e-01
     5064000000   -2.054912038e-02    3.961334229e-01
     5067000000   -1.642829478e-01    3.601625264e-01
     5070000000   -2.841509283e-01    2.762983441e-01
     5073000000   -3.623426855e-01    1.522637308e-01
     5076000000   -3.963566422e-01    8.227220736e-03
     5079000000   -3.723551929e-01   -1.376849413e-01
     5082000000   -2.955468297e-01   -2.615863383e-01
     5085000000   -1.791147590e-01   -3.508453667e-01
     5088000000   -3.857877478e-02   -3.953645527e-01
     5091000000    1.081619859e-01   -3.806977868e-01
     5094000000    2.388162911e-01   -3.123263717e-01
     5097000000    3.391093612e-01   -2.035437822e-01
     5100000000    3.880628645e-01   -6.574266404e-02
     5103000000    3.840000331e-01    8.146577328e-02
     5106000000    3.331383467e-01    2.185993493e-01
     5109000000    2.247558087e-01    3.210655749e-01
     5112000000    9.416264296e-02    3.821818233e-01
     5115000000   -5.368151888e-02    3.876208365e-01
     5118000000   -1.892438084e-01    3.413020968e-01
     5121000000   -3.026134074e-01    2.482877076e-01
     5124000000   -3.777856827e-01    1.211557314e-01
     5127000000   -3.835406303e-01   -2.415539697e-02
     5130000000   -3.572757542e-01   -1.686431468e-01
     5133000000   -2.680467367e-01   -2.855823636e-01
     5136000000   -1.457574815e-01   -3.576122820e-01
     5139000000   -2.349995775e-03   -3.873866498e-01
     5142000000    1.402342469e-01   -3.626506031e-01
     5145000000    2.645598650e-01   -2.849422395e-01
     5148000000    3.456499577e-01   -1.691560447e-01
     5151000000    3.863812387e-01   -2.904379368e-02
     5154000000    3.703001738e-01    1.142390519e-01
     5157000000    3.016874790e-01    2.414124906e-01
     5160000000    1.924762279e-01    3.354683518e-01
     5163000000    5.499579385e-02    3.820235729e-01
     5166000000   -8.905588090e-02    3.731005192e-01
     5169000000   -2.207030654e-01    3.160527647e-01
     5172000000   -3.198863268e-01    2.119481415e-01
     5175000000   -3.804683387e-01    7.730399817e-02
     5178000000   -3.722095788e-01   -6.208617613e-02
     5181000000   -3.313809037e-01   -2.003989816e-01
     5184000000   -2.337440550e-01   -3.043351471e-01
     5187000000   -1.041657627e-01   -3.718866110e-01
     5190000000    4.345890880e-02   -3.871277273e-01
     5193000000    1.764213145e-01   -3.423457742e-01
     5196000000    2.886717319e-01   -2.543302476e-01
     5199000000    3.644691706e-01   -1.273685694e-01
     5202000000    3.774715364e-01    7.622445468e-03
     5205000000    3.521799147e-01    1.512552351e-01
     5208000000    2.706604004e-01    2.684036791e-01
     5211000000    1.516053230e-01    3.495334089e-01
     5214000000    1.082012895e-02    3.821571767e-01
     5217000000   -1.298956126e-01    3.610950112e-01
     5220000000   -2.546684444e-01    2.875798941e-01
     5223000000   -3.398799002e-01    1.756718904e-01
     5226000000   -3.832084835e-01    3.880870342e-02
     5229000000   -3.710698187e-01   -1.047490984e-01
     5232000000   -3.050933480e-01   -2.309742421e-01
     5235000000   -2.010322064e-01   -3.328088522e-01
     5238000000   -6.627501547e-02   -3.805171847e-01
     5241000000    7.545573264e-02   -3.758849502e-01
     5244000000    2.120588869e-01   -3.245874941e-01
     5247000000    3.169694245e-01   -2.225481421e-01
     5250000000    3.736424446e-01   -9.133743495e-02
     5253000000    3.851419687e-01    5.360964686e-02
     5256000000    3.387064040e-01    1.908945888e-01
     5259000000    2.469792813e-01    3.059479594e-01
     5262000000    1.197702065e-01    3.677543998e-01
     5265000000   -2.323642559e-02    3.903914988e-01
     5268000000   -1.732998192e-01    3.635789752e-01
     5271000000   -2.812877297e-01    2.712572515e-01
     5274000000   -3.580843210e-01    1.507353336e-01
     5277000000   -3.892554343e-01    1.035116147e-02
     5280000000   -3.629322052e-01   -1.306512058e-01
     5283000000   -2.899121642e-01   -2.646695673e-01
     5286000000   -1.740871668e-01   -3.398885131e-01
     5289000000   -3.254516050e-02   -3.828887939e-01
     5292000000    1.120720953e-01   -3.707362115e-01
     5295000000    2.372340113e-01   -3.048846424e-01
     5298000000    3.324629366e-01   -1.955592930e-01
     5301000000    3.835710287e-01   -6.182089075e-02
     5304000000    3.783426881e-01    8.142582327e-02
     5307000000    3.236007690e-01    2.167993784e-01
     5310000000    2.237452269e-01    3.204669952e-01
     5313000000    9.106259793e-02    3.755108416e-01
     5316000000   -5.175644532e-02    3.807272613e-01
     5319000000   -1.914800256e-01    3.364675939e-01
     5322000000   -2.998144329e-01    2.437529713e-01
     5325000000   -3.672371507e-01    1.161375120e-01
     5328000000   -3.842765689e-01   -2.601691335e-02
     5331000000   -3.456849456e-01   -1.657051444e-01
     5334000000   -2.638742030e-01   -2.812938988e-01
     5337000000   -1.428571045e-01   -3.602852523e-01
     5340000000   -2.689488931e-03   -3.838236034e-01
     5343000000    1.375380009e-01   -3.558401465e-01
     5346000000    2.573205829e-01   -2.809158862e-01
     5349000000    3.420448005e-01   -1.656291932e-01
     5352000000    3.797299564e-01   -2.694681473e-02
     5355000000    3.599548936e-01    1.054079831e-01
     5358000000    2.934680581e-01    2.396968752e-01
     5361000000    1.822066307e-01    3.437846303e-01
     5364000000    5.770046636e-02    3.703439832e-01
     5367000000   -8.836063743e-02    3.702296615e-01
     5370000000   -2.164849341e-01    3.059909642e-01
     5373000000   -3.345354199e-01    2.024914771e-01
     5376000000   -3.843758404e-01    7.311878353e-02
     5379000000   -3.709064126e-01   -5.782595649e-02
     5382000000   -3.247302473e-01   -1.934171319e-01
     5385000000   -2.301222235e-01   -3.005852401e-01
     5388000000   -1.001696661e-01   -3.683868647e-01
     5391000000    3.981798887e-02   -3.805453181e-01
     5394000000    1.824395657e-01   -3.446623683e-01
     5397000000    2.756802142e-01   -2.517059743e-01
     5400000000    3.525103629e-01   -1.297010183e-01
     5403000000    3.790225685e-01    9.125368670e-03
     5406000000    3.475510478e-01    1.504328102e-01
     5409000000    2.700608969e-01    2.640740871e-01
     5412000000    1.525623202e-01    3.496986628e-01
     5415000000    1.692701504e-02    3.788780570e-01
     5418000000   -1.243751645e-01    3.606741130e-01
     5421000000   -2.563736737e-01    2.904217243e-01
     5424000000   -3.418678641e-01    1.799271703e-01
     5427000000   -3.773455024e-01    4.816516861e-02
     5430000000   -3.677743971e-01   -9.709213674e-02
     5433000000   -3.079423010e-01   -2.206108570e-01
     5436000000   -2.111315578e-01   -2.990654409e-01
     5439000000   -6.931511313e-02   -3.723396659e-01
     5442000000    7.303631306e-02   -3.727035820e-01
     5445000000    1.924933344e-01   -3.205505610e-01
     5448000000    3.125812709e-01   -2.200899422e-01
     5451000000    3.606083393e-01   -9.996574372e-02
     5454000000    3.719352484e-01    4.081375152e-02
     5457000000    3.288231492e-01    1.645361930e-01
     5460000000    2.406740040e-01    2.897704542e-01
     5463000000    1.250369847e-01    3.509531319e-01
     5466000000   -6.738904398e-03    3.689940274e-01
     5469000000   -1.563495547e-01    3.400370777e-01
     5472000000   -2.465850115e-01    2.635674477e-01
     5475000000   -3.516538441e-01    1.326715350e-01
     5478000000   -3.661081791e-01    9.332673624e-03
     5481000000   -3.437069058e-01   -1.270718277e-01
     5484000000   -2.739481926e-01   -2.409332842e-01
     5487000000   -1.669763774e-01   -3.237741888e-01
     5490000000   -2.094127797e-02   -3.729711771e-01
     5493000000    1.038720757e-01   -3.536912799e-01
     5496000000    2.392892838e-01   -2.906245887e-01
     5499000000    3.096414208e-01   -1.917259246e-01
     5502000000    3.567154109e-01   -6.573976576e-02
     5505000000    3.609446883e-01    8.596008271e-02
     5508000000    3.046338856e-01    1.987853199e-01
     5511000000    2.102033049e-01    3.009106815e-01
     5514000000    8.021392673e-02    3.580226004e-01
     5517000000   -5.635787174e-02    3.613173366e-01
     5520000000   -1.825958043e-01    3.165787458e-01
     5523000000   -2.959763706e-01    2.245117873e-01
     5526000000   -3.512310088e-01    1.092262119e-01
     5529000000   -3.678564429e-01   -3.678610921e-02
     5532000000   -3.299743831e-01   -1.375598609e-01
     5535000000   -2.454847246e-01   -2.785294950e-01
     5538000000   -1.262414008e-01   -3.445326388e-01
     5541000000   -2.367700916e-03   -3.623525798e-01
     5544000000    1.344264448e-01   -3.385575712e-01
     5547000000    2.566691339e-01   -2.645728290e-01
     5550000000    3.363817334e-01   -1.549614817e-01
     5553000000    3.718585074e-01   -1.009415835e-02
     5556000000    3.512757123e-01    1.068814099e-01
     5559000000    2.904408574e-01    2.233108878e-01
     5562000000    1.803940088e-01    3.222957551e-01
     5565000000    5.151925609e-02    3.645588160e-01
     5568000000   -8.274329454e-02    3.561334610e-01
     5571000000   -2.029833645e-01    3.025225997e-01
     5574000000   -3.060272932e-01    2.043512464e-01
     5577000000   -3.543891311e-01    8.443406224e-02
     5580000000   -3.611425161e-01   -5.770348385e-02
     5583000000   -3.173180521e-01   -1.795180887e-01
     5586000000   -2.235829085e-01   -2.882407308e-01
     5589000000   -1.216967553e-01   -3.370105326e-01
     5592000000    1.727141254e-02   -3.595270216e-01
     5595000000    1.640700549e-01   -3.227782249e-01
     5598000000    2.468045056e-01   -2.582041621e-01
     5601000000    3.294100761e-01   -1.378890872e-01
     5604000000    3.534247577e-01   -2.083988115e-02
     5607000000    3.313332498e-01    1.360977888e-01
     5610000000    2.668355405e-01    2.345794886e-01
     5613000000    1.606187671e-01    3.143864572e-01
     5616000000    2.999491803e-02    3.508253098e-01
     5619000000   -1.047246084e-01    3.349670172e-01
     5622000000   -2.117644399e-01    2.756833732e-01
     5625000000   -2.942124009e-01    1.814323962e-01
     5628000000   -3.418785930e-01    5.116638914e-02
     5631000000   -3.359463811e-01   -5.716274679e-02
     5634000000   -2.862603962e-01   -1.821850836e-01
     5637000000   -1.892822385e-01   -2.825184762e-01
     5640000000   -7.591567189e-02   -3.307799697e-01
     5643000000    2.154556103e-02   -3.357817531e-01
     5646000000    1.822237074e-01   -2.888857126e-01
     5649000000    2.627942562e-01   -2.129109949e-01
     5652000000    3.220546544e-01   -1.039395109e-01
     5655000000    3.360179663e-01    1.873910613e-02
     5658000000    3.041670620e-01    1.450489759e-01
     5661000000    2.236881256e-01    2.478650510e-01
     5664000000    1.296324730e-01    3.039958775e-01
     5667000000    4.655936267e-03    3.295822442e-01
     5670000000   -1.046286896e-01    3.133082390e-01
     5673000000   -2.347946167e-01    2.276329100e-01
     5676000000   -2.964173555e-01    1.484980732e-01
     5679000000   -3.276571035e-01    2.037595026e-02
     5682000000   -3.171255887e-01   -9.564967453e-02
     5685000000   -2.633442283e-01   -1.992964149e-01
     5688000000   -1.571621746e-01   -2.901237309e-01
     5691000000   -5.876427889e-02   -3.246923089e-01
     5694000000    8.556436002e-02   -3.139291704e-01
     5697000000    1.727725118e-01   -2.792010605e-01
     5700000000    2.724829018e-01   -1.735541224e-01
     5703000000    3.146443069e-01   -8.175294101e-02
     5706000000    3.175239265e-01    5.261142552e-02
     5709000000    2.848433852e-01    1.546392441e-01
     5712000000    1.880273968e-01    2.560620904e-01
     5715000000    8.527568728e-02    3.080186546e-01
     5718000000   -2.411119826e-02    3.205650449e-01
     5721000000   -1.418796331e-01    2.875650227e-01
     5724000000   -2.377308309e-01    2.160083205e-01
     5727000000   -3.009442389e-01    1.163398847e-01
     5730000000   -3.182477951e-01   -5.915080663e-03
     5733000000   -2.973250151e-01   -1.188547909e-01
     5736000000   -2.383860648e-01   -2.116815597e-01
     5739000000   -1.320194453e-01   -2.856978774e-01
     5742000000   -1.799205691e-02   -3.132798970e-01
     5745000000    8.836228400e-02   -3.024630845e-01
     5748000000    2.047033459e-01   -2.353319824e-01
     5751000000    2.647679150e-01   -1.925901622e-01
     5754000000    3.078753054e-01   -2.833009325e-02
     5757000000    3.051653802e-01    7.545593381e-02
     5760000000    2.634601891e-01    1.730130315e-01
     5763000000    1.819928735e-01    2.586872578e-01
     5766000000    7.320112735e-02    3.049860895e-01
     5769000000   -3.767107055e-02    3.127828538e-01
     5772000000   -1.439586431e-01    2.835483849e-01
     5775000000   -2.318784893e-01    2.155006528e-01
     5778000000   -2.908934653e-01    8.820394427e-02
     5781000000   -3.059049547e-01   -1.065411139e-02
     5784000000   -2.832416594e-01   -1.187213287e-01
     5787000000   -2.142477632e-01   -2.105863094e-01
     5790000000   -1.149507090e-01   -2.730112970e-01
     5793000000   -9.889225475e-03   -2.953183055e-01
     5796000000    9.799617529e-02   -2.806127071e-01
     5799000000    1.968262792e-01   -2.141119987e-01
     5802000000    2.600032389e-01   -1.514066905e-01
     5805000000    2.930845320e-01   -3.761910275e-02
     5808000000    2.861153185e-01    6.854645163e-02
     5811000000    2.399893552e-01    1.663365364e-01
     5814000000    1.587288827e-01    2.411074042e-01
     5817000000    6.353575736e-02    2.835502326e-01
     5820000000   -5.393534899e-02    2.737251520e-01
     5823000000   -1.473754942e-01    2.446879447e-01
     5826000000   -2.214318812e-01    1.837244183e-01
     5829000000   -2.655483186e-01    7.245562971e-02
     5832000000   -2.748640478e-01   -2.977893688e-02
     5835000000   -2.466388941e-01   -1.255122572e-01
     5838000000   -1.835157573e-01   -2.073199749e-01
     5841000000   -8.801903576e-02   -2.582084537e-01
     5844000000    5.080795847e-03   -2.769702673e-01
     5847000000    1.072953716e-01   -2.553875744e-01
     5850000000    1.924875230e-01   -1.966951340e-01
     5853000000    2.504883707e-01   -1.137356609e-01
     5856000000    2.719607353e-01   -1.278545521e-02
     5859000000    2.519294322e-01    8.568159491e-02
     5862000000    1.990787089e-01    1.731944829e-01
     5865000000    1.257898360e-01    2.336279750e-01
     5868000000    3.818068653e-02    2.657599151e-01
     5871000000   -6.753394753e-02    2.548986077e-01
     5874000000   -1.543628871e-01    2.218204588e-01
     5877000000   -2.227115035e-01    1.375388652e-01
     5880000000   -2.634437978e-01    5.671414360e-02
     5883000000   -2.665523291e-01   -4.652336985e-02
     5886000000   -2.090311199e-01   -1.429459751e-01
     5889000000   -1.650604010e-01   -2.139854580e-01
     5892000000   -7.392526418e-02   -2.573323846e-01
     5895000000    2.712163515e-02   -2.580715716e-01
     5898000000    1.160672009e-01   -2.457474470e-01
     5901000000    1.896438003e-01   -1.602075994e-01
     5904000000    2.519092560e-01   -1.054355726e-01
     5907000000    2.624613643e-01    2.436588518e-03
     5910000000    2.273499370e-01    9.995763004e-02
     5913000000    1.764045209e-01    1.765500009e-01
     5916000000    1.098206565e-01    2.322920114e-01
     5919000000    8.813986555e-03    2.494725287e-01
     5922000000   -7.900200784e-02    2.453511953e-01
     5925000000   -1.607548147e-01    1.959683150e-01
     5928000000   -2.165271342e-01    1.206803918e-01
     5931000000   -2.474972457e-01    3.477453813e-02
     5934000000   -2.459236979e-01   -5.654535070e-02
     5937000000   -2.043252140e-01   -1.411783546e-01
     5940000000   -1.337161064e-01   -2.031835020e-01
     5943000000   -5.626108870e-02   -2.432348430e-01
     5946000000    3.691012412e-02   -2.368528992e-01
     5949000000    1.247864366e-01   -2.147219479e-01
     5952000000    1.885895878e-01   -1.431654394e-01
     5955000000    2.346284091e-01   -7.240000367e-02
     5958000000    2.436165661e-01    2.171121165e-02
     5961000000    2.315967977e-01    1.111971140e-01
     5964000000    1.582140177e-01    1.771916002e-01
     5967000000    8.464010060e-02    2.243881077e-01
     5970000000   -1.267470652e-03    2.441771179e-01
     5973000000   -8.661327511e-02    2.264587432e-01
     5976000000   -1.634708494e-01    1.748333424e-01
     5979000000   -2.221938372e-01    1.109393686e-01
     5982000000   -2.385469824e-01    2.065707743e-02
     5985000000   -2.246538103e-01   -6.771247834e-02
     5988000000   -1.910076439e-01   -1.460731626e-01
     5991000000   -1.252114028e-01   -2.074285746e-01
     5994000000   -4.087132961e-02   -2.331800759e-01
     5997000000    4.856405407e-02   -2.225031257e-01
     6000000000    1.259142756e-01   -1.984611452e-01
