! NanoVNA-App
! Date: 2026-05-22 16:00:04
! Start: 4.8GHz Stop: 6GHz Points: 401
! S-Parameter data: F S11
# Hz S RI R 50
!     Frequency           S11_Real           S11_Imag
     4800000000    7.775872350e-01   -3.672915697e-02
     4803000000    7.379755378e-01    2.440486848e-01
     4806000000    6.046780944e-01    4.895024896e-01
     4809000000    3.887095451e-01    6.729729772e-01
     4812000000    1.197389364e-01    7.681117654e-01
     4815000000   -1.591592878e-01    7.607371211e-01
     4818000000   -4.241507649e-01    6.512810588e-01
     4821000000   -6.282560229e-01    4.571751356e-01
     4824000000   -7.491474152e-01    2.045041770e-01
     4827000000   -7.720417976e-01   -7.831618190e-02
     4830000000   -6.938076615e-01   -3.473125100e-01
     4833000000   -5.234516859e-01   -5.726019740e-01
     4836000000   -2.834343910e-01   -7.215840816e-01
     4839000000   -7.610963192e-03   -7.747604251e-01
     4842000000    2.727484405e-01   -7.247487903e-01
     4845000000    5.106029510e-01   -5.820584893e-01
     4848000000    6.854114532e-01   -3.577523232e-01
     4851000000    7.683663368e-01   -8.892930299e-02
     4854000000    7.495442629e-01    1.889653206e-01
     4857000000    6.328125000e-01    4.433494806e-01
     4860000000    4.337861538e-01    6.392061710e-01
     4863000000    1.743566245e-01    7.523029447e-01
     4866000000   -1.120795533e-01    7.642732263e-01
     4869000000   -3.731691837e-01    6.758176088e-01
     4872000000   -5.875641704e-01    5.006893277e-01
     4875000000   -7.259750366e-01    2.596675158e-01
     4878000000   -7.709992528e-01   -2.491653897e-02
     4881000000   -7.122761011e-01   -2.947558463e-01
     4884000000   -5.618272424e-01   -5.275045633e-01
     4887000000   -3.329742849e-01   -6.949927807e-01
     4890000000   -6.991941482e-02   -7.671725750e-01
     4893000000    2.116108388e-01   -7.407423854e-01
     4896000000    4.612387419e-01   -6.161658764e-01
     4899000000    6.533386707e-01   -4.098372161e-01
     4902000000    7.546491623e-01   -1.541523039e-01
     4905000000    7.586286664e-01    1.288756430e-01
     4908000000    6.641258597e-01    3.870146573e-01
     4911000000    4.811108708e-01    5.998397470e-01
     4914000000    2.339484096e-01    7.323966622e-01
     4917000000   -3.874431178e-02    7.672862411e-01
     4920000000   -3.090814650e-01    7.007895708e-01
     4923000000   -5.373920798e-01    5.456947684e-01
     4926000000   -6.962938905e-01    3.157837689e-01
     4929000000   -7.632371187e-01    4.908964410e-02
     4932000000   -7.314472795e-01   -2.273436487e-01
     4935000000   -6.007659435e-01   -4.771468341e-01
     4938000000   -3.948147595e-01   -6.555204988e-01
     4941000000   -1.318816543e-01   -7.538440228e-01
     4944000000    1.426397264e-01   -7.498767376e-01
     4947000000    3.987086117e-01   -6.529517174e-01
     4950000000    6.129659414e-01   -4.578513503e-01
     4953000000    7.295445800e-01   -2.220769078e-01
     4956000000    7.621872425e-01    5.223222449e-02
     4959000000    6.943060160e-01    3.241136968e-01
     4962000000    5.316500664e-01    5.492920876e-01
     4965000000    3.028227985e-01    7.004049420e-01
     4968000000    3.610078990e-02    7.621200681e-01
     4971000000   -2.362554371e-01    7.252995372e-01
     4974000000   -4.833769202e-01    5.937722921e-01
     4977000000   -6.655503511e-01    3.782252669e-01
     4980000000   -7.520295978e-01    1.252280921e-01
     4983000000   -7.470582724e-01   -1.503281742e-01
     4986000000   -6.445062160e-01   -4.066080153e-01
     4989000000   -4.561540782e-01   -6.083851457e-01
     4992000000   -2.114279419e-01   -7.314748764e-01
     4995000000    5.627075210e-02   -7.565258145e-01
     4998000000    3.201374710e-01   -6.875776649e-01
     5001000000    5.555987358e-01   -5.202466249e-01
     5004000000    6.903786659e-01   -3.004947901e-01
     5007000000    7.631343603e-01   -2.737918496e-02
     5010000000    7.200373411e-01    2.369062454e-01
     5013000000    5.878618956e-01    4.712147415e-01
     5016000000    3.744267225e-01    6.631710529e-01
     5019000000    1.240602359e-01    7.470412850e-01
     5022000000   -1.481044739e-01    7.414373159e-01
     5025000000   -4.077651203e-01    6.399226785e-01
     5028000000   -6.040529013e-01    4.544926882e-01
     5031000000   -7.288800478e-01    2.077437937e-01
     5034000000   -7.524920106e-01   -5.617745221e-02
     5037000000   -6.826108694e-01   -3.134792745e-01
     5040000000   -5.229473710e-01   -5.426568985e-01
     5043000000   -3.011492491e-01   -6.945686936e-01
     5046000000   -3.242491558e-02   -7.555629015e-01
     5049000000    2.198524922e-01   -7.139508724e-01
     5052000000    4.693617225e-01   -5.888870955e-01
     5055000000    6.465113759e-01   -3.817039430e-01
     5058000000    7.397361398e-01   -1.308290660e-01
     5061000000    7.399839163e-01    1.442943513e-01
     5064000000    6.414060593e-01    3.884702027e-01
     5067000000    4.584205449e-01    5.913664103e-01
     5070000000    2.234121859e-01    7.146643400e-01
     5073000000   -4.686409608e-02    7.513917089e-01
     5076000000   -3.055253327e-01    6.841370463e-01
     5079000000   -5.303560495e-01    5.350229144e-01
     5082000000   -6.812428832e-01    3.127576709e-01
     5085000000   -7.489016652e-01    4.992745817e-02
     5088000000   -7.192692161e-01   -2.128543556e-01
     5091000000   -5.988847613e-01   -4.580784142e-01
     5094000000   -3.956740201e-01   -6.395009160e-01
     5097000000   -1.488203406e-01   -7.313954234e-01
     5100000000    1.255161017e-01   -7.413810492e-01
     5103000000    3.734892905e-01   -6.446358562e-01
     5106000000    5.828043818e-01   -4.795796573e-01
     5109000000    7.133805156e-01   -2.354757190e-01
     5112000000    7.449979782e-01    1.655028760e-02
     5115000000    6.938666105e-01    2.925546467e-01
     5118000000    5.470544696e-01    5.124291182e-01
     5121000000    3.275091350e-01    6.789967418e-01
     5124000000    9.475805610e-02    7.318288088e-01
     5127000000   -2.044758052e-01    7.265818715e-01
     5130000000   -4.265068769e-01    6.119856834e-01
     5133000000   -6.317873001e-01    4.125454426e-01
     5136000000   -7.227103710e-01    1.776529998e-01
     5139000000   -7.390167117e-01   -9.805225581e-02
     5142000000   -6.622289419e-01   -3.508203328e-01
     5145000000   -4.946288466e-01   -5.589031577e-01
     5148000000   -2.616128325e-01   -7.013223171e-01
     5151000000   -7.165977731e-03   -7.415850759e-01
     5154000000    2.563961148e-01   -7.013014555e-01
     5157000000    4.860732257e-01   -5.596526861e-01
     5160000000    6.468782425e-01   -3.621273041e-01
     5163000000    7.368375063e-01   -1.045388356e-01
     5166000000    7.223494649e-01    1.590783596e-01
     5169000000    6.230193973e-01    4.078998566e-01
     5172000000    4.411352575e-01    5.877280831e-01
     5175000000    2.052463740e-01    7.047239542e-01
     5178000000   -6.589428335e-02    7.338019609e-01
     5181000000   -3.083916605e-01    6.619674563e-01
     5184000000   -5.248688459e-01    5.139795542e-01
     5187000000   -6.718170047e-01    2.877165973e-01
     5190000000   -7.181115150e-01    5.727075413e-02
     5193000000   -6.979683042e-01   -2.196903229e-01
     5196000000   -5.704089403e-01   -4.544230998e-01
     5199000000   -3.836977184e-01   -6.084020138e-01
     5202000000   -1.265370101e-01   -7.154203057e-01
     5205000000    1.260896772e-01   -7.089917064e-01
     5208000000    3.695759475e-01   -6.177331805e-01
     5211000000    5.561956763e-01   -4.551593363e-01
     5214000000    6.836314201e-01   -2.228015512e-01
     5217000000    7.156634331e-01    2.978243865e-02
     5220000000    6.563856602e-01    2.804175317e-01
     5223000000    5.117651820e-01    4.948151708e-01
     5226000000    2.984714806e-01    6.434881687e-01
     5229000000    6.288673729e-02    7.067640424e-01
     5232000000   -1.900332123e-01    6.819483638e-01
     5235000000   -4.238596857e-01    5.665309429e-01
     5238000000   -6.009747386e-01    3.732347488e-01
     5241000000   -6.862204671e-01    1.487254202e-01
     5244000000   -6.933119297e-01   -1.108861119e-01
     5247000000   -6.092232466e-01   -3.468896449e-01
     5250000000   -4.444659948e-01   -5.413914323e-01
     5253000000   -2.301994413e-01   -6.579514742e-01
     5256000000    1.938834973e-02   -6.971570253e-01
     5259000000    2.890358865e-01   -6.349303126e-01
     5262000000    4.725988209e-01   -5.048501492e-01
     5265000000    6.244137883e-01   -2.963889539e-01
     5268000000    6.872830391e-01   -6.882005930e-02
     5271000000    6.582306027e-01    1.998475045e-01
     5274000000    5.503204465e-01    4.091948867e-01
     5277000000    3.690404892e-01    5.769984126e-01
     5280000000    1.338353306e-01    6.715414524e-01
     5283000000   -9.752881527e-02    6.782570481e-01
     5286000000   -3.457846940e-01    5.916469097e-01
     5289000000   -5.231739283e-01    4.388794601e-01
     5292000000   -6.452854872e-01    2.096630335e-01
     5295000000   -6.758195162e-01   -2.546143718e-02
     5298000000   -6.254405379e-01   -2.609812915e-01
     5301000000   -4.940632582e-01   -4.650947154e-01
     5304000000   -2.877673209e-01   -6.096904278e-01
     5307000000   -5.465950444e-02   -6.696794629e-01
     5310000000    1.821430027e-01   -6.454901099e-01
     5313000000    3.954661191e-01   -5.421660542e-01
     5316000000    5.612719655e-01   -3.606469333e-01
     5319000000    6.530371308e-01   -1.337133944e-01
     5322000000    6.528846025e-01    1.048446447e-01
     5325000000    5.713310838e-01    3.304498494e-01
     5328000000    4.195704162e-01    5.077814460e-01
     5331000000    2.052301466e-01    6.234000325e-01
     5334000000   -3.166609630e-02    6.534085274e-01
     5337000000   -2.612307668e-01    5.969743729e-01
     5340000000   -4.583081901e-01    4.636442363e-01
     5343000000   -5.902268291e-01    2.701979876e-01
     5346000000   -6.490800381e-01    3.801703081e-02
     5349000000   -6.183267832e-01   -1.920081675e-01
     5352000000   -4.986517429e-01   -4.044306278e-01
     5355000000   -3.462747037e-01   -5.482668877e-01
     5358000000   -1.184969470e-01   -6.340290308e-01
     5361000000    1.209325343e-01   -6.309599280e-01
     5364000000    3.425653577e-01   -5.380331874e-01
     5367000000    5.012660027e-01   -4.045234025e-01
     5370000000    6.091266274e-01   -1.600238979e-01
     5373000000    6.384850144e-01    3.827951103e-02
     5376000000    5.616170764e-01    2.794833481e-01
     5379000000    4.450430572e-01    4.533517659e-01
     5382000000    2.721346617e-01    5.821692944e-01
     5385000000    1.945251017e-03    6.169798374e-01
     5388000000   -2.095180750e-01    5.872479081e-01
     5391000000   -3.937222958e-01    4.946574867e-01
     5394000000   -5.400553346e-01    2.998879850e-01
     5397000000   -6.188460588e-01    9.658449143e-02
     5400000000   -6.100026369e-01   -1.356860846e-01
     5403000000   -5.155533552e-01   -3.429016173e-01
     5406000000   -3.653394282e-01   -5.019923449e-01
     5409000000   -1.506985575e-01   -5.955346227e-01
     5412000000    6.966098398e-02   -6.107466817e-01
     5415000000    2.873610258e-01   -5.392938852e-01
     5418000000    4.561136663e-01   -4.065572619e-01
     5421000000    5.693284273e-01   -2.143165320e-01
     5424000000    6.126587987e-01   -6.506550591e-03
     5427000000    5.517808199e-01    2.295967937e-01
     5430000000    4.572258294e-01    4.055785239e-01
     5433000000    2.660211623e-01    5.393235087e-01
     5436000000    6.052574143e-02    6.005282998e-01
     5439000000   -1.706248373e-01    5.676384568e-01
     5442000000   -3.532727957e-01    4.886476099e-01
     5445000000   -5.029636621e-01    3.088680208e-01
     5448000000   -5.880267024e-01    1.330174655e-01
     5451000000   -5.749333501e-01   -1.067018434e-01
     5454000000   -5.111581683e-01   -3.007475734e-01
     5457000000   -3.646449447e-01   -4.635230303e-01
     5460000000   -1.690610349e-01   -5.588632822e-01
     5463000000    3.340948001e-02   -5.905327797e-01
     5466000000    2.447936088e-01   -5.338743925e-01
     5469000000    4.200743735e-01   -4.032637179e-01
     5472000000    5.400699973e-01   -2.353592813e-01
     5475000000    5.774340630e-01   -1.502507180e-02
     5478000000    5.472122431e-01    1.894728690e-01
     5481000000    4.382751286e-01    3.734452724e-01
     5484000000    2.767307162e-01    5.064393282e-01
     5487000000    7.233948261e-02    5.677026510e-01
     5490000000   -1.328449845e-01    5.633901358e-01
     5493000000   -3.272284269e-01    4.739929140e-01
     5496000000   -4.694577456e-01    3.130595684e-01
     5499000000   -5.652477145e-01    1.379892826e-01
     5502000000   -5.544357300e-01   -8.491452038e-02
     5505000000   -4.952227771e-01   -2.768406570e-01
     5508000000   -3.606777787e-01   -4.359334707e-01
     5511000000   -1.812140346e-01   -5.380121469e-01
     5514000000    2.791066840e-02   -5.591440797e-01
     5517000000    2.293160856e-01   -5.180864930e-01
     5520000000    4.029656351e-01   -4.031107128e-01
     5523000000    5.146402717e-01   -2.227238566e-01
     5526000000    5.578517914e-01   -2.310649306e-02
     5529000000    5.316575170e-01    1.835286319e-01
     5532000000    4.239766598e-01    3.645494580e-01
     5535000000    2.637759745e-01    4.880881906e-01
     5538000000    7.728606462e-02    5.606145859e-01
     5541000000   -1.347793788e-01    5.369608402e-01
     5544000000   -3.179848194e-01    4.551240206e-01
     5547000000   -4.660504758e-01    3.153638244e-01
     5550000000   -5.415827632e-01    1.183215007e-01
     5553000000   -5.496955514e-01   -8.367364854e-02
     5556000000   -4.779254496e-01   -2.771317363e-01
     5559000000   -3.434681594e-01   -4.315128028e-01
     5562000000   -1.676593870e-01   -5.331443548e-01
     5565000000    3.808637708e-02   -5.532341003e-01
     5568000000    2.376845479e-01   -5.017013550e-01
     5571000000    4.058943093e-01   -3.846059442e-01
     5574000000    5.097547174e-01   -2.074111104e-01
     5577000000    5.606158376e-01   -8.245020173e-03
     5580000000    5.189606547e-01    1.934266537e-01
     5583000000    4.156392217e-01    3.711003065e-01
     5586000000    2.549951375e-01    4.946217239e-01
     5589000000    5.720210820e-02    5.548197031e-01
     5592000000   -1.500214785e-01    5.410243869e-01
     5595000000   -3.299486935e-01    4.488211274e-01
     5598000000   -4.706537127e-01    2.977712750e-01
     5601000000   -5.505244732e-01    1.043073460e-01
     5604000000   -5.473305583e-01   -1.024320126e-01
     5607000000   -4.794732630e-01   -2.934471369e-01
     5610000000   -3.378331959e-01   -4.450354874e-01
     5613000000   -1.514134258e-01   -5.419891477e-01
     5616000000    5.427761748e-02   -5.595453382e-01
     5619000000    2.548261881e-01   -5.004962087e-01
     5622000000    4.176359773e-01   -3.791037798e-01
     5625000000    5.279669166e-01   -2.000582516e-01
     5628000000    5.662082434e-01    6.761081051e-03
     5631000000    5.264657140e-01    2.043873966e-01
     5634000000    4.148865640e-01    3.841248453e-01
     5637000000    2.440116853e-01    5.127308369e-01
     5640000000    4.335058108e-02    5.654689670e-01
     5643000000   -1.648286581e-01    5.443575382e-01
     5646000000   -3.509856164e-01    4.475183487e-01
     5649000000   -4.915613234e-01    2.893238068e-01
     5652000000   -5.627416372e-01    9.739367664e-02
     5655000000   -5.604126453e-01   -1.197363213e-01
     5658000000   -4.790570140e-01   -3.162645400e-01
     5661000000   -3.354541063e-01   -4.676092267e-01
     5664000000   -1.416447163e-01   -5.585554838e-01
     5667000000    6.603094935e-02   -5.741860867e-01
     5670000000    2.707978487e-01   -5.104271770e-01
     5673000000    4.371806383e-01   -3.786096275e-01
     5676000000    5.465871692e-01   -1.942449659e-01
     5679000000    5.809180140e-01    1.708329841e-02
     5682000000    5.332055688e-01    2.323673517e-01
     5685000000    4.172031879e-01    4.091331959e-01
     5688000000    2.444005907e-01    5.336922407e-01
     5691000000    3.151185066e-02    5.880908966e-01
     5694000000   -1.859977841e-01    5.578368306e-01
     5697000000   -3.733987808e-01    4.598136842e-01
     5700000000   -5.170680285e-01    2.930693328e-01
     5703000000   -5.884171724e-01    8.599391580e-02
     5706000000   -5.805932879e-01   -1.328690797e-01
     5709000000   -4.953729510e-01   -3.321861029e-01
     5712000000   -3.420132101e-01   -4.928674698e-01
     5715000000   -1.432644576e-01   -5.839110613e-01
     5718000000    8.181735873e-02   -5.972369313e-01
     5721000000    2.914359868e-01   -5.304588079e-01
     5724000000    4.634247720e-01   -3.914153278e-01
     5727000000    5.737209320e-01   -1.994202882e-01
     5730000000    6.098324060e-01    2.315879054e-02
     5733000000    5.621381402e-01    2.433712780e-01
     5736000000    4.336410761e-01    4.305642545e-01
     5739000000    2.561813891e-01    5.602396727e-01
     5742000000    3.512727842e-02    6.165641546e-01
     5745000000   -1.896943599e-01    5.856093764e-01
     5748000000   -3.856747448e-01    4.809601903e-01
     5751000000   -5.341765881e-01    3.047191799e-01
     5754000000   -6.181306839e-01    9.346792102e-02
     5757000000   -6.044511199e-01   -1.379664242e-01
     5760000000   -5.136732459e-01   -3.463272452e-01
     5763000000   -3.577658534e-01   -5.070163012e-01
     5766000000   -1.522425264e-01   -6.121177077e-01
     5769000000    8.071105182e-02   -6.196381450e-01
     5772000000    3.040876389e-01   -5.528342724e-01
     5775000000    4.815518260e-01   -4.055590034e-01
     5778000000    5.964439511e-01   -2.111677825e-01
     5781000000    6.354205012e-01    1.690128259e-02
     5784000000    5.879034996e-01    2.529450059e-01
     5787000000    4.585877955e-01    4.427791536e-01
     5790000000    2.673334777e-01    5.752770305e-01
     5793000000    3.934334591e-02    6.406582594e-01
     5796000000   -1.886339188e-01    6.061694622e-01
     5799000000   -4.012833834e-01    5.013710260e-01
     5802000000   -5.538407564e-01    3.234782815e-01
     5805000000   -6.320866942e-01    1.030227989e-01
     5808000000   -6.365456581e-01   -1.380694956e-01
     5811000000   -5.389750004e-01   -3.487937450e-01
     5814000000   -3.814727068e-01   -5.261476040e-01
     5817000000   -1.643800586e-01   -6.279137135e-01
     5820000000    7.348136604e-02   -6.407082081e-01
     5823000000    2.966782749e-01   -5.721586347e-01
     5826000000    4.930487871e-01   -4.271180928e-01
     5829000000    6.168432832e-01   -2.247577310e-01
     5832000000    6.580579281e-01    1.501195878e-02
     5835000000    6.034445763e-01    2.457256168e-01
     5838000000    4.780604243e-01    4.626135826e-01
     5841000000    2.818623185e-01    5.958945751e-01
     5844000000    5.018208548e-02    6.604945064e-01
     5847000000   -1.922411174e-01    6.330459714e-01
     5850000000   -4.094406366e-01    5.227230787e-01
     5853000000   -5.716108084e-01    3.399386406e-01
     5856000000   -6.556801796e-01    1.147461310e-01
     5859000000   -6.601936817e-01   -1.373305470e-01
     5862000000   -5.666701198e-01   -3.616791964e-01
     5865000000   -3.984890878e-01   -5.428422689e-01
     5868000000   -1.765790135e-01   -6.488739252e-01
     5871000000    7.301523536e-02   -6.729670763e-01
     5874000000    3.087971509e-01   -6.047980189e-01
     5877000000    5.065761209e-01   -4.507139623e-01
     5880000000    6.242617965e-01   -2.463747263e-01
     5883000000    6.834034920e-01    6.049238145e-03
     5886000000    6.287820339e-01    2.515958548e-01
     5889000000    4.963122904e-01    4.686491489e-01
     5892000000    2.945952415e-01    6.248714328e-01
     5895000000    7.321158051e-02    6.726083159e-01
     5898000000   -1.930875480e-01    6.587447524e-01
     5901000000   -4.242046177e-01    5.497306585e-01
     5904000000   -5.766414404e-01    3.630492985e-01
     5907000000   -6.850392818e-01    1.169000939e-01
     5910000000   -6.795605421e-01   -1.163272709e-01
     5913000000   -5.847017765e-01   -3.635664582e-01
     5916000000   -4.220191836e-01   -5.624482632e-01
     5919000000   -1.863965243e-01   -6.669771671e-01
     5922000000    6.397833675e-02   -6.906168461e-01
     5925000000    3.102946579e-01   -6.253063679e-01
     5928000000    5.103089809e-01   -4.737881422e-01
     5931000000    6.565079093e-01   -2.511452436e-01
     5934000000    6.941905022e-01   -2.776929177e-03
     5937000000    6.507490873e-01    2.496484816e-01
     5940000000    5.182228684e-01    4.827341735e-01
     5943000000    3.162885308e-01    6.156036854e-01
     5946000000    5.986957252e-02    7.052103877e-01
     5949000000   -1.722193509e-01    6.742662787e-01
     5952000000   -4.053881764e-01    5.642651916e-01
     5955000000   -6.030861735e-01    3.719619215e-01
     5958000000   -6.857573390e-01    1.354189217e-01
     5961000000   -6.928510666e-01   -1.295010597e-01
     5964000000   -6.005473137e-01   -3.726197481e-01
     5967000000   -4.356490374e-01   -5.505869389e-01
     5970000000   -1.887149960e-01   -6.840912700e-01
     5973000000    5.477155373e-02   -7.073391676e-01
     5976000000    3.111696243e-01   -6.315620542e-01
     5979000000    5.208132267e-01   -4.773340523e-01
     5982000000    6.525399089e-01   -2.693114281e-01
     5985000000    7.114494443e-01    2.767240396e-03
     5988000000    6.635100245e-01    2.436171472e-01
     5991000000    5.265720487e-01    4.809620976e-01
     5994000000    3.331555724e-01    6.248889565e-01
     5997000000    7.684215158e-02    7.080995440e-01
     6000000000   -1.806119829e-01    6.883078218e-01
