! NanoVNA-App
! Date: 2026-05-22 19:29:55
! Start: 800MHz Stop: 1.2GHz Points: 401
! S-Parameter data: F S11
# Hz S RI R 50
!     Frequency           S11_Real           S11_Imag
      800000000    4.339429140e-01   -2.150354087e-01
      801000000    4.528028667e-01   -1.550871432e-01
      802000000    4.640718102e-01   -9.438720345e-02
      803000000    4.680059850e-01   -3.168919683e-02
      804000000    4.643275142e-01    3.107847646e-02
      805000000    4.528140128e-01    9.111619741e-02
      806000000    4.346746802e-01    1.496965140e-01
      807000000    4.094887674e-01    2.045556307e-01
      808000000    3.780056834e-01    2.556699514e-01
      809000000    3.416457474e-01    3.013713360e-01
      810000000    2.981756330e-01    3.435010314e-01
      811000000    2.511237264e-01    3.790766895e-01
      812000000    2.014236450e-01    4.071573913e-01
      813000000    1.483556181e-01    4.291850924e-01
      814000000    9.310384840e-02    4.445901215e-01
      815000000    3.687938675e-02    4.522927105e-01
      816000000   -1.858079992e-02    4.529053569e-01
      817000000   -7.391814142e-02    4.465489686e-01
      818000000   -1.268750727e-01    4.333323240e-01
      819000000   -1.782333106e-01    4.133198261e-01
      820000000   -2.260387540e-01    3.874629140e-01
      821000000   -2.683114111e-01    3.554880023e-01
      822000000   -3.074001968e-01    3.184458911e-01
      823000000   -3.410684168e-01    2.768442929e-01
      824000000   -3.685812652e-01    2.311566621e-01
      825000000   -3.905084431e-01    1.822227389e-01
      826000000   -4.057229459e-01    1.311487556e-01
      827000000   -4.154918790e-01    7.837623358e-02
      828000000   -4.178376198e-01    2.551739290e-02
      829000000   -4.147379994e-01   -2.725447528e-02
      830000000   -4.048006237e-01   -7.900971919e-02
      831000000   -3.891105056e-01   -1.281852573e-01
      832000000   -3.675238788e-01   -1.753441542e-01
      833000000   -3.402560949e-01   -2.186528146e-01
      834000000   -3.090393543e-01   -2.579858899e-01
      835000000   -2.724373639e-01   -2.925381660e-01
      836000000   -2.322061807e-01   -3.225865960e-01
      837000000   -1.896982342e-01   -3.460464776e-01
      838000000   -1.444688141e-01   -3.641924560e-01
      839000000   -9.699635208e-02   -3.765414059e-01
      840000000   -4.939857498e-02   -3.826706707e-01
      841000000   -8.511075284e-04   -3.834965825e-01
      842000000    4.681576043e-02   -3.777016401e-01
      843000000    9.317398071e-02   -3.667968512e-01
      844000000    1.374394745e-01   -3.505945206e-01
      845000000    1.785557866e-01   -3.287571669e-01
      846000000    2.159556746e-01   -3.035306036e-01
      847000000    2.502298653e-01   -2.721233368e-01
      848000000    2.794420421e-01   -2.382782847e-01
      849000000    3.042457104e-01   -2.005129755e-01
      850000000    3.234926462e-01   -1.611143202e-01
      851000000    3.383391500e-01   -1.186459437e-01
      852000000    3.473745883e-01   -7.688277215e-02
      853000000    3.517906070e-01   -3.338963538e-02
      854000000    3.507763445e-01    8.711104281e-03
      855000000    3.445467353e-01    4.958480224e-02
      856000000    3.331387639e-01    8.901689947e-02
      857000000    3.175065815e-01    1.252826750e-01
      858000000    2.968331873e-01    1.595819294e-01
      859000000    2.721184492e-01    1.894432604e-01
      860000000    2.443939000e-01    2.152165174e-01
      861000000    2.125846893e-01    2.375397086e-01
      862000000    1.787912846e-01    2.550772429e-01
      863000000    1.423565894e-01    2.683745027e-01
      864000000    1.047725901e-01    2.775777578e-01
      865000000    6.736290455e-02    2.818001807e-01
      866000000    2.965827845e-02    2.821578085e-01
      867000000   -7.831213996e-03    2.778905928e-01
      868000000   -4.258465394e-02    2.695485055e-01
      869000000   -7.559774816e-02    2.573592365e-01
      870000000   -1.061337963e-01    2.406228185e-01
      871000000   -1.337424070e-01    2.208292037e-01
      872000000   -1.590012610e-01    1.967485845e-01
      873000000   -1.801968664e-01    1.710947305e-01
      874000000   -1.973247677e-01    1.427931190e-01
      875000000   -2.114767581e-01    1.130126640e-01
      876000000   -2.217635065e-01    8.275601268e-02
      877000000   -2.281197757e-01    5.204409361e-02
      878000000   -2.297974825e-01    2.091024444e-02
      879000000   -2.280256301e-01   -7.418725640e-03
      880000000   -2.224113941e-01   -3.572932258e-02
      881000000   -2.127195597e-01   -6.241374090e-02
      882000000   -2.004716843e-01   -8.599796891e-02
      883000000   -1.850384474e-01   -1.075411737e-01
      884000000   -1.660945565e-01   -1.266323477e-01
      885000000   -1.457536370e-01   -1.420759857e-01
      886000000   -1.229859143e-01   -1.543585807e-01
      887000000   -9.968882054e-02   -1.638503224e-01
      888000000   -7.545299828e-02   -1.695094258e-01
      889000000   -5.091080815e-02   -1.725051701e-01
      890000000   -2.717127092e-02   -1.711488366e-01
      891000000   -3.256719327e-03   -1.668213457e-01
      892000000    1.855815575e-02   -1.597753465e-01
      893000000    3.863134980e-02   -1.491110921e-01
      894000000    5.736775324e-02   -1.364487410e-01
      895000000    7.329859585e-02   -1.212073565e-01
      896000000    8.717131615e-02   -1.038812250e-01
      897000000    9.848409146e-02   -8.556524664e-02
      898000000    1.067153886e-01   -6.589693576e-02
      899000000    1.117786691e-01   -4.575116187e-02
      900000000    1.133074611e-01   -2.603499219e-02
      901000000    1.129101664e-01   -5.224967375e-03
      902000000    1.094291881e-01    1.317295805e-02
      903000000    1.031304225e-01    3.129476681e-02
      904000000    9.398350865e-02    4.770325497e-02
      905000000    8.302277327e-02    6.221048534e-02
      906000000    6.995160878e-02    7.431350648e-02
      907000000    5.527342483e-02    8.434376866e-02
      908000000    3.960516304e-02    9.181194752e-02
      909000000    2.292509936e-02    9.637460113e-02
      910000000    6.342099514e-03    9.780676663e-02
      911000000   -1.063974947e-02    9.669997543e-02
      912000000   -2.652627975e-02    9.267496318e-02
      913000000   -4.262122512e-02    8.639687300e-02
      914000000   -5.611405149e-02    7.762750238e-02
      915000000   -6.820309162e-02    6.665369123e-02
      916000000   -7.781506330e-02    5.307336524e-02
      917000000   -8.526327461e-02    3.798000887e-02
      918000000   -9.029320627e-02    2.081396803e-02
      919000000   -9.231545776e-02    2.463798271e-03
      920000000   -9.211169183e-02   -1.641928591e-02
      921000000   -8.926640451e-02   -3.544848785e-02
      922000000   -8.330878615e-02   -5.357312411e-02
      923000000   -7.525558025e-02   -7.159743458e-02
      924000000   -6.396048516e-02   -8.715333790e-02
      925000000   -4.968114197e-02   -1.017692387e-01
      926000000   -3.353564441e-02   -1.144470051e-01
      927000000   -1.491572056e-02   -1.238502860e-01
      928000000    4.942970816e-03   -1.309310198e-01
      929000000    2.693695202e-02   -1.349707991e-01
      930000000    4.941592366e-02   -1.355700940e-01
      931000000    7.251595706e-02   -1.332925111e-01
      932000000    9.634000063e-02   -1.272481233e-01
      933000000    1.189653724e-01   -1.187229529e-01
      934000000    1.407499462e-01   -1.065404788e-01
      935000000    1.611693650e-01   -9.144899249e-02
      936000000    1.791494489e-01   -7.343588769e-02
      937000000    1.947059184e-01   -5.248345807e-02
      938000000    2.072596550e-01   -2.843237296e-02
      939000000    2.165731043e-01   -3.193502547e-03
      940000000    2.221627086e-01    2.464306355e-02
      941000000    2.244843990e-01    5.284040794e-02
      942000000    2.223511785e-01    8.261173964e-02
      943000000    2.164863497e-01    1.116382331e-01
      944000000    2.070398033e-01    1.406893432e-01
      945000000    1.926211268e-01    1.696279496e-01
      946000000    1.746415794e-01    1.959010363e-01
      947000000    1.533387303e-01    2.204136848e-01
      948000000    1.287140548e-01    2.427653819e-01
      949000000    9.995552152e-02    2.610786259e-01
      950000000    6.853877753e-02    2.761455178e-01
      951000000    3.518502787e-02    2.872470617e-01
      952000000   -7.605668507e-04    2.937857211e-01
      953000000   -3.686955199e-02    2.952931225e-01
      954000000   -7.405570149e-02    2.917007208e-01
      955000000   -1.121569276e-01    2.836263776e-01
      956000000   -1.507726759e-01    2.699674666e-01
      957000000   -1.856962293e-01    2.523778975e-01
      958000000   -2.207434475e-01    2.294342965e-01
      959000000   -2.532924712e-01    2.018137574e-01
      960000000   -2.837874889e-01    1.704661250e-01
      961000000   -3.087898791e-01    1.344110072e-01
      962000000   -3.305971622e-01    9.557800740e-02
      963000000   -3.475888669e-01    5.392385647e-02
      964000000   -3.595375717e-01    9.492729791e-03
      965000000   -3.659116030e-01   -3.571669385e-02
      966000000   -3.671006858e-01   -8.237391710e-02
      967000000   -3.619358838e-01   -1.285904348e-01
      968000000   -3.504821062e-01   -1.753205955e-01
      969000000   -3.338055611e-01   -2.196735144e-01
      970000000   -3.108795881e-01   -2.633417547e-01
      971000000   -2.824466825e-01   -3.035145104e-01
      972000000   -2.486320585e-01   -3.411251903e-01
      973000000   -2.105062604e-01   -3.733331263e-01
      974000000   -1.670543998e-01   -4.015068412e-01
      975000000   -1.206597015e-01   -4.248083234e-01
      976000000   -7.144787908e-02   -4.415484071e-01
      977000000   -1.913064532e-02   -4.507651329e-01
      978000000    3.559497371e-02   -4.554993808e-01
      979000000    8.897992969e-02   -4.533787966e-01
      980000000    1.446229666e-01   -4.442687035e-01
      981000000    1.979564577e-01   -4.283342063e-01
      982000000    2.492934018e-01   -4.060185850e-01
      983000000    3.003870845e-01   -3.761039376e-01
      984000000    3.468471169e-01   -3.410136700e-01
      985000000    3.878859878e-01   -3.004673719e-01
      986000000    4.249373674e-01   -2.539317906e-01
      987000000    4.561304748e-01   -2.022503912e-01
      988000000    4.817165136e-01   -1.472476125e-01
      989000000    5.008906126e-01   -8.948109299e-02
      990000000    5.116804242e-01   -2.848899364e-02
      991000000    5.167618394e-01    3.470992669e-02
      992000000    5.132153630e-01    9.691575915e-02
      993000000    5.025837421e-01    1.590036601e-01
      994000000    4.832575023e-01    2.215700746e-01
      995000000    4.568749070e-01    2.797403634e-01
      996000000    4.227091372e-01    3.359606266e-01
      997000000    3.825740516e-01    3.867967427e-01
      998000000    3.354182839e-01    4.331828952e-01
      999000000    2.817287147e-01    4.748507738e-01
     1000000000    2.233813703e-01    5.098377466e-01
     1001000000    1.613669246e-01    5.376607776e-01
     1002000000    9.632331878e-02    5.578244925e-01
     1003000000    2.692656033e-02    5.701271892e-01
     1004000000   -4.289653525e-02    5.739171505e-01
     1005000000   -1.128348410e-01    5.691308975e-01
     1006000000   -1.826006323e-01    5.561640859e-01
     1007000000   -2.505404055e-01    5.345861912e-01
     1008000000   -3.155030310e-01    5.048879385e-01
     1009000000   -3.769715726e-01    4.667253792e-01
     1010000000   -4.336414933e-01    4.218184054e-01
     1011000000   -4.855429530e-01    3.688532114e-01
     1012000000   -5.303838253e-01    3.101448417e-01
     1013000000   -5.672339201e-01    2.465382069e-01
     1014000000   -5.971018672e-01    1.778296530e-01
     1015000000   -6.191606522e-01    1.059680432e-01
     1016000000   -6.320445538e-01    3.096272238e-02
     1017000000   -6.360582113e-01   -4.565357044e-02
     1018000000   -6.301013231e-01   -1.223916933e-01
     1019000000   -6.153497696e-01   -1.974328160e-01
     1020000000   -5.907310247e-01   -2.723745108e-01
     1021000000   -5.589660406e-01   -3.411267996e-01
     1022000000   -5.162335038e-01   -4.093870521e-01
     1023000000   -4.676579237e-01   -4.710917175e-01
     1024000000   -4.112911820e-01   -5.255829692e-01
     1025000000   -3.471910954e-01   -5.740141869e-01
     1026000000   -2.780713439e-01   -6.146307588e-01
     1027000000   -2.047091424e-01   -6.469689608e-01
     1028000000   -1.264011711e-01   -6.693973541e-01
     1029000000   -4.731580988e-02   -6.823097467e-01
     1030000000    3.422152996e-02   -6.858243942e-01
     1031000000    1.157952324e-01   -6.791816950e-01
     1032000000    1.964720935e-01   -6.631021500e-01
     1033000000    2.750853896e-01   -6.361171007e-01
     1034000000    3.492733836e-01   -6.009202600e-01
     1035000000    4.222573340e-01   -5.550320745e-01
     1036000000    4.861679077e-01   -5.027731657e-01
     1037000000    5.446237922e-01   -4.411617219e-01
     1038000000    5.959403515e-01   -3.734468818e-01
     1039000000    6.388610005e-01   -3.000840545e-01
     1040000000    6.733078361e-01   -2.203721255e-01
     1041000000    6.970090866e-01   -1.385003775e-01
     1042000000    7.113044858e-01   -5.340968072e-02
     1043000000    7.153594494e-01    3.321547806e-02
     1044000000    7.089080215e-01    1.203264669e-01
     1045000000    6.916864514e-01    2.053376436e-01
     1046000000    6.640805602e-01    2.876515388e-01
     1047000000    6.261899471e-01    3.680993915e-01
     1048000000    5.799356103e-01    4.416532815e-01
     1049000000    5.248255730e-01    5.087894201e-01
     1050000000    4.592588246e-01    5.724310875e-01
     1051000000    3.916199803e-01    6.234366298e-01
     1052000000    3.132564425e-01    6.683688164e-01
     1053000000    2.317917943e-01    7.033261657e-01
     1054000000    1.464169472e-01    7.283080220e-01
     1055000000    5.689293519e-02    7.426618934e-01
     1056000000   -3.213414922e-02    7.453024983e-01
     1057000000   -1.197330430e-01    7.376558185e-01
     1058000000   -2.087477148e-01    7.197480202e-01
     1059000000   -2.933720052e-01    6.910178065e-01
     1060000000   -3.756802380e-01    6.518793106e-01
     1061000000   -4.520499706e-01    6.020939946e-01
     1062000000   -5.214427710e-01    5.439750552e-01
     1063000000   -5.845547318e-01    4.771926403e-01
     1064000000   -6.382660270e-01    4.053380489e-01
     1065000000   -6.827355623e-01    3.253108561e-01
     1066000000   -7.177778482e-01    2.404874861e-01
     1067000000   -7.419646382e-01    1.529279798e-01
     1068000000   -7.547085285e-01    6.008135527e-02
     1069000000   -7.578336000e-01   -3.239443898e-02
     1070000000   -7.491559982e-01   -1.237117350e-01
     1071000000   -7.285000682e-01   -2.147925198e-01
     1072000000   -6.968605518e-01   -3.033730090e-01
     1073000000   -6.567488909e-01   -3.856140375e-01
     1074000000   -6.052354574e-01   -4.640406966e-01
     1075000000   -5.453357100e-01   -5.343727469e-01
     1076000000   -4.766118228e-01   -5.979830027e-01
     1077000000   -4.008793235e-01   -6.522473097e-01
     1078000000   -3.196998239e-01   -6.969553232e-01
     1079000000   -2.322632968e-01   -7.317337394e-01
     1080000000   -1.410796493e-01   -7.553293705e-01
     1081000000   -4.992185161e-02   -7.688598037e-01
     1082000000    4.493114725e-02   -7.696747780e-01
     1083000000    1.365559399e-01   -7.599369287e-01
     1084000000    2.277256846e-01   -7.382029891e-01
     1085000000    3.179610074e-01   -7.046956420e-01
     1086000000    4.002597332e-01   -6.626648903e-01
     1087000000    4.792517126e-01   -6.083934903e-01
     1088000000    5.481034517e-01   -5.479609966e-01
     1089000000    6.129850149e-01   -4.748237729e-01
     1090000000    6.650103927e-01   -3.991260827e-01
     1091000000    7.096431255e-01   -3.130314946e-01
     1092000000    7.420232296e-01   -2.254846692e-01
     1093000000    7.649036646e-01   -1.337755024e-01
     1094000000    7.758299112e-01   -3.942733258e-02
     1095000000    7.746478319e-01    5.540410802e-02
     1096000000    7.623378038e-01    1.491718739e-01
     1097000000    7.382467985e-01    2.409415543e-01
     1098000000    7.027801275e-01    3.294925094e-01
     1099000000    6.578998566e-01    4.123797119e-01
     1100000000    6.018861532e-01    4.906502664e-01
     1101000000    5.358927250e-01    5.617063642e-01
     1102000000    4.644610286e-01    6.216081977e-01
     1103000000    3.842007220e-01    6.745283008e-01
     1104000000    2.961275280e-01    7.180857658e-01
     1105000000    2.076176256e-01    7.482264638e-01
     1106000000    1.133518517e-01    7.682862282e-01
     1107000000    1.671265066e-02    7.760947347e-01
     1108000000   -7.723638415e-02    7.738656402e-01
     1109000000   -1.731449366e-01    7.583387494e-01
     1110000000   -2.631834149e-01    7.324539423e-01
     1111000000   -3.530912399e-01    6.940379143e-01
     1112000000   -4.345234931e-01    6.463831067e-01
     1113000000   -5.113286972e-01    5.882620811e-01
     1114000000   -5.806041956e-01    5.207089782e-01
     1115000000   -6.402508020e-01    4.459597170e-01
     1116000000   -6.912953258e-01    3.620243073e-01
     1117000000   -7.299568057e-01    2.781281173e-01
     1118000000   -7.591955066e-01    1.831269562e-01
     1119000000   -7.767044902e-01    9.310115129e-02
     1120000000   -7.817827463e-01   -4.640740808e-03
     1121000000   -7.755685449e-01   -1.003384516e-01
     1122000000   -7.586095333e-01   -1.949441284e-01
     1123000000   -7.285937071e-01   -2.862828970e-01
     1124000000   -6.867486238e-01   -3.755689263e-01
     1125000000   -6.357079744e-01   -4.554312229e-01
     1126000000   -5.764883161e-01   -5.292922854e-01
     1127000000   -5.066473484e-01   -5.963847041e-01
     1128000000   -4.291472733e-01   -6.547802091e-01
     1129000000   -3.443947732e-01   -7.023227811e-01
     1130000000   -2.549596131e-01   -7.395736575e-01
     1131000000   -1.649731845e-01   -7.638598680e-01
     1132000000   -6.782688946e-02   -7.781376243e-01
     1133000000    2.754306793e-02   -7.802336812e-01
     1134000000    1.232786775e-01   -7.707269192e-01
     1135000000    2.190411240e-01   -7.490946054e-01
     1136000000    3.096572161e-01   -7.157826424e-01
     1137000000    3.917498291e-01   -6.743372083e-01
     1138000000    4.746232927e-01   -6.186015606e-01
     1139000000    5.466496944e-01   -5.546531081e-01
     1140000000    6.099232435e-01   -4.834003150e-01
     1141000000    6.635918617e-01   -4.056831598e-01
     1142000000    7.089856863e-01   -3.195332587e-01
     1143000000    7.431467175e-01   -2.288364917e-01
     1144000000    7.653476596e-01   -1.341979504e-01
     1145000000    7.746565342e-01   -3.776339069e-02
     1146000000    7.731322050e-01    5.859542638e-02
     1147000000    7.601843476e-01    1.525752246e-01
     1148000000    7.342154384e-01    2.469361573e-01
     1149000000    6.986239552e-01    3.357840776e-01
     1150000000    6.507634521e-01    4.198234677e-01
     1151000000    5.940223932e-01    4.980100989e-01
     1152000000    5.281439424e-01    5.670415163e-01
     1153000000    4.521269202e-01    6.292101741e-01
     1154000000    3.727435172e-01    6.795694828e-01
     1155000000    2.857784629e-01    7.212372422e-01
     1156000000    1.930533051e-01    7.513108850e-01
     1157000000    1.007210687e-01    7.694554329e-01
     1158000000    2.799640875e-03    7.761163116e-01
     1159000000   -9.297680855e-02    7.708841562e-01
     1160000000   -1.882660836e-01    7.526356578e-01
     1161000000   -2.778041661e-01    7.238402367e-01
     1162000000   -3.653064966e-01    6.834496260e-01
     1163000000   -4.486332834e-01    6.314975619e-01
     1164000000   -5.199115276e-01    5.728056431e-01
     1165000000   -5.891804695e-01    5.009469986e-01
     1166000000   -6.461256742e-01    4.245051146e-01
     1167000000   -6.937859058e-01    3.404703438e-01
     1168000000   -7.303878069e-01    2.505800128e-01
     1169000000   -7.561905980e-01    1.576780677e-01
     1170000000   -7.695963383e-01    6.165049598e-02
     1171000000   -7.722510695e-01   -3.307664394e-02
     1172000000   -7.619587183e-01   -1.311347187e-01
     1173000000   -7.399765849e-01   -2.246178240e-01
     1174000000   -7.064070106e-01   -3.141159713e-01
     1175000000   -6.609340906e-01   -4.023359716e-01
     1176000000   -6.069782376e-01   -4.798842072e-01
     1177000000   -5.425046682e-01   -5.519853234e-01
     1178000000   -4.722622037e-01   -6.140393019e-01
     1179000000   -3.881114423e-01   -6.698198915e-01
     1180000000   -3.032676280e-01   -7.134714723e-01
     1181000000   -2.123864442e-01   -7.457376122e-01
     1182000000   -1.182673275e-01   -7.665039301e-01
     1183000000   -2.116818912e-02   -7.754728198e-01
     1184000000    7.518049330e-02   -7.730515599e-01
     1185000000    1.695948541e-01   -7.577968240e-01
     1186000000    2.632659972e-01   -7.313767672e-01
     1187000000    3.537377715e-01   -6.915873289e-01
     1188000000    4.367665052e-01   -6.430490613e-01
     1189000000    5.129725337e-01   -5.836920738e-01
     1190000000    5.827400088e-01   -5.165712833e-01
     1191000000    6.416106820e-01   -4.412444830e-01
     1192000000    6.937164664e-01   -3.552499712e-01
     1193000000    7.337198257e-01   -2.647255659e-01
     1194000000    7.612154484e-01   -1.723979115e-01
     1195000000    7.785774469e-01   -7.641086727e-02
     1196000000    7.830685973e-01    2.195203118e-02
     1197000000    7.754122615e-01    1.191183180e-01
     1198000000    7.557838559e-01    2.151727527e-01
     1199000000    7.244584560e-01    3.090004325e-01
     1200000000    6.828327775e-01    3.937108517e-01
