! NanoVNA-App
! Date: 2026-05-22 18:38:00
! Start: 2.3GHz Stop: 2.6GHz Points: 401
! S-Parameter data: F S11
# Hz S RI R 50
!     Frequency           S11_Real           S11_Imag
     2300000000   -4.655021727e-01   -1.509086639e-01
     2300750000   -4.495736361e-01   -1.900376230e-01
     2301500000   -4.300647974e-01   -2.276532203e-01
     2302250000   -4.067306817e-01   -2.646852434e-01
     2303000000   -3.807483613e-01   -2.981269658e-01
     2303750000   -3.518284857e-01   -3.305289149e-01
     2304500000   -3.218112588e-01   -3.574257791e-01
     2305250000   -2.885874808e-01   -3.826753795e-01
     2306000000   -2.522507012e-01   -4.059651792e-01
     2306750000   -2.163826078e-01   -4.243569672e-01
     2307500000   -1.765821576e-01   -4.407551587e-01
     2308250000   -1.376937777e-01   -4.524092674e-01
     2309000000   -9.576906264e-02   -4.617507458e-01
     2309750000   -5.567378551e-02   -4.664292634e-01
     2310500000   -1.439061575e-02   -4.680188596e-01
     2311250000    2.723477222e-02   -4.654100835e-01
     2312000000    6.786323339e-02   -4.598256350e-01
     2312750000    1.068332940e-01   -4.500643611e-01
     2313500000    1.470123231e-01   -4.373930693e-01
     2314250000    1.829858571e-01   -4.214180112e-01
     2315000000    2.199127674e-01   -4.021995068e-01
     2315750000    2.532103360e-01   -3.802550435e-01
     2316500000    2.851936519e-01   -3.550480306e-01
     2317250000    3.142414987e-01   -3.274152577e-01
     2318000000    3.417228460e-01   -2.972756028e-01
     2318750000    3.646619618e-01   -2.654721737e-01
     2319500000    3.849253654e-01   -2.327512205e-01
     2320250000    4.033306837e-01   -1.968217939e-01
     2321000000    4.174947143e-01   -1.602713019e-01
     2321750000    4.278500080e-01   -1.235577464e-01
     2322500000    4.368793666e-01   -8.379770815e-02
     2323250000    4.403876364e-01   -4.647616297e-02
     2324000000    4.410166144e-01   -7.075193804e-03
     2324750000    4.381524026e-01    2.814669162e-02
     2325500000    4.319294393e-01    6.957238168e-02
     2326250000    4.228643477e-01    1.054779589e-01
     2327000000    4.099318087e-01    1.400609314e-01
     2327750000    3.940808177e-01    1.760906726e-01
     2328500000    3.757905960e-01    2.088945359e-01
     2329250000    3.532504141e-01    2.404276133e-01
     2330000000    3.306931555e-01    2.669470310e-01
     2330750000    3.036177158e-01    2.947822809e-01
     2331500000    2.753365636e-01    3.181808293e-01
     2332250000    2.439874262e-01    3.413533866e-01
     2333000000    2.123499513e-01    3.592316508e-01
     2333750000    1.793339550e-01    3.742809594e-01
     2334500000    1.444235444e-01    3.877674341e-01
     2335250000    1.089343727e-01    3.975344300e-01
     2336000000    7.289801538e-02    4.039545059e-01
     2336750000    3.637996688e-02    4.076494575e-01
     2337500000    1.073470456e-03    4.072031677e-01
     2338250000   -3.506756574e-02    4.044166505e-01
     2339000000   -7.077047229e-02    3.982709944e-01
     2339750000   -1.046097875e-01    3.894634247e-01
     2340500000   -1.379248053e-01    3.764883876e-01
     2341250000   -1.692320555e-01    3.618398011e-01
     2342000000   -1.996967793e-01    3.443048596e-01
     2342750000   -2.286957204e-01    3.236264884e-01
     2343500000   -2.536396682e-01    3.009242713e-01
     2344250000   -2.778072953e-01    2.761798501e-01
     2345000000   -3.001867831e-01    2.496362031e-01
     2345750000   -3.187031448e-01    2.208240181e-01
     2346500000   -3.354631662e-01    1.908517927e-01
     2347250000   -3.498855829e-01    1.587327868e-01
     2348000000   -3.603840768e-01    1.271753460e-01
     2348750000   -3.681277037e-01    9.448443353e-02
     2349500000   -3.741856217e-01    6.032264233e-02
     2350250000   -3.766339421e-01    2.708913386e-02
     2351000000   -3.758485615e-01   -5.279241130e-03
     2351750000   -3.717882633e-01   -3.737107292e-02
     2352500000   -3.661495447e-01   -7.015360892e-02
     2353250000   -3.568322062e-01   -1.030359641e-01
     2354000000   -3.451792002e-01   -1.340683252e-01
     2354750000   -3.310863972e-01   -1.618485451e-01
     2355500000   -3.136065900e-01   -1.907594502e-01
     2356250000   -2.950248718e-01   -2.157235891e-01
     2357000000   -2.740649879e-01   -2.394909710e-01
     2357750000   -2.502352893e-01   -2.625902891e-01
     2358500000   -2.260566354e-01   -2.804754376e-01
     2359250000   -1.989294142e-01   -2.995395362e-01
     2360000000   -1.724998355e-01   -3.136104643e-01
     2360750000   -1.435349435e-01   -3.252997100e-01
     2361500000   -1.136635244e-01   -3.366177380e-01
     2362250000   -8.463191986e-02   -3.426214457e-01
     2363000000   -5.436821282e-02   -3.468820453e-01
     2363750000   -2.396077849e-02   -3.487880230e-01
     2364500000    5.641641561e-03   -3.476880193e-01
     2365250000    3.552693129e-02   -3.442349434e-01
     2366000000    6.374008209e-02   -3.375732899e-01
     2366750000    9.253192693e-02   -3.290216327e-01
     2367500000    1.192564592e-01   -3.176092505e-01
     2368250000    1.456121206e-01   -3.038220704e-01
     2369000000    1.696012020e-01   -2.879733741e-01
     2369750000    1.929263026e-01   -2.698560357e-01
     2370500000    2.131609172e-01   -2.500065863e-01
     2371250000    2.325206101e-01   -2.289668322e-01
     2372000000    2.503564954e-01   -2.065807134e-01
     2372750000    2.662147880e-01   -1.813727021e-01
     2373500000    2.794159055e-01   -1.564998180e-01
     2374250000    2.901623845e-01   -1.303933412e-01
     2375000000    2.986801863e-01   -1.040272564e-01
     2375750000    3.053759336e-01   -7.686054707e-02
     2376500000    3.092047870e-01   -4.969850928e-02
     2377250000    3.108976781e-01   -2.124913223e-02
     2378000000    3.101381958e-01    5.933654029e-03
     2378750000    3.073855042e-01    3.291092068e-02
     2379500000    3.017072082e-01    5.886591226e-02
     2380250000    2.937444448e-01    8.343081921e-02
     2381000000    2.847751379e-01    1.108657122e-01
     2381750000    2.723258138e-01    1.333587468e-01
     2382500000    2.592909932e-01    1.534273624e-01
     2383250000    2.432558537e-01    1.764505953e-01
     2384000000    2.259235680e-01    1.959783733e-01
     2384750000    2.075822353e-01    2.124064863e-01
     2385500000    1.873176098e-01    2.264773250e-01
     2386250000    1.657907516e-01    2.417747527e-01
     2387000000    1.434552372e-01    2.536312044e-01
     2387750000    1.209030822e-01    2.624027729e-01
     2388500000    9.659525752e-02    2.689236403e-01
     2389250000    7.249814272e-02    2.749177516e-01
     2390000000    4.944133386e-02    2.755019665e-01
     2390750000    2.371911891e-02    2.767182291e-01
     2391500000   -1.351211453e-03    2.766122818e-01
     2392250000   -2.417856269e-02    2.720788419e-01
     2393000000   -4.591216519e-02    2.653728127e-01
     2393750000   -6.951398402e-02    2.579002678e-01
     2394500000   -9.158108383e-02    2.486775368e-01
     2395250000   -1.115396097e-01    2.374068499e-01
     2396000000   -1.301237643e-01    2.247400284e-01
     2396750000   -1.477051973e-01    2.105741054e-01
     2397500000   -1.640301347e-01    1.951684952e-01
     2398250000   -1.788181067e-01    1.784694195e-01
     2399000000   -1.911325455e-01    1.610793024e-01
     2399750000   -2.021559477e-01    1.420564204e-01
     2400500000   -2.111064792e-01    1.231984198e-01
     2401250000   -2.197783589e-01    1.037697122e-01
     2402000000   -2.252600491e-01    8.632728457e-02
     2402750000   -2.278066725e-01    6.473542750e-02
     2403500000   -2.312813550e-01    4.431709647e-02
     2404250000   -2.293025702e-01    2.590543777e-02
     2405000000   -2.279270887e-01    5.529433955e-03
     2405750000   -2.238409817e-01   -1.359906700e-02
     2406500000   -2.186846137e-01   -3.242870420e-02
     2407250000   -2.114130408e-01   -4.988291487e-02
     2408000000   -2.026033103e-01   -6.679745764e-02
     2408750000   -1.931976378e-01   -8.340853453e-02
     2409500000   -1.822970361e-01   -9.872953594e-02
     2410250000   -1.696948260e-01   -1.118791848e-01
     2411000000   -1.567019224e-01   -1.247501895e-01
     2411750000   -1.425221115e-01   -1.350902319e-01
     2412500000   -1.279227883e-01   -1.467130333e-01
     2413250000   -1.127207279e-01   -1.555124521e-01
     2414000000   -9.699176997e-02   -1.620552540e-01
     2414750000   -8.063006401e-02   -1.677062213e-01
     2415500000   -6.480719149e-02   -1.712534726e-01
     2416250000   -4.847364128e-02   -1.746421009e-01
     2417000000   -3.288810328e-02   -1.749578267e-01
     2417750000   -1.711448468e-02   -1.748992354e-01
     2418500000   -1.921350951e-03   -1.732035577e-01
     2419250000    1.340298355e-02   -1.701534390e-01
     2420000000    2.756388858e-02   -1.656659395e-01
     2420750000    4.128339142e-02   -1.600876302e-01
     2421500000    5.414447561e-02   -1.533687413e-01
     2422250000    6.482630968e-02   -1.447130591e-01
     2423000000    7.628618181e-02   -1.356788129e-01
     2423750000    8.538933098e-02   -1.257104874e-01
     2424500000    9.476505965e-02   -1.146942824e-01
     2425250000    1.036474109e-01   -1.050270125e-01
     2426000000    1.076870486e-01   -9.302531183e-02
     2426750000    1.140241846e-01   -8.137867600e-02
     2427500000    1.200558692e-01   -6.846629828e-02
     2428250000    1.217793971e-01   -5.663156137e-02
     2429000000    1.236814633e-01   -4.444576800e-02
     2429750000    1.231214926e-01   -3.231978789e-02
     2430500000    1.246135533e-01   -2.022806555e-02
     2431250000    1.222033352e-01   -8.509005420e-03
     2432000000    1.191026717e-01    1.829557819e-03
     2432750000    1.165735275e-01    1.368752681e-02
     2433500000    1.121432111e-01    2.390481159e-02
     2434250000    1.075710803e-01    3.332806751e-02
     2435000000    1.006304771e-01    3.984113038e-02
     2435750000    9.504926205e-02    5.013486743e-02
     2436500000    8.820664883e-02    5.703242868e-02
     2437250000    8.050239086e-02    6.234627590e-02
     2438000000    7.325659692e-02    6.929936260e-02
     2438750000    6.534586102e-02    7.311221212e-02
     2439500000    5.704304948e-02    7.541880012e-02
     2440250000    4.842268303e-02    7.833935320e-02
     2441000000    4.031301290e-02    8.079721034e-02
     2441750000    3.205773607e-02    8.058987558e-02
     2442500000    2.424981259e-02    7.995393872e-02
     2443250000    1.664729044e-02    7.916557044e-02
     2444000000    8.415556513e-03    7.825420797e-02
     2444750000    1.862265868e-03    7.488273829e-02
     2445500000   -4.872630816e-03    7.161498815e-02
     2446250000   -1.127787586e-02    6.814635545e-02
     2447000000   -1.726863720e-02    6.468392164e-02
     2447750000   -2.196493372e-02    5.975143611e-02
     2448500000   -2.617800236e-02    5.481782928e-02
     2449250000   -2.970893122e-02    4.991356656e-02
     2450000000   -3.239999339e-02    4.459192976e-02
     2450750000   -3.406793624e-02    3.956695646e-02
     2451500000   -3.518363461e-02    3.406955302e-02
     2452250000   -3.582435101e-02    2.853018790e-02
     2453000000   -3.567770496e-02    2.311490290e-02
     2453750000   -3.383666649e-02    1.811869442e-02
     2454500000   -3.472413868e-02    1.282174233e-02
     2455250000   -2.985001355e-02    8.512039669e-03
     2456000000   -2.772900835e-02    3.865422448e-03
     2456750000   -2.524077334e-02   -3.307083971e-04
     2457500000   -2.161942236e-02   -3.597639035e-03
     2458250000   -1.716433465e-02   -6.292415783e-03
     2459000000   -1.354671363e-02   -9.346698411e-03
     2459750000   -8.921931498e-03   -1.074826159e-02
     2460500000   -4.373685457e-03   -1.156300213e-02
     2461250000   -2.746640530e-04   -1.271556225e-02
     2462000000    4.432446789e-03   -1.218766067e-02
     2462750000    8.216817863e-03   -1.290476881e-02
     2463500000    1.313884556e-02   -1.022445410e-02
     2464250000    1.629803888e-02   -9.516233578e-03
     2465000000    2.013614587e-02   -5.293475464e-03
     2465750000    2.326878347e-02   -4.540347494e-03
     2466500000    2.587168477e-02   -7.692533109e-05
     2467250000    2.805760317e-02    4.421516787e-03
     2468000000    2.980637178e-02    6.746312603e-03
     2468750000    3.099822067e-02    1.299599558e-02
     2469500000    3.143975511e-02    1.704739407e-02
     2470250000    3.097498044e-02    2.299095877e-02
     2471000000    3.022088856e-02    2.813406847e-02
     2471750000    2.956026420e-02    3.221075609e-02
     2472500000    2.637847140e-02    3.909697384e-02
     2473250000    2.493852377e-02    4.265028611e-02
     2474000000    2.053073607e-02    4.865844175e-02
     2474750000    1.626811922e-02    5.352595448e-02
     2475500000    1.239823550e-02    5.813772231e-02
     2476250000    6.639941595e-03    6.226173416e-02
     2477000000    1.196271973e-03    6.597308815e-02
     2477750000   -5.908556283e-03    6.917310506e-02
     2478500000   -1.126353815e-02    7.091954350e-02
     2479250000   -1.914659701e-02    7.345037162e-02
     2480000000   -2.624494396e-02    7.471012324e-02
     2480750000   -3.434269875e-02    7.517594844e-02
     2481500000   -4.122772440e-02    7.481582463e-02
     2482250000   -4.909051955e-02    7.347809523e-02
     2483000000   -5.683582276e-02    7.152176648e-02
     2483750000   -6.432077289e-02    6.915171444e-02
     2484500000   -7.210503519e-02    6.510399282e-02
     2485250000   -7.940005511e-02    6.059896201e-02
     2486000000   -8.621482551e-02    5.531013384e-02
     2486750000   -9.267528355e-02    4.909635335e-02
     2487500000   -9.912424535e-02    4.222274199e-02
     2488250000   -1.043664515e-01    3.472097591e-02
     2489000000   -1.094437242e-01    2.644621953e-02
     2489750000   -1.139612570e-01    1.701551676e-02
     2490500000   -1.176235601e-01    8.327157237e-03
     2491250000   -1.205765456e-01   -1.318933326e-03
     2492000000   -1.227976680e-01   -1.188464183e-02
     2492750000   -1.236820817e-01   -2.215783857e-02
     2493500000   -1.241780072e-01   -3.219794482e-02
     2494250000   -1.238078624e-01   -4.219148681e-02
     2495000000   -1.219351441e-01   -5.354510993e-02
     2495750000   -1.197153181e-01   -6.387627125e-02
     2496500000   -1.162870377e-01   -7.393321395e-02
     2497250000   -1.110240519e-01   -8.416188508e-02
     2498000000   -1.064769179e-01   -9.331738204e-02
     2498750000   -9.929079562e-02   -1.028847769e-01
     2499500000   -9.259940684e-02   -1.114765182e-01
     2500250000   -8.455155045e-02   -1.195906922e-01
     2501000000   -7.546085119e-02   -1.274443567e-01
     2501750000   -6.713173538e-02   -1.340018213e-01
     2502500000   -5.697218701e-02   -1.400523782e-01
     2503250000   -4.608089849e-02   -1.450151354e-01
     2504000000   -3.593100607e-02   -1.496597230e-01
     2504750000   -2.402001619e-02   -1.526496112e-01
     2505500000   -1.271838974e-02   -1.549820155e-01
     2506250000   -1.605145982e-03   -1.565758288e-01
     2507000000    1.130813640e-02   -1.563725919e-01
     2507750000    2.226126194e-02   -1.556918770e-01
     2508500000    3.343564644e-02   -1.530451030e-01
     2509250000    4.531718418e-02   -1.505571902e-01
     2510000000    5.581315607e-02   -1.469625086e-01
     2510750000    6.618776917e-02   -1.409436017e-01
     2511500000    7.647472620e-02   -1.357765347e-01
     2512250000    8.622276783e-02   -1.291223615e-01
     2513000000    9.444534779e-02   -1.207549945e-01
     2513750000    1.028255969e-01   -1.129710823e-01
     2514500000    1.100380272e-01   -1.038898304e-01
     2515250000    1.168520376e-01   -9.392630309e-02
     2516000000    1.219348535e-01   -8.332347125e-02
     2516750000    1.261641681e-01   -7.295414060e-02
     2517500000    1.301127970e-01   -6.186548993e-02
     2518250000    1.328665763e-01   -5.098604411e-02
     2519000000    1.327097118e-01   -3.939561918e-02
     2519750000    1.334809661e-01   -2.823697776e-02
     2520500000    1.333426237e-01   -1.765993424e-02
     2521250000    1.311597377e-01   -6.001166068e-03
     2522000000    1.278930753e-01    4.391921218e-03
     2522750000    1.238735467e-01    1.465795469e-02
     2523500000    1.193476170e-01    2.406241000e-02
     2524250000    1.130444780e-01    3.301703557e-02
     2525000000    1.065048501e-01    4.150560126e-02
     2525750000    9.839607030e-02    5.007449165e-02
     2526500000    9.169580787e-02    5.754961446e-02
     2527250000    8.263858408e-02    6.342977285e-02
     2528000000    7.290147245e-02    6.831357628e-02
     2528750000    6.423888355e-02    7.306957990e-02
     2529500000    6.102547795e-02    7.477083802e-02
     2530250000    5.097927526e-02    7.780272514e-02
     2531000000    4.072256386e-02    8.010466397e-02
     2531750000    3.018045053e-02    8.110843599e-02
     2532500000    2.018815652e-02    8.167116344e-02
     2533250000    1.037780102e-02    8.064264804e-02
     2534000000    2.713495815e-05    7.843648642e-02
     2534750000   -8.778634481e-03    7.614985108e-02
     2535500000   -1.778573357e-02    7.265296578e-02
     2536250000   -2.575050667e-02    6.832107157e-02
     2537000000   -3.341656178e-02    6.266437471e-02
     2537750000   -4.001227394e-02    5.711399764e-02
     2538500000   -4.597527534e-02    4.928788170e-02
     2539250000   -5.113163218e-02    4.220995307e-02
     2540000000   -5.543612689e-02    3.466160968e-02
     2540750000   -5.910089612e-02    2.663902193e-02
     2541500000   -6.142706051e-02    1.805540361e-02
     2542250000   -6.317894906e-02    9.018168785e-03
     2543000000   -6.326833367e-02    3.099003516e-04
     2543750000   -6.264083087e-02   -8.553160354e-03
     2544500000   -6.092993170e-02   -1.770257019e-02
     2545250000   -5.859652534e-02   -2.591260336e-02
     2546000000   -5.408577994e-02   -3.431044519e-02
     2546750000   -4.892452806e-02   -4.322151467e-02
     2547500000   -4.339509457e-02   -5.051144958e-02
     2548250000   -3.693985194e-02   -5.702603608e-02
     2549000000   -2.974552661e-02   -6.249945611e-02
     2549750000   -2.207875252e-02   -6.776519120e-02
     2550500000   -1.397565752e-02   -7.212217152e-02
     2551250000   -4.342350177e-03   -7.497922331e-02
     2552000000    4.467811901e-03   -7.723768800e-02
     2552750000    1.502994914e-02   -7.849628478e-02
     2553500000    2.507355437e-02   -7.921198010e-02
     2554250000    3.588333353e-02   -7.769268006e-02
     2555000000    4.549777508e-02   -7.612723857e-02
     2555750000    5.618653819e-02   -7.212344557e-02
     2556500000    6.597552449e-02   -6.778041273e-02
     2557250000    7.464303076e-02   -6.314248592e-02
     2558000000    8.397001028e-02   -5.593294278e-02
     2558750000    9.297071397e-02   -4.836422205e-02
     2559500000    1.008385643e-01   -3.909736499e-02
     2560250000    1.083717942e-01   -2.953535318e-02
     2561000000    1.142947152e-01   -1.939363033e-02
     2561750000    1.194947958e-01   -8.363092318e-03
     2562500000    1.231079772e-01    3.309463384e-03
     2563250000    1.267740428e-01    1.607621089e-02
     2564000000    1.281177253e-01    2.855835855e-02
     2564750000    1.290310621e-01    4.136602953e-02
     2565500000    1.281595081e-01    5.523597822e-02
     2566250000    1.263380200e-01    6.859263778e-02
     2567000000    1.228816733e-01    8.215036243e-02
     2567750000    1.182340980e-01    9.490747005e-02
     2568500000    1.118090376e-01    1.076627076e-01
     2569250000    1.044496447e-01    1.195214465e-01
     2570000000    9.582649916e-02    1.312697679e-01
     2570750000    8.635570854e-02    1.422339082e-01
     2571500000    7.523352653e-02    1.517213136e-01
     2572250000    6.304060668e-02    1.609438062e-01
     2573000000    4.956350103e-02    1.689186692e-01
     2573750000    3.564383090e-02    1.756103784e-01
     2574500000    2.087061107e-02    1.806635112e-01
     2575250000    4.851348698e-03    1.846999079e-01
     2576000000   -1.138135977e-02    1.873449832e-01
     2576750000   -2.802765742e-02    1.880275756e-01
     2577500000   -4.472223297e-02    1.876230985e-01
     2578250000   -6.173865497e-02    1.854038090e-01
     2579000000   -7.898330688e-02    1.816551983e-01
     2579750000   -9.585785121e-02    1.761630028e-01
     2580500000   -1.122644842e-01    1.692166775e-01
     2581250000   -1.287495792e-01    1.603178233e-01
     2582000000   -1.442534178e-01    1.499515474e-01
     2582750000   -1.579173058e-01    1.385050863e-01
     2583500000   -1.722338200e-01    1.250077039e-01
     2584250000   -1.847489327e-01    1.104064137e-01
     2585000000   -1.960910708e-01    9.497690946e-02
     2585750000   -2.062865496e-01    7.787447423e-02
     2586500000   -2.149709463e-01    5.981989950e-02
     2587250000   -2.217067629e-01    4.077991843e-02
     2588000000   -2.271673232e-01    2.147348598e-02
     2588750000   -2.307275236e-01    5.254104617e-04
     2589500000   -2.320067883e-01   -1.963879168e-02
     2590250000   -2.321221530e-01   -4.096103460e-02
     2591000000   -2.294645458e-01   -6.256236136e-02
     2591750000   -2.255937010e-01   -8.303332329e-02
     2592500000   -2.193859071e-01   -1.046710685e-01
     2593250000   -2.114600241e-01   -1.244211122e-01
     2594000000   -2.011794597e-01   -1.456185281e-01
     2594750000   -1.893412173e-01   -1.649444252e-01
     2595500000   -1.757282466e-01   -1.834662855e-01
     2596250000   -1.608462036e-01   -2.002894878e-01
     2597000000   -1.437148303e-01   -2.161643654e-01
     2597750000   -1.249898449e-01   -2.306411266e-01
     2598500000   -1.049277708e-01   -2.440212965e-01
     2599250000   -8.396869153e-02   -2.559741437e-01
     2600000000   -6.317722797e-02   -2.651599348e-01
