! NanoVNA-App
! Date: 2026-05-22 18:37:37
! Start: 2.3GHz Stop: 2.6GHz Points: 401
! S-Parameter data: F S11
# Hz S RI R 50
!     Frequency           S11_Real           S11_Imag
     2300000000   -4.243195355e-01   -2.184074074e-01
     2300750000   -4.026460350e-01   -2.537721097e-01
     2301500000   -3.786265552e-01   -2.860081792e-01
     2302250000   -3.497162163e-01   -3.191111684e-01
     2303000000   -3.193477988e-01   -3.475637436e-01
     2303750000   -2.872015536e-01   -3.726031780e-01
     2304500000   -2.534016073e-01   -3.949104846e-01
     2305250000   -2.166605145e-01   -4.147622287e-01
     2306000000   -1.796827316e-01   -4.305791259e-01
     2306750000   -1.410186589e-01   -4.433214366e-01
     2307500000   -1.007143036e-01   -4.528347850e-01
     2308250000   -6.088698283e-02   -4.580728710e-01
     2309000000   -2.128812298e-02   -4.607122838e-01
     2309750000    1.980668679e-02   -4.595424533e-01
     2310500000    5.937133729e-02   -4.550467432e-01
     2311250000    9.911119193e-02   -4.465911090e-01
     2312000000    1.371383071e-01   -4.350318015e-01
     2312750000    1.737886667e-01   -4.199846685e-01
     2313500000    2.102364004e-01   -4.015869200e-01
     2314250000    2.431071699e-01   -3.812942207e-01
     2315000000    2.742506564e-01   -3.577486277e-01
     2315750000    3.051594198e-01   -3.304480314e-01
     2316500000    3.310265541e-01   -3.025466800e-01
     2317250000    3.538716733e-01   -2.733016312e-01
     2318000000    3.765103221e-01   -2.397945821e-01
     2318750000    3.947775364e-01   -2.050280571e-01
     2319500000    4.098180830e-01   -1.691431552e-01
     2320250000    4.215110540e-01   -1.334432662e-01
     2321000000    4.305055439e-01   -9.605988860e-02
     2321750000    4.354159832e-01   -5.881093070e-02
     2322500000    4.374706149e-01   -1.900438964e-02
     2323250000    4.359502494e-01    1.598126255e-02
     2324000000    4.310846329e-01    5.674841255e-02
     2324750000    4.231806695e-01    9.048151970e-02
     2325500000    4.116572440e-01    1.285517663e-01
     2326250000    3.982363343e-01    1.610868722e-01
     2327000000    3.803342879e-01    1.967290938e-01
     2327750000    3.610207140e-01    2.263280153e-01
     2328500000    3.390609324e-01    2.553261518e-01
     2329250000    3.129664660e-01    2.828670442e-01
     2330000000    2.860718668e-01    3.080938458e-01
     2330750000    2.565412521e-01    3.306953907e-01
     2331500000    2.261647880e-01    3.493111730e-01
     2332250000    1.925143301e-01    3.676470816e-01
     2333000000    1.603234708e-01    3.804169893e-01
     2333750000    1.253615022e-01    3.915885091e-01
     2334500000    9.051065892e-02    3.995668888e-01
     2335250000    5.435144529e-02    4.048285782e-01
     2336000000    1.900676824e-02    4.064759314e-01
     2336750000   -1.675692014e-02    4.053530395e-01
     2337500000   -5.252808332e-02    4.010035396e-01
     2338250000   -8.633190393e-02    3.933226168e-01
     2339000000   -1.200864390e-01    3.830760419e-01
     2339750000   -1.519497484e-01    3.700896502e-01
     2340500000   -1.832926869e-01    3.536433578e-01
     2341250000   -2.116470486e-01    3.357821703e-01
     2342000000   -2.377773225e-01    3.148735762e-01
     2342750000   -2.639960051e-01    2.913071811e-01
     2343500000   -2.864373326e-01    2.658772171e-01
     2344250000   -3.071517050e-01    2.387610227e-01
     2345000000   -3.251509368e-01    2.101716697e-01
     2345750000   -3.413982391e-01    1.792435348e-01
     2346500000   -3.533812761e-01    1.483933330e-01
     2347250000   -3.634204865e-01    1.163123623e-01
     2348000000   -3.701704741e-01    8.410152048e-02
     2348750000   -3.754293919e-01    4.854518548e-02
     2349500000   -3.766694367e-01    1.537312195e-02
     2350250000   -3.752363920e-01   -1.707464084e-02
     2351000000   -3.703989387e-01   -4.867938161e-02
     2351750000   -3.641969562e-01   -8.269926906e-02
     2352500000   -3.544952571e-01   -1.123883873e-01
     2353250000   -3.414452672e-01   -1.416870356e-01
     2354000000   -3.264613450e-01   -1.731624603e-01
     2354750000   -3.095951080e-01   -1.995868385e-01
     2355500000   -2.899035215e-01   -2.237438858e-01
     2356250000   -2.682628632e-01   -2.483980507e-01
     2357000000   -2.447296977e-01   -2.694766521e-01
     2357750000   -2.187493593e-01   -2.894172072e-01
     2358500000   -1.915955991e-01   -3.063839972e-01
     2359250000   -1.639701277e-01   -3.210029900e-01
     2360000000   -1.350724846e-01   -3.327537775e-01
     2360750000   -1.053701565e-01   -3.421054482e-01
     2361500000   -7.517459989e-02   -3.483982682e-01
     2362250000   -4.449063912e-02   -3.530076146e-01
     2363000000   -1.337100193e-02   -3.545550108e-01
     2363750000    1.598955505e-02   -3.528842330e-01
     2364500000    4.644059390e-02   -3.491340578e-01
     2365250000    7.658208907e-02   -3.425126672e-01
     2366000000    1.046524122e-01   -3.335983455e-01
     2366750000    1.316439658e-01   -3.220906556e-01
     2367500000    1.578705609e-01   -3.080775738e-01
     2368250000    1.822436005e-01   -2.921441197e-01
     2369000000    2.053950131e-01   -2.739205062e-01
     2369750000    2.265531868e-01   -2.539841831e-01
     2370500000    2.463779151e-01   -2.319522053e-01
     2371250000    2.625945210e-01   -2.087360620e-01
     2372000000    2.781973183e-01   -1.849721074e-01
     2372750000    2.913370430e-01   -1.586421728e-01
     2373500000    3.024671078e-01   -1.319202483e-01
     2374250000    3.115237951e-01   -1.044540256e-01
     2375000000    3.169819117e-01   -7.744414359e-02
     2375750000    3.215076327e-01   -4.954916239e-02
     2376500000    3.238489628e-01   -2.119566314e-02
     2377250000    3.221309781e-01    5.206618924e-03
     2378000000    3.195029199e-01    3.301424161e-02
     2378750000    3.136149347e-01    5.930311605e-02
     2379500000    3.061044514e-01    8.339061588e-02
     2380250000    2.968378365e-01    1.089069918e-01
     2381000000    2.849107683e-01    1.338944137e-01
     2381750000    2.709764242e-01    1.560700685e-01
     2382500000    2.559725344e-01    1.754622459e-01
     2383250000    2.381382585e-01    1.951584816e-01
     2384000000    2.194963992e-01    2.133345157e-01
     2384750000    1.996640712e-01    2.271138430e-01
     2385500000    1.781007349e-01    2.414717674e-01
     2386250000    1.563032418e-01    2.525410950e-01
     2387000000    1.322343051e-01    2.625537813e-01
     2387750000    1.090657935e-01    2.698108554e-01
     2388500000    8.410980552e-02    2.761499882e-01
     2389250000    6.014506519e-02    2.791889012e-01
     2390000000    3.594425693e-02    2.795181274e-01
     2390750000    1.042596810e-02    2.785501480e-01
     2391500000   -1.326673012e-02    2.752910554e-01
     2392250000   -3.670029715e-02    2.709899247e-01
     2393000000   -6.058116630e-02    2.636161745e-01
     2393750000   -8.271501213e-02    2.550767958e-01
     2394500000   -1.032708511e-01    2.443164438e-01
     2395250000   -1.250090450e-01    2.326128632e-01
     2396000000   -1.436295360e-01    2.191827595e-01
     2396750000   -1.620688438e-01    2.042996436e-01
     2397500000   -1.776643693e-01    1.879518777e-01
     2398250000   -1.925289035e-01    1.701348573e-01
     2399000000   -2.064099610e-01    1.519955248e-01
     2399750000   -2.170437574e-01    1.326846033e-01
     2400500000   -2.266987413e-01    1.127419919e-01
     2401250000   -2.347105145e-01    9.233925492e-02
     2402000000   -2.408891469e-01    7.197317481e-02
     2402750000   -2.444314212e-01    5.168300495e-02
     2403500000   -2.461928129e-01    3.081313334e-02
     2404250000   -2.467248589e-01    1.097542141e-02
     2405000000   -2.462584525e-01   -1.026036032e-02
     2405750000   -2.428307384e-01   -3.024399653e-02
     2406500000   -2.371628135e-01   -4.998826608e-02
     2407250000   -2.309531122e-01   -6.781189889e-02
     2408000000   -2.229472995e-01   -8.612425625e-02
     2408750000   -2.131438255e-01   -1.038919240e-01
     2409500000   -2.022858262e-01   -1.186177284e-01
     2410250000   -1.901980788e-01   -1.352580339e-01
     2411000000   -1.772378832e-01   -1.481913030e-01
     2411750000   -1.629995108e-01   -1.601516306e-01
     2412500000   -1.478075236e-01   -1.707997471e-01
     2413250000   -1.326873153e-01   -1.811708659e-01
     2414000000   -1.164376363e-01   -1.892378777e-01
     2414750000   -9.939757735e-02   -1.956622899e-01
     2415500000   -8.277527988e-02   -2.016789615e-01
     2416250000   -6.567385793e-02   -2.054409236e-01
     2417000000   -4.834007472e-02   -2.072135955e-01
     2417750000   -3.083783016e-02   -2.081524432e-01
     2418500000   -1.486817747e-02   -2.066303939e-01
     2419250000    1.587746898e-03   -2.040460259e-01
     2420000000    1.791183837e-02   -2.001096457e-01
     2420750000    3.321037814e-02   -1.953430921e-01
     2421500000    4.764968902e-02   -1.894355416e-01
     2422250000    6.287933141e-02   -1.818642169e-01
     2423000000    7.533112168e-02   -1.733821929e-01
     2423750000    8.897577226e-02   -1.641580909e-01
     2424500000    9.854898602e-02   -1.535916477e-01
     2425250000    1.100486442e-01   -1.422589868e-01
     2426000000    1.197808906e-01   -1.298442930e-01
     2426750000    1.279676855e-01   -1.176679432e-01
     2427500000    1.365305185e-01   -1.051238030e-01
     2428250000    1.413610727e-01   -9.125752002e-02
     2429000000    1.459308416e-01   -7.854527235e-02
     2429750000    1.485093981e-01   -6.523192674e-02
     2430500000    1.538718343e-01   -4.993730783e-02
     2431250000    1.553811431e-01   -3.677332029e-02
     2432000000    1.536654830e-01   -2.360585332e-02
     2432750000    1.539126635e-01   -1.028260589e-02
     2433500000    1.537109017e-01    4.052067641e-03
     2434250000    1.497558802e-01    1.613138430e-02
     2435000000    1.453427523e-01    2.679365873e-02
     2435750000    1.422227472e-01    4.231924191e-02
     2436500000    1.360193640e-01    5.179357529e-02
     2437250000    1.295240968e-01    5.889617279e-02
     2438000000    1.233216524e-01    6.990190595e-02
     2438750000    1.159821451e-01    8.021377027e-02
     2439500000    1.079322845e-01    9.055103362e-02
     2440250000    9.976288676e-02    9.478580207e-02
     2441000000    9.120671451e-02    1.026210859e-01
     2441750000    8.240780234e-02    1.065871343e-01
     2442500000    7.242941111e-02    1.129697636e-01
     2443250000    6.249390543e-02    1.179802790e-01
     2444000000    5.369700864e-02    1.204338446e-01
     2444750000    4.348758608e-02    1.230570525e-01
     2445500000    3.488653153e-02    1.229483932e-01
     2446250000    2.563881502e-02    1.244009286e-01
     2447000000    1.580886729e-02    1.248636395e-01
     2447750000    7.009300869e-03    1.248391047e-01
     2448500000   -1.353001921e-03    1.227785945e-01
     2449250000   -1.034194510e-02    1.215819791e-01
     2450000000   -1.800621673e-02    1.189986020e-01
     2450750000   -2.592916228e-02    1.160627306e-01
     2451500000   -3.258517757e-02    1.125018448e-01
     2452250000   -3.899678960e-02    1.085747927e-01
     2453000000   -4.522289336e-02    1.048929766e-01
     2453750000   -5.049477890e-02    9.981767088e-02
     2454500000   -5.536829680e-02    9.513115883e-02
     2455250000   -6.009091064e-02    8.992361277e-02
     2456000000   -6.355071068e-02    8.443476260e-02
     2456750000   -6.779319048e-02    7.902032137e-02
     2457500000   -7.002618909e-02    7.362198830e-02
     2458250000   -7.354194671e-02    6.771779805e-02
     2459000000   -7.635668665e-02    6.078245118e-02
     2459750000   -7.732242346e-02    5.624971166e-02
     2460500000   -7.815042138e-02    5.117917806e-02
     2461250000   -7.989014685e-02    4.504647851e-02
     2462000000   -8.139270544e-02    3.817276284e-02
     2462750000   -8.141817153e-02    3.353167325e-02
     2463500000   -8.056625724e-02    2.946303040e-02
     2464250000   -8.069886267e-02    2.460143343e-02
     2465000000   -8.117958903e-02    1.634231210e-02
     2465750000   -8.067941666e-02    1.267981995e-02
     2466500000   -8.010943979e-02    9.484847076e-03
     2467250000   -7.916109264e-02    5.030867644e-03
     2468000000   -7.803410292e-02   -8.311254205e-04
     2468750000   -7.720651478e-02   -5.106945056e-03
     2469500000   -7.664216310e-02   -7.164212875e-03
     2470250000   -7.480288297e-02   -1.327791531e-02
     2471000000   -7.317390293e-02   -1.665160619e-02
     2471750000   -7.170198113e-02   -2.048683725e-02
     2472500000   -7.055591792e-02   -2.344650403e-02
     2473250000   -6.919571012e-02   -2.699033543e-02
     2474000000   -6.697646528e-02   -3.109847941e-02
     2474750000   -6.547790766e-02   -3.415958583e-02
     2475500000   -6.291802973e-02   -3.790941834e-02
     2476250000   -6.258819997e-02   -4.068863019e-02
     2477000000   -5.968109146e-02   -4.423152655e-02
     2477750000   -5.865128711e-02   -4.736714065e-02
     2478500000   -5.625773966e-02   -5.035189167e-02
     2479250000   -5.316441506e-02   -5.375372618e-02
     2480000000   -5.022234097e-02   -5.709806085e-02
     2480750000   -4.786502197e-02   -6.029745936e-02
     2481500000   -4.471392184e-02   -6.333692372e-02
     2482250000   -4.169658571e-02   -6.634873152e-02
     2483000000   -3.841987252e-02   -6.927224994e-02
     2483750000   -3.427720442e-02   -7.194399834e-02
     2484500000   -3.035821766e-02   -7.507559657e-02
     2485250000   -2.623843402e-02   -7.740062475e-02
     2486000000   -2.155034989e-02   -7.997120917e-02
     2486750000   -1.705495082e-02   -8.225141466e-02
     2487500000   -1.209456846e-02   -8.459503204e-02
     2488250000   -6.523615215e-03   -8.606933802e-02
     2489000000   -1.755602658e-03   -8.826635033e-02
     2489750000    3.680848284e-03   -9.032078087e-02
     2490500000    9.781344794e-03   -9.134642035e-02
     2491250000    1.603208296e-02   -9.140025824e-02
     2492000000    2.115658298e-02   -9.351786226e-02
     2492750000    2.816790901e-02   -9.180166572e-02
     2493500000    3.432184830e-02   -9.145236760e-02
     2494250000    4.120288044e-02   -8.911543339e-02
     2495000000    4.779266194e-02   -8.987946808e-02
     2495750000    5.395836756e-02   -8.553507924e-02
     2496500000    6.050766259e-02   -8.433596045e-02
     2497250000    6.754148751e-02   -8.217140287e-02
     2498000000    7.324967533e-02   -7.676365227e-02
     2498750000    7.980309427e-02   -7.161267102e-02
     2499500000    8.579706401e-02   -6.733426452e-02
     2500250000    9.139048308e-02   -6.161697209e-02
     2501000000    9.815160185e-02   -5.665745214e-02
     2501750000    1.014150605e-01   -4.849462956e-02
     2502500000    1.067142114e-01   -4.239268228e-02
     2503250000    1.127477139e-01   -3.516384214e-02
     2504000000    1.144057065e-01   -2.564833872e-02
     2504750000    1.182955131e-01   -1.787318103e-02
     2505500000    1.216542199e-01   -9.845652618e-03
     2506250000    1.220460832e-01   -3.934952256e-04
     2507000000    1.217408851e-01    1.027449500e-02
     2507750000    1.238347068e-01    1.933273859e-02
     2508500000    1.216149330e-01    2.943085507e-02
     2509250000    1.200264320e-01    3.944135457e-02
     2510000000    1.197280586e-01    4.952808097e-02
     2510750000    1.137010977e-01    5.964011326e-02
     2511500000    1.110179052e-01    6.973011047e-02
     2512250000    1.062177569e-01    7.921651751e-02
     2513000000    1.002784297e-01    8.888272941e-02
     2513750000    9.428746998e-02    9.765731543e-02
     2514500000    8.647261560e-02    1.057328880e-01
     2515250000    7.817786932e-02    1.134774834e-01
     2516000000    6.916896254e-02    1.205038279e-01
     2516750000    5.940463766e-02    1.268499792e-01
     2517500000    4.937978834e-02    1.331201941e-01
     2518250000    3.847415745e-02    1.367505342e-01
     2519000000    2.688618377e-02    1.402470320e-01
     2519750000    1.487652119e-02    1.434824467e-01
     2520500000    3.151701530e-03    1.449290365e-01
     2521250000   -9.304948151e-03    1.461283267e-01
     2522000000   -2.203305811e-02    1.452194005e-01
     2522750000   -3.442641720e-02    1.430691034e-01
     2523500000   -4.762186855e-02    1.415671706e-01
     2524250000   -6.068625674e-02    1.378530562e-01
     2525000000   -7.314989716e-02    1.329507530e-01
     2525750000   -8.600445837e-02    1.271916181e-01
     2526500000   -9.754912555e-02    1.209509298e-01
     2527250000   -1.096210480e-01    1.132213920e-01
     2528000000   -1.200255454e-01    1.037948504e-01
     2528750000   -1.307502091e-01    9.515164793e-02
     2529500000   -1.398503184e-01    8.374053985e-02
     2530250000   -1.483401656e-01    7.260942459e-02
     2531000000   -1.567573994e-01    6.007532403e-02
     2531750000   -1.628981680e-01    4.715691134e-02
     2532500000   -1.686598659e-01    3.381661326e-02
     2533250000   -1.682625115e-01    2.121706307e-02
     2534000000   -1.712005883e-01    6.082465407e-03
     2534750000   -1.727209836e-01   -8.013413288e-03
     2535500000   -1.732893288e-01   -2.301981673e-02
     2536250000   -1.720137298e-01   -3.826205060e-02
     2537000000   -1.696161330e-01   -5.319939554e-02
     2537750000   -1.658862233e-01   -6.807468832e-02
     2538500000   -1.609352380e-01   -8.292145282e-02
     2539250000   -1.547577530e-01   -9.673014283e-02
     2540000000   -1.464890987e-01   -1.111209616e-01
     2540750000   -1.375325918e-01   -1.244720072e-01
     2541500000   -1.271863878e-01   -1.366369575e-01
     2542250000   -1.157433838e-01   -1.487428099e-01
     2543000000   -1.028418988e-01   -1.591228992e-01
     2543750000   -8.921305090e-02   -1.686513126e-01
     2544500000   -7.449098676e-02   -1.769070476e-01
     2545250000   -5.868854746e-02   -1.840621233e-01
     2546000000   -4.286311939e-02   -1.902679652e-01
     2546750000   -2.580254525e-02   -1.952642947e-01
     2547500000   -8.573634550e-03   -1.976878345e-01
     2548250000    9.916402400e-03   -1.995091736e-01
     2549000000    2.736126631e-02   -2.002566308e-01
     2549750000    4.593646154e-02   -1.974524409e-01
     2550500000    6.361719966e-02   -1.940498352e-01
     2551250000    8.166492730e-02   -1.904278994e-01
     2552000000    9.854654223e-02   -1.835583299e-01
     2552750000    1.156922430e-01   -1.750338674e-01
     2553500000    1.323067844e-01   -1.660104990e-01
     2554250000    1.478518993e-01   -1.544533521e-01
     2555000000    1.619644165e-01   -1.438324302e-01
     2555750000    1.753456742e-01   -1.287603378e-01
     2556500000    1.879990697e-01   -1.139792278e-01
     2557250000    1.978950500e-01   -9.761759639e-02
     2558000000    2.081984878e-01   -8.059266955e-02
     2558750000    2.152053118e-01   -6.169430539e-02
     2559500000    2.229872793e-01   -4.336967319e-02
     2560250000    2.271968275e-01   -2.371119335e-02
     2561000000    2.309276164e-01   -3.961773124e-03
     2561750000    2.316447794e-01    1.799283735e-02
     2562500000    2.309358418e-01    3.788770363e-02
     2563250000    2.290229350e-01    5.791892856e-02
     2564000000    2.243373692e-01    7.925832272e-02
     2564750000    2.179608643e-01    9.973064065e-02
     2565500000    2.108002156e-01    1.199454591e-01
     2566250000    2.017430514e-01    1.385676712e-01
     2567000000    1.899398863e-01    1.575371772e-01
     2567750000    1.774117798e-01    1.742822081e-01
     2568500000    1.627452224e-01    1.906728894e-01
     2569250000    1.460539848e-01    2.056463808e-01
     2570000000    1.287088245e-01    2.194327116e-01
     2570750000    1.107251197e-01    2.310209870e-01
     2571500000    9.078856558e-02    2.409342080e-01
     2572250000    7.024552673e-02    2.496023476e-01
     2573000000    4.845241830e-02    2.562381923e-01
     2573750000    2.630787715e-02    2.608417273e-01
     2574500000    4.265169613e-03    2.630997002e-01
     2575250000   -1.906279102e-02    2.636925578e-01
     2576000000   -4.215114936e-02    2.620590329e-01
     2576750000   -6.538563967e-02    2.588481605e-01
     2577500000   -8.800441027e-02    2.531040609e-01
     2578250000   -1.106799468e-01    2.453199029e-01
     2579000000   -1.328664124e-01    2.352206856e-01
     2579750000   -1.538725793e-01    2.234716713e-01
     2580500000   -1.733699888e-01    2.097852230e-01
     2581250000   -1.924431175e-01    1.947462112e-01
     2582000000   -2.102306187e-01    1.770738959e-01
     2582750000   -2.258430123e-01    1.577768475e-01
     2583500000   -2.407473475e-01    1.381289661e-01
     2584250000   -2.533298433e-01    1.168874353e-01
     2585000000   -2.641865015e-01    9.355599433e-02
     2585750000   -2.730881870e-01    6.960950047e-02
     2586500000   -2.793830931e-01    4.498190805e-02
     2587250000   -2.840330303e-01    2.076408453e-02
     2588000000   -2.863983214e-01   -5.109194200e-03
     2588750000   -2.860722542e-01   -3.125400841e-02
     2589500000   -2.834189534e-01   -5.664758384e-02
     2590250000   -2.788496017e-01   -8.170443773e-02
     2591000000   -2.712249756e-01   -1.085817441e-01
     2591750000   -2.630635500e-01   -1.321901679e-01
     2592500000   -2.504792511e-01   -1.568017453e-01
     2593250000   -2.371262312e-01   -1.782757342e-01
     2594000000   -2.207350433e-01   -2.009716481e-01
     2594750000   -2.030624449e-01   -2.209453434e-01
     2595500000   -1.826986969e-01   -2.405500412e-01
     2596250000   -1.616577506e-01   -2.573651075e-01
     2597000000   -1.401797980e-01   -2.716791630e-01
     2597750000   -1.140941083e-01   -2.852659523e-01
     2598500000   -8.839049190e-02   -2.968481183e-01
     2599250000   -6.294288486e-02   -3.051846325e-01
     2600000000   -3.619733080e-02   -3.116652071e-01
