! NanoVNA-App
! Date: 2026-05-22 19:04:49
! Start: 800MHz Stop: 1.2GHz Points: 401
! S-Parameter data: F S11
# Hz S RI R 50
!     Frequency           S11_Real           S11_Imag
      800000000    6.536703706e-01    4.320623875e-01
      801000000    6.048559546e-01    5.018847585e-01
      802000000    5.480853319e-01    5.653463006e-01
      803000000    4.845364392e-01    6.219684482e-01
      804000000    4.159862995e-01    6.717090011e-01
      805000000    3.407649398e-01    7.132237554e-01
      806000000    2.623176873e-01    7.464025617e-01
      807000000    1.805553138e-01    7.708560228e-01
      808000000    9.587233514e-02    7.859421372e-01
      809000000    1.142838411e-02    7.911047339e-01
      810000000   -7.500827312e-02    7.866525650e-01
      811000000   -1.603633016e-01    7.739099860e-01
      812000000   -2.421860397e-01    7.506045103e-01
      813000000   -3.216343820e-01    7.194491029e-01
      814000000   -3.973189592e-01    6.792654991e-01
      815000000   -4.676794708e-01    6.316626668e-01
      816000000   -5.319695473e-01    5.756878257e-01
      817000000   -5.896623135e-01    5.145881176e-01
      818000000   -6.404142976e-01    4.464566708e-01
      819000000   -6.834654808e-01    3.735628426e-01
      820000000   -7.165721059e-01    2.979414463e-01
      821000000   -7.424215078e-01    2.182757109e-01
      822000000   -7.581170201e-01    1.370834857e-01
      823000000   -7.658720613e-01    5.375405028e-02
      824000000   -7.631822228e-01   -2.778331563e-02
      825000000   -7.526307702e-01   -1.092697829e-01
      826000000   -7.327772975e-01   -1.883241385e-01
      827000000   -7.044504285e-01   -2.638680339e-01
      828000000   -6.677370071e-01   -3.369662464e-01
      829000000   -6.241487265e-01   -4.034409821e-01
      830000000   -5.734823942e-01   -4.655289948e-01
      831000000   -5.166697502e-01   -5.197169781e-01
      832000000   -4.538130462e-01   -5.678049326e-01
      833000000   -3.865282834e-01   -6.092805862e-01
      834000000   -3.172488511e-01   -6.419264078e-01
      835000000   -2.430660278e-01   -6.675361395e-01
      836000000   -1.676105410e-01   -6.842442751e-01
      837000000   -9.275157750e-02   -6.923310757e-01
      838000000   -1.772961766e-02   -6.921435595e-01
      839000000    5.756324530e-02   -6.839256287e-01
      840000000    1.288999319e-01   -6.667897701e-01
      841000000    1.984754205e-01   -6.440245509e-01
      842000000    2.636118233e-01   -6.127949357e-01
      843000000    3.252829313e-01   -5.747032166e-01
      844000000    3.807401657e-01   -5.315581560e-01
      845000000    4.314847291e-01   -4.816320837e-01
      846000000    4.743916690e-01   -4.287849367e-01
      847000000    5.124855638e-01   -3.698525727e-01
      848000000    5.428262949e-01   -3.096804023e-01
      849000000    5.659564734e-01   -2.478789687e-01
      850000000    5.813868642e-01   -1.824583262e-01
      851000000    5.896000862e-01   -1.185680404e-01
      852000000    5.907341838e-01   -5.330232531e-02
      853000000    5.854125619e-01    8.814147674e-03
      854000000    5.729108453e-01    7.155785710e-02
      855000000    5.541222095e-01    1.298251897e-01
      856000000    5.294508934e-01    1.852229536e-01
      857000000    4.992890060e-01    2.366418988e-01
      858000000    4.638260901e-01    2.835794687e-01
      859000000    4.240287244e-01    3.251406848e-01
      860000000    3.804619014e-01    3.619658053e-01
      861000000    3.331756294e-01    3.929717541e-01
      862000000    2.845546901e-01    4.182376862e-01
      863000000    2.338590473e-01    4.378005862e-01
      864000000    1.834883392e-01    4.510037005e-01
      865000000    1.302416474e-01    4.589444995e-01
      866000000    7.981753349e-02    4.609865546e-01
      867000000    3.009196557e-02    4.577180445e-01
      868000000   -1.656252332e-02    4.494892955e-01
      869000000   -6.241163239e-02    4.356484413e-01
      870000000   -1.038116887e-01    4.177783728e-01
      871000000   -1.422322392e-01    3.960074186e-01
      872000000   -1.773611903e-01    3.699735999e-01
      873000000   -2.070010304e-01    3.410933316e-01
      874000000   -2.333018482e-01    3.094197810e-01
      875000000   -2.551199794e-01    2.750210166e-01
      876000000   -2.722932100e-01    2.400356680e-01
      877000000   -2.846864164e-01    2.041462958e-01
      878000000   -2.929042876e-01    1.675150096e-01
      879000000   -2.962244451e-01    1.333369166e-01
      880000000   -2.960754037e-01    9.843312204e-02
      881000000   -2.918278277e-01    6.448502839e-02
      882000000   -2.832676768e-01    3.270914778e-02
      883000000   -2.720474005e-01    3.999834415e-03
      884000000   -2.570904195e-01   -2.350334823e-02
      885000000   -2.400908321e-01   -4.778615758e-02
      886000000   -2.212600559e-01   -6.891865283e-02
      887000000   -2.011680007e-01   -8.738942444e-02
      888000000   -1.798424423e-01   -1.023134962e-01
      889000000   -1.582737565e-01   -1.140345782e-01
      890000000   -1.364894658e-01   -1.223082691e-01
      891000000   -1.154807284e-01   -1.270304024e-01
      892000000   -9.469862282e-02   -1.291246861e-01
      893000000   -7.520983368e-02   -1.280099303e-01
      894000000   -5.750944838e-02   -1.238741353e-01
      895000000   -4.173690826e-02   -1.180000901e-01
      896000000   -2.723343857e-02   -1.096612737e-01
      897000000   -1.475984044e-02   -9.950269014e-02
      898000000   -4.525158554e-03   -8.804979920e-02
      899000000    3.155993065e-03   -7.622513175e-02
      900000000    8.652694523e-03   -6.462929398e-02
      901000000    1.169152744e-02   -5.261966959e-02
      902000000    1.260520425e-02   -4.085922986e-02
      903000000    1.142804045e-02   -3.032407910e-02
      904000000    7.640663534e-03   -2.090716176e-02
      905000000    2.453228459e-03   -1.321811974e-02
      906000000   -4.258342087e-03   -7.441806607e-03
      907000000   -1.254610531e-02   -3.242682898e-03
      908000000   -2.174077556e-02   -1.201866777e-03
      909000000   -3.207077086e-02   -1.444057212e-03
      910000000   -4.184621572e-02   -4.035260063e-03
      911000000   -5.183013901e-02   -8.922413923e-03
      912000000   -6.092223525e-02   -1.535807364e-02
      913000000   -6.934492290e-02   -2.485335991e-02
      914000000   -7.592411339e-02   -3.570818529e-02
      915000000   -8.118092269e-02   -4.888840020e-02
      916000000   -8.454114199e-02   -6.364930421e-02
      917000000   -8.560365438e-02   -7.952937484e-02
      918000000   -8.471865207e-02   -9.643205255e-02
      919000000   -8.126569539e-02   -1.136209667e-01
      920000000   -7.474927604e-02   -1.308941543e-01
      921000000   -6.525561213e-02   -1.486719996e-01
      922000000   -5.406938493e-02   -1.641723812e-01
      923000000   -3.900865465e-02   -1.793823838e-01
      924000000   -2.158051170e-02   -1.927332133e-01
      925000000   -1.922391239e-03   -2.043429315e-01
      926000000    1.999896392e-02   -2.134954482e-01
      927000000    4.406491667e-02   -2.204797119e-01
      928000000    6.938020885e-02   -2.237365246e-01
      929000000    9.744330496e-02   -2.241250873e-01
      930000000    1.249820516e-01   -2.211937457e-01
      931000000    1.530793458e-01   -2.150978595e-01
      932000000    1.810509413e-01   -2.054661065e-01
      933000000    2.097119838e-01   -1.915167123e-01
      934000000    2.356345803e-01   -1.753049493e-01
      935000000    2.601895332e-01   -1.549862921e-01
      936000000    2.821605206e-01   -1.316630393e-01
      937000000    3.012394011e-01   -1.047359928e-01
      938000000    3.177570999e-01   -7.476077229e-02
      939000000    3.299639821e-01   -4.189423099e-02
      940000000    3.389535248e-01   -7.379801944e-03
      941000000    3.434628546e-01    2.871420793e-02
      942000000    3.437694609e-01    6.740550697e-02
      943000000    3.401236236e-01    1.057377607e-01
      944000000    3.315975070e-01    1.448536217e-01
      945000000    3.185486794e-01    1.833587587e-01
      946000000    3.012652397e-01    2.199153751e-01
      947000000    2.786553800e-01    2.559902072e-01
      948000000    2.525525391e-01    2.885372341e-01
      949000000    2.213403285e-01    3.183114529e-01
      950000000    1.863357127e-01    3.448277116e-01
      951000000    1.476188153e-01    3.677150607e-01
      952000000    1.066143215e-01    3.852753639e-01
      953000000    6.172915176e-02    3.986564577e-01
      954000000    1.492930669e-02    4.068087339e-01
      955000000   -3.313463181e-02    4.097481668e-01
      956000000   -8.167792112e-02    4.079128206e-01
      957000000   -1.323496550e-01    4.003421366e-01
      958000000   -1.802977473e-01    3.872908950e-01
      959000000   -2.272511423e-01    3.689415157e-01
      960000000   -2.733339965e-01    3.448588252e-01
      961000000   -3.147634864e-01    3.159653842e-01
      962000000   -3.535619676e-01    2.815763652e-01
      963000000   -3.882739842e-01    2.428972870e-01
      964000000   -4.181662798e-01    2.006191760e-01
      965000000   -4.428443909e-01    1.538033485e-01
      966000000   -4.622562230e-01    1.055788100e-01
      967000000   -4.761170149e-01    5.218915269e-02
      968000000   -4.837805331e-01   -1.247147913e-03
      969000000   -4.845445454e-01   -5.582281202e-02
      970000000   -4.789498150e-01   -1.101963595e-01
      971000000   -4.669561386e-01   -1.659456939e-01
      972000000   -4.492147267e-01   -2.186520398e-01
      973000000   -4.232437611e-01   -2.679346502e-01
      974000000   -3.924102783e-01   -3.159109354e-01
      975000000   -3.549505472e-01   -3.601132929e-01
      976000000   -3.123488128e-01   -3.998831511e-01
      977000000   -2.656513155e-01   -4.341914058e-01
      978000000   -2.131836712e-01   -4.646120071e-01
      979000000   -1.570973098e-01   -4.881327450e-01
      980000000   -9.906693548e-02   -5.061775446e-01
      981000000   -3.817323968e-02   -5.167900324e-01
      982000000    2.278885618e-02   -5.211132169e-01
      983000000    8.445280045e-02   -5.181971192e-01
      984000000    1.463166475e-01   -5.078806877e-01
      985000000    2.058274597e-01   -4.899133444e-01
      986000000    2.638047040e-01   -4.651835859e-01
      987000000    3.187087774e-01   -4.336661994e-01
      988000000    3.698589206e-01   -3.961851001e-01
      989000000    4.168508053e-01   -3.531529903e-01
      990000000    4.581406415e-01   -3.028420210e-01
      991000000    4.935663640e-01   -2.503723204e-01
      992000000    5.232900977e-01   -1.915564686e-01
      993000000    5.450648665e-01   -1.313302964e-01
      994000000    5.607048869e-01   -6.738066673e-02
      995000000    5.683085918e-01   -2.145838225e-03
      996000000    5.671247840e-01    6.284114718e-02
      997000000    5.587698221e-01    1.278726459e-01
      998000000    5.427477956e-01    1.918920279e-01
      999000000    5.190349221e-01    2.536524534e-01
     1000000000    4.870001376e-01    3.139058650e-01
     1001000000    4.493018985e-01    3.685421646e-01
     1002000000    4.044303894e-01    4.192556143e-01
     1003000000    3.521820307e-01    4.644905329e-01
     1004000000    2.957451344e-01    5.039079189e-01
     1005000000    2.360872179e-01    5.355123281e-01
     1006000000    1.699786484e-01    5.608336329e-01
     1007000000    1.044326872e-01    5.779600739e-01
     1008000000    3.547753394e-02    5.881887674e-01
     1009000000   -3.731538355e-02    5.887662768e-01
     1010000000   -1.049524322e-01    5.826699138e-01
     1011000000   -1.741543114e-01    5.683429837e-01
     1012000000   -2.431466728e-01    5.443064570e-01
     1013000000   -3.058899045e-01    5.135151148e-01
     1014000000   -3.656445742e-01    4.753281176e-01
     1015000000   -4.218314290e-01    4.297970533e-01
     1016000000   -4.711101949e-01    3.784186840e-01
     1017000000   -5.147771239e-01    3.198026717e-01
     1018000000   -5.511452556e-01    2.573973536e-01
     1019000000   -5.796618462e-01    1.895089597e-01
     1020000000   -6.002314687e-01    1.214803904e-01
     1021000000   -6.123706698e-01    5.052614585e-02
     1022000000   -6.149185300e-01   -2.489101328e-02
     1023000000   -6.099911928e-01   -9.885993600e-02
     1024000000   -5.956338048e-01   -1.701529920e-01
     1025000000   -5.719624162e-01   -2.411532551e-01
     1026000000   -5.414770246e-01   -3.091267645e-01
     1027000000   -5.020750165e-01   -3.744088709e-01
     1028000000   -4.554809630e-01   -4.328342676e-01
     1029000000   -4.026061296e-01   -4.867341220e-01
     1030000000   -3.419728875e-01   -5.344597101e-01
     1031000000   -2.772720754e-01   -5.748675466e-01
     1032000000   -2.078563124e-01   -6.068359017e-01
     1033000000   -1.362785250e-01   -6.300874352e-01
     1034000000   -6.123931706e-02   -6.445050240e-01
     1035000000    1.629915275e-02   -6.505836248e-01
     1036000000    9.428950399e-02   -6.469685435e-01
     1037000000    1.711612642e-01   -6.344715953e-01
     1038000000    2.456317842e-01   -6.126523614e-01
     1039000000    3.181483150e-01   -5.822944045e-01
     1040000000    3.874582946e-01   -5.434501171e-01
     1041000000    4.500848055e-01   -4.963925481e-01
     1042000000    5.082482100e-01   -4.421021938e-01
     1043000000    5.585595369e-01   -3.819282651e-01
     1044000000    6.024383903e-01   -3.144810498e-01
     1045000000    6.370551586e-01   -2.439254373e-01
     1046000000    6.642275453e-01   -1.671338230e-01
     1047000000    6.816720963e-01   -9.041405469e-02
     1048000000    6.901504397e-01   -7.099128328e-03
     1049000000    6.890766621e-01    7.230732590e-02
     1050000000    6.786135435e-01    1.516675651e-01
     1051000000    6.588231921e-01    2.314660698e-01
     1052000000    6.289389133e-01    3.079803586e-01
     1053000000    5.904722810e-01    3.817175627e-01
     1054000000    5.458415747e-01    4.472517371e-01
     1055000000    4.900905192e-01    5.108856559e-01
     1056000000    4.291551411e-01    5.652728081e-01
     1057000000    3.620586395e-01    6.124626398e-01
     1058000000    2.877123058e-01    6.527750492e-01
     1059000000    2.113261223e-01    6.833049059e-01
     1060000000    1.303141117e-01    7.046718001e-01
     1061000000    4.658108950e-02    7.164154649e-01
     1062000000   -3.531713039e-02    7.181687951e-01
     1063000000   -1.198827177e-01    7.108475566e-01
     1064000000   -2.033804655e-01    6.924704313e-01
     1065000000   -2.813856006e-01    6.656894088e-01
     1066000000   -3.579230309e-01    6.284707189e-01
     1067000000   -4.314334691e-01    5.816814303e-01
     1068000000   -4.964234829e-01    5.282590389e-01
     1069000000   -5.552589297e-01    4.672435820e-01
     1070000000   -6.074258685e-01    3.994162977e-01
     1071000000   -6.517348886e-01    3.252817690e-01
     1072000000   -6.857896447e-01    2.476066798e-01
     1073000000   -7.116100788e-01    1.656149626e-01
     1074000000   -7.272720933e-01    8.034385741e-02
     1075000000   -7.326415777e-01   -5.605167244e-03
     1076000000   -7.279265523e-01   -9.155577421e-02
     1077000000   -7.135306597e-01   -1.763537526e-01
     1078000000   -6.884258986e-01   -2.602028549e-01
     1079000000   -6.551608443e-01   -3.379882276e-01
     1080000000   -6.106402874e-01   -4.136759341e-01
     1081000000   -5.600616336e-01   -4.818776548e-01
     1082000000   -4.986356199e-01   -5.453997850e-01
     1083000000   -4.327367246e-01   -5.998257399e-01
     1084000000   -3.580187559e-01   -6.467702389e-01
     1085000000   -2.813706994e-01   -6.846758723e-01
     1086000000   -1.984062195e-01   -7.132027745e-01
     1087000000   -1.131421849e-01   -7.317780852e-01
     1088000000   -2.632768080e-02   -7.405090928e-01
     1089000000    6.127348915e-02   -7.390873432e-01
     1090000000    1.482130736e-01   -7.269257903e-01
     1091000000    2.321239859e-01   -7.041298747e-01
     1092000000    3.152967989e-01   -6.709216833e-01
     1093000000    3.911512792e-01   -6.310392022e-01
     1094000000    4.625653625e-01   -5.804578066e-01
     1095000000    5.279249549e-01   -5.207837820e-01
     1096000000    5.854318142e-01   -4.556879401e-01
     1097000000    6.354445815e-01   -3.834539354e-01
     1098000000    6.758917570e-01   -3.070378304e-01
     1099000000    7.067440748e-01   -2.224932611e-01
     1100000000    7.282575965e-01   -1.380134523e-01
     1101000000    7.386624813e-01   -4.951043800e-02
     1102000000    7.400712967e-01    3.758542612e-02
     1103000000    7.302774191e-01    1.255048960e-01
     1104000000    7.094249725e-01    2.118360251e-01
     1105000000    6.790073514e-01    2.955396175e-01
     1106000000    6.401920319e-01    3.738615811e-01
     1107000000    5.905938148e-01    4.488842487e-01
     1108000000    5.329751968e-01    5.164254904e-01
     1109000000    4.693065882e-01    5.765379667e-01
     1110000000    3.969841897e-01    6.291092634e-01
     1111000000    3.179306984e-01    6.728960276e-01
     1112000000    2.369859666e-01    7.066344023e-01
     1113000000    1.527762264e-01    7.305072546e-01
     1114000000    6.311580539e-02    7.439643741e-01
     1115000000   -2.207417227e-02    7.470513582e-01
     1116000000   -1.142367795e-01    7.384946942e-01
     1117000000   -1.973676682e-01    7.216530442e-01
     1118000000   -2.821616828e-01    6.934507489e-01
     1119000000   -3.639417887e-01    6.547181606e-01
     1120000000   -4.372448325e-01    6.090217233e-01
     1121000000   -5.069678426e-01    5.515611172e-01
     1122000000   -5.693903565e-01    4.889348745e-01
     1123000000   -6.238033772e-01    4.166201949e-01
     1124000000   -6.677370667e-01    3.412809074e-01
     1125000000   -7.039589286e-01    2.579226494e-01
     1126000000   -7.300744653e-01    1.746121645e-01
     1127000000   -7.457964420e-01    8.591633290e-02
     1128000000   -7.509446144e-01   -2.499766415e-03
     1129000000   -7.448029518e-01   -9.276975691e-02
     1130000000   -7.297945619e-01   -1.776805818e-01
     1131000000   -7.027124166e-01   -2.631441653e-01
     1132000000   -6.660082936e-01   -3.448320031e-01
     1133000000   -6.198549867e-01   -4.202263355e-01
     1134000000   -5.649886131e-01   -4.905561209e-01
     1135000000   -4.996754825e-01   -5.551555157e-01
     1136000000   -4.309045970e-01   -6.098967791e-01
     1137000000   -3.550015688e-01   -6.573638320e-01
     1138000000   -2.704607844e-01   -6.961361170e-01
     1139000000   -1.894236207e-01   -7.230414152e-01
     1140000000   -9.576162696e-02   -7.404600978e-01
     1141000000   -9.505950846e-03   -7.480587959e-01
     1142000000    8.016636223e-02   -7.448801398e-01
     1143000000    1.711497456e-01   -7.301101089e-01
     1144000000    2.571806908e-01   -7.061580420e-01
     1145000000    3.392909467e-01   -6.717543006e-01
     1146000000    4.175004661e-01   -6.282551885e-01
     1147000000    4.894498289e-01   -5.750809312e-01
     1148000000    5.558261275e-01   -5.122441053e-01
     1149000000    6.123704910e-01   -4.455258548e-01
     1150000000    6.615579128e-01   -3.681405783e-01
     1151000000    7.011138797e-01   -2.891621292e-01
     1152000000    7.298642993e-01   -2.056800723e-01
     1153000000    7.497093678e-01   -1.172082722e-01
     1154000000    7.587720156e-01   -2.958284691e-02
     1155000000    7.564189434e-01    6.185029075e-02
     1156000000    7.442084551e-01    1.496352404e-01
     1157000000    7.214181423e-01    2.372472733e-01
     1158000000    6.878517270e-01    3.211857080e-01
     1159000000    6.454433799e-01    3.999681473e-01
     1160000000    5.930219293e-01    4.736066461e-01
     1161000000    5.337865949e-01    5.403997302e-01
     1162000000    4.648288786e-01    5.998034477e-01
     1163000000    3.930027485e-01    6.494339108e-01
     1164000000    3.115774989e-01    6.916071177e-01
     1165000000    2.264825106e-01    7.231966257e-01
     1166000000    1.403172165e-01    7.441717386e-01
     1167000000    5.145454034e-02    7.562710047e-01
     1168000000   -3.805270046e-02    7.564333677e-01
     1169000000   -1.277777106e-01    7.453789115e-01
     1170000000   -2.144512236e-01    7.242899537e-01
     1171000000   -2.979465425e-01    6.945314407e-01
     1172000000   -3.781740665e-01    6.525250077e-01
     1173000000   -4.525748193e-01    6.017253399e-01
     1174000000   -5.210283399e-01    5.431116223e-01
     1175000000   -5.813432336e-01    4.768016934e-01
     1176000000   -6.330214739e-01    4.037525356e-01
     1177000000   -6.751219034e-01    3.264291584e-01
     1178000000   -7.097598910e-01    2.380689830e-01
     1179000000   -7.325024009e-01    1.560516208e-01
     1180000000   -7.462813854e-01    6.499390304e-02
     1181000000   -7.475677729e-01   -2.615495585e-02
     1182000000   -7.390775681e-01   -1.152784005e-01
     1183000000   -7.203451395e-01   -2.021957934e-01
     1184000000   -6.922320127e-01   -2.864445746e-01
     1185000000   -6.523073912e-01   -3.671813011e-01
     1186000000   -6.038592458e-01   -4.424336851e-01
     1187000000   -5.466435552e-01   -5.110090971e-01
     1188000000   -4.809372723e-01   -5.730543733e-01
     1189000000   -4.084289968e-01   -6.260671020e-01
     1190000000   -3.331351876e-01   -6.703550220e-01
     1191000000   -2.500562072e-01   -7.056896687e-01
     1192000000   -1.652847379e-01   -7.307304740e-01
     1193000000   -7.533545792e-02   -7.446222305e-01
     1194000000    1.398834493e-02   -7.480885983e-01
     1195000000    1.043474823e-01   -7.406319380e-01
     1196000000    1.897020042e-01   -7.242748141e-01
     1197000000    2.736207247e-01   -6.971035004e-01
     1198000000    3.554997742e-01   -6.588665843e-01
     1199000000    4.323660731e-01   -6.118050218e-01
     1200000000    5.016905069e-01   -5.556921959e-01
