! NanoVNA-App
! Date: 2026-05-22 19:11:03
! Start: 800MHz Stop: 1.2GHz Points: 401
! S-Parameter data: F S11
# Hz S RI R 50
!     Frequency           S11_Real           S11_Imag
      800000000   -1.620420516e-01   -1.874189824e-01
      801000000   -1.440022737e-01   -2.034678608e-01
      802000000   -1.235042214e-01   -2.179633528e-01
      803000000   -1.016305238e-01   -2.303488255e-01
      804000000   -7.883085310e-02   -2.413043231e-01
      805000000   -5.511452258e-02   -2.491003573e-01
      806000000   -3.029319085e-02   -2.553083897e-01
      807000000   -4.781351425e-03   -2.580891550e-01
      808000000    2.069943026e-02   -2.591218054e-01
      809000000    4.690697044e-02   -2.575209737e-01
      810000000    7.269490510e-02   -2.531578243e-01
      811000000    9.812664986e-02   -2.455479056e-01
      812000000    1.230717897e-01   -2.361199260e-01
      813000000    1.475849599e-01   -2.243845612e-01
      814000000    1.706761271e-01   -2.102301270e-01
      815000000    1.920212656e-01   -1.938628703e-01
      816000000    2.121065855e-01   -1.753836870e-01
      817000000    2.300678194e-01   -1.558099985e-01
      818000000    2.457423359e-01   -1.339223832e-01
      819000000    2.593942583e-01   -1.108080894e-01
      820000000    2.701380253e-01   -8.629014343e-02
      821000000    2.788894475e-01   -6.031708419e-02
      822000000    2.849804461e-01   -3.370699659e-02
      823000000    2.883875966e-01   -7.566221990e-03
      824000000    2.879887819e-01    1.963272877e-02
      825000000    2.855767608e-01    4.602615908e-02
      826000000    2.797307968e-01    7.237177342e-02
      827000000    2.707860768e-01    9.815046936e-02
      828000000    2.587202489e-01    1.225254536e-01
      829000000    2.449270934e-01    1.463527977e-01
      830000000    2.275155932e-01    1.687877923e-01
      831000000    2.080696672e-01    1.898660809e-01
      832000000    1.865037531e-01    2.085306197e-01
      833000000    1.622141749e-01    2.252052575e-01
      834000000    1.366159171e-01    2.396873087e-01
      835000000    1.096167788e-01    2.520895302e-01
      836000000    8.112506568e-02    2.611034513e-01
      837000000    5.175450072e-02    2.681083679e-01
      838000000    2.143435366e-02    2.720846534e-01
      839000000   -8.818995208e-03    2.731856704e-01
      840000000   -3.806164488e-02    2.706977427e-01
      841000000   -6.913026422e-02    2.658356428e-01
      842000000   -9.759952128e-02    2.575843632e-01
      843000000   -1.264635921e-01    2.470956743e-01
      844000000   -1.531980038e-01    2.331271321e-01
      845000000   -1.787212938e-01    2.171301991e-01
      846000000   -2.022336721e-01    1.981168687e-01
      847000000   -2.233048975e-01    1.764365435e-01
      848000000   -2.416031212e-01    1.527448148e-01
      849000000   -2.578600645e-01    1.267155409e-01
      850000000   -2.712266743e-01    9.920203686e-02
      851000000   -2.816515565e-01    6.987363845e-02
      852000000   -2.894110978e-01    3.978342935e-02
      853000000   -2.941547334e-01    8.247901686e-03
      854000000   -2.957299948e-01   -2.336473577e-02
      855000000   -2.940711081e-01   -5.469517782e-02
      856000000   -2.894825637e-01   -8.597806096e-02
      857000000   -2.815226912e-01   -1.164920256e-01
      858000000   -2.702420354e-01   -1.461775452e-01
      859000000   -2.562587261e-01   -1.739695966e-01
      860000000   -2.393843383e-01   -2.000634968e-01
      861000000   -2.196779251e-01   -2.244733870e-01
      862000000   -1.978946179e-01   -2.457302362e-01
      863000000   -1.730886400e-01   -2.653840184e-01
      864000000   -1.468214989e-01   -2.816602588e-01
      865000000   -1.174924970e-01   -2.949768901e-01
      866000000   -8.682753891e-02   -3.048095703e-01
      867000000   -5.543559417e-02   -3.116276264e-01
      868000000   -2.255247347e-02   -3.156623542e-01
      869000000    1.067736186e-02   -3.165200353e-01
      870000000    4.326413944e-02   -3.134225309e-01
      871000000    7.632204145e-02   -3.067958653e-01
      872000000    1.082444340e-01   -2.970347106e-01
      873000000    1.399304867e-01   -2.835076153e-01
      874000000    1.705899537e-01   -2.670078576e-01
      875000000    1.985578388e-01   -2.476160824e-01
      876000000    2.257389873e-01   -2.253625244e-01
      877000000    2.501128018e-01   -2.010173649e-01
      878000000    2.724141181e-01   -1.739530712e-01
      879000000    2.915172279e-01   -1.451175362e-01
      880000000    3.072534502e-01   -1.146994084e-01
      881000000    3.200769126e-01   -8.306107670e-02
      882000000    3.290267587e-01   -5.096741393e-02
      883000000    3.337791562e-01   -1.784869842e-02
      884000000    3.350982964e-01    1.543078013e-02
      885000000    3.327687979e-01    4.946063831e-02
      886000000    3.261851668e-01    8.271371573e-02
      887000000    3.163605332e-01    1.156990007e-01
      888000000    3.028133512e-01    1.478786767e-01
      889000000    2.859198153e-01    1.782416850e-01
      890000000    2.657894194e-01    2.071088105e-01
      891000000    2.432681024e-01    2.337467670e-01
      892000000    2.177600265e-01    2.571937442e-01
      893000000    1.899653077e-01    2.783393562e-01
      894000000    1.597486883e-01    2.960696220e-01
      895000000    1.272194237e-01    3.106394410e-01
      896000000    9.377501160e-02    3.214242756e-01
      897000000    5.833799392e-02    3.286069334e-01
      898000000    2.212771028e-02    3.323582113e-01
      899000000   -1.469375193e-02    3.323937356e-01
      900000000   -5.140418559e-02    3.289348185e-01
      901000000   -8.816649020e-02    3.218700588e-01
      902000000   -1.233584359e-01    3.114422858e-01
      903000000   -1.581776440e-01    2.971591949e-01
      904000000   -1.893847883e-01    2.800899744e-01
      905000000   -2.200378627e-01    2.592393756e-01
      906000000   -2.475547343e-01    2.353781462e-01
      907000000   -2.726015151e-01    2.084888965e-01
      908000000   -2.940984964e-01    1.798874140e-01
      909000000   -3.132067025e-01    1.477734745e-01
      910000000   -3.281080127e-01    1.135956347e-01
      911000000   -3.391214311e-01    7.925567031e-02
      912000000   -3.471667171e-01    4.216179252e-02
      913000000   -3.510502577e-01    5.808184855e-03
      914000000   -3.505485654e-01   -3.207582235e-02
      915000000   -3.469092846e-01   -6.926007569e-02
      916000000   -3.389473855e-01   -1.056401506e-01
      917000000   -3.274030685e-01   -1.404872388e-01
      918000000   -3.112083077e-01   -1.748418361e-01
      919000000   -2.919276357e-01   -2.069156766e-01
      920000000   -2.689985931e-01   -2.360583842e-01
      921000000   -2.421060801e-01   -2.640677691e-01
      922000000   -2.124159187e-01   -2.885251939e-01
      923000000   -1.799323857e-01   -3.097065985e-01
      924000000   -1.459802389e-01   -3.281387091e-01
      925000000   -1.092782617e-01   -3.425721526e-01
      926000000   -7.131538540e-02   -3.534229100e-01
      927000000   -3.236857057e-02   -3.604232073e-01
      928000000    6.801152602e-03   -3.628765941e-01
      929000000    4.717957601e-02   -3.613712192e-01
      930000000    8.561805636e-02   -3.559208810e-01
      931000000    1.251613647e-01   -3.462284207e-01
      932000000    1.632409841e-01   -3.322767615e-01
      933000000    1.983958036e-01   -3.147161901e-01
      934000000    2.319954932e-01   -2.935650647e-01
      935000000    2.636715770e-01   -2.684282362e-01
      936000000    2.917854786e-01   -2.409370840e-01
      937000000    3.169520497e-01   -2.090282440e-01
      938000000    3.386419117e-01   -1.748365313e-01
      939000000    3.566279113e-01   -1.386822164e-01
      940000000    3.716264963e-01   -9.900568426e-02
      941000000    3.812907934e-01   -5.981764197e-02
      942000000    3.874716461e-01   -1.860665902e-02
      943000000    3.892192841e-01    2.326407284e-02
      944000000    3.859404922e-01    6.496459991e-02
      945000000    3.787497580e-01    1.070534438e-01
      946000000    3.670130372e-01    1.475166678e-01
      947000000    3.520876765e-01    1.864027679e-01
      948000000    3.326479495e-01    2.246400118e-01
      949000000    3.085794747e-01    2.592102885e-01
      950000000    2.809878588e-01    2.926514745e-01
      951000000    2.503941059e-01    3.215436935e-01
      952000000    2.175109237e-01    3.470594585e-01
      953000000    1.796261668e-01    3.700160086e-01
      954000000    1.414362639e-01    3.870513141e-01
      955000000    9.988033772e-02    4.008658528e-01
      956000000    5.789132416e-02    4.102528095e-01
      957000000    1.443437301e-02    4.147844017e-01
      958000000   -2.911039814e-02    4.149711728e-01
      959000000   -7.265970111e-02    4.099833667e-01
      960000000   -1.159695312e-01    4.008158743e-01
      961000000   -1.581799090e-01    3.859689236e-01
      962000000   -1.985594332e-01    3.669773638e-01
      963000000   -2.365198582e-01    3.439964354e-01
      964000000   -2.731142640e-01    3.159272075e-01
      965000000   -3.065410852e-01    2.844079435e-01
      966000000   -3.360242546e-01    2.494132370e-01
      967000000   -3.626565933e-01    2.116378248e-01
      968000000   -3.861167133e-01    1.709048897e-01
      969000000   -4.034461975e-01    1.287444234e-01
      970000000   -4.175162613e-01    8.427835256e-02
      971000000   -4.269032180e-01    3.697751090e-02
      972000000   -4.301870465e-01   -7.870190777e-03
      973000000   -4.285905659e-01   -5.539255589e-02
      974000000   -4.221680164e-01   -1.011940315e-01
      975000000   -4.104898572e-01   -1.472249180e-01
      976000000   -3.949762881e-01   -1.908945441e-01
      977000000   -3.731449246e-01   -2.338528335e-01
      978000000   -3.475412428e-01   -2.741714418e-01
      979000000   -3.183963001e-01   -3.105138540e-01
      980000000   -2.838500440e-01   -3.452199996e-01
      981000000   -2.460463643e-01   -3.755877912e-01
      982000000   -2.062733471e-01   -4.009948373e-01
      983000000   -1.635478288e-01   -4.220328331e-01
      984000000   -1.176298931e-01   -4.383688569e-01
      985000000   -7.142452151e-02   -4.491646290e-01
      986000000   -2.317914739e-02   -4.543668330e-01
      987000000    2.574530430e-02   -4.539276361e-01
      988000000    7.469342649e-02   -4.480799139e-01
      989000000    1.232690960e-01   -4.370249510e-01
      990000000    1.716527939e-01   -4.194899201e-01
      991000000    2.168768644e-01   -3.981435597e-01
      992000000    2.607434690e-01   -3.711478114e-01
      993000000    3.029907644e-01   -3.392114043e-01
      994000000    3.409320414e-01   -3.030027747e-01
      995000000    3.752470911e-01   -2.630344927e-01
      996000000    4.040116966e-01   -2.198027968e-01
      997000000    4.299827218e-01   -1.718571484e-01
      998000000    4.503140152e-01   -1.226854846e-01
      999000000    4.656224251e-01   -7.022579014e-02
     1000000000    4.751215279e-01   -1.641062833e-02
     1001000000    4.787715375e-01    3.836219013e-02
     1002000000    4.767791331e-01    9.342598915e-02
     1003000000    4.691210389e-01    1.472856551e-01
     1004000000    4.553054571e-01    2.006431967e-01
     1005000000    4.361292124e-01    2.521056831e-01
     1006000000    4.109168053e-01    3.019701838e-01
     1007000000    3.804047108e-01    3.489013910e-01
     1008000000    3.450774252e-01    3.916526735e-01
     1009000000    3.036220372e-01    4.313882291e-01
     1010000000    2.596105337e-01    4.663736522e-01
     1011000000    2.117728591e-01    4.966501892e-01
     1012000000    1.594921052e-01    5.213217139e-01
     1013000000    1.061392277e-01    5.401831269e-01
     1014000000    5.009336770e-02    5.530116558e-01
     1015000000   -8.132241666e-03    5.600073934e-01
     1016000000   -6.520345062e-02    5.604413152e-01
     1017000000   -1.238493621e-01    5.542700887e-01
     1018000000   -1.808416545e-01    5.413267612e-01
     1019000000   -2.369713932e-01    5.222654343e-01
     1020000000   -2.911389470e-01    4.973120391e-01
     1021000000   -3.431426883e-01    4.662787020e-01
     1022000000   -3.916067183e-01    4.293105304e-01
     1023000000   -4.363494813e-01    3.875195384e-01
     1024000000   -4.759435952e-01    3.413023055e-01
     1025000000   -5.105328560e-01    2.900020182e-01
     1026000000   -5.396844745e-01    2.368493974e-01
     1027000000   -5.631206632e-01    1.781120747e-01
     1028000000   -5.793235302e-01    1.192556545e-01
     1029000000   -5.899917483e-01    5.721426383e-02
     1030000000   -5.935949683e-01   -4.136201460e-03
     1031000000   -5.895718336e-01   -6.664966792e-02
     1032000000   -5.789611340e-01   -1.264163405e-01
     1033000000   -5.603341460e-01   -1.861175001e-01
     1034000000   -5.342642069e-01   -2.444447875e-01
     1035000000   -5.021113157e-01   -2.984879613e-01
     1036000000   -4.617072940e-01   -3.502305150e-01
     1037000000   -4.154203832e-01   -3.980766535e-01
     1038000000   -3.638022542e-01   -4.418895543e-01
     1039000000   -3.055725694e-01   -4.822601080e-01
     1040000000   -2.434117943e-01   -5.172988772e-01
     1041000000   -1.784237027e-01   -5.466228127e-01
     1042000000   -1.113837510e-01   -5.706356764e-01
     1043000000   -4.423401877e-02   -5.871408582e-01
     1044000000    2.533639409e-02   -5.963706970e-01
     1045000000    9.351456910e-02   -5.985071659e-01
     1046000000    1.607108861e-01   -5.922085643e-01
     1047000000    2.275471687e-01   -5.783171654e-01
     1048000000    2.927747667e-01   -5.551158786e-01
     1049000000    3.532308042e-01   -5.266641974e-01
     1050000000    4.103067815e-01   -4.907604754e-01
     1051000000    4.645390809e-01   -4.474452436e-01
     1052000000    5.137180090e-01   -3.961823583e-01
     1053000000    5.563467145e-01   -3.420634568e-01
     1054000000    5.931237340e-01   -2.826313972e-01
     1055000000    6.237059236e-01   -2.175457329e-01
     1056000000    6.471033692e-01   -1.502148211e-01
     1057000000    6.626861095e-01   -7.969472557e-02
     1058000000    6.702442765e-01   -6.958771031e-03
     1059000000    6.704996824e-01    6.724608690e-02
     1060000000    6.627663970e-01    1.391704679e-01
     1061000000    6.466059089e-01    2.118573934e-01
     1062000000    6.230455041e-01    2.815904319e-01
     1063000000    5.919942260e-01    3.493916392e-01
     1064000000    5.531316996e-01    4.133718908e-01
     1065000000    5.077136159e-01    4.734187722e-01
     1066000000    4.541026354e-01    5.283197165e-01
     1067000000    3.983480930e-01    5.756387115e-01
     1068000000    3.328365088e-01    6.186553836e-01
     1069000000    2.662149966e-01    6.530320048e-01
     1070000000    1.942032129e-01    6.805323362e-01
     1071000000    1.186451092e-01    6.999000907e-01
     1072000000    4.315927625e-02    7.094107866e-01
     1073000000   -3.516569361e-02    7.124330997e-01
     1074000000   -1.151513904e-01    7.059726119e-01
     1075000000   -1.920478344e-01    6.905151606e-01
     1076000000   -2.673021555e-01    6.670707464e-01
     1077000000   -3.395873904e-01    6.361207962e-01
     1078000000   -4.102746546e-01    5.961013436e-01
     1079000000   -4.751437008e-01    5.486023426e-01
     1080000000   -5.346975327e-01    4.935592413e-01
     1081000000   -5.887082815e-01    4.334970415e-01
     1082000000   -6.345131397e-01    3.667986095e-01
     1083000000   -6.737536788e-01    2.969798148e-01
     1084000000   -7.050622702e-01    2.201658934e-01
     1085000000   -7.276916504e-01    1.426793635e-01
     1086000000   -7.420650721e-01    6.168733165e-02
     1087000000   -7.458789945e-01   -1.896249130e-02
     1088000000   -7.409610152e-01   -1.038762406e-01
     1089000000   -7.275422215e-01   -1.845818162e-01
     1090000000   -7.050165534e-01   -2.654462159e-01
     1091000000   -6.727100611e-01   -3.419913054e-01
     1092000000   -6.326807141e-01   -4.145427942e-01
     1093000000   -5.845302343e-01   -4.833980799e-01
     1094000000   -5.294724703e-01   -5.454890728e-01
     1095000000   -4.668478966e-01   -6.030356288e-01
     1096000000   -3.987283111e-01   -6.511221528e-01
     1097000000   -3.236727118e-01   -6.936454177e-01
     1098000000   -2.464978397e-01   -7.267875671e-01
     1099000000   -1.636287868e-01   -7.502309084e-01
     1100000000   -7.858559489e-02   -7.654532790e-01
     1101000000    5.623486359e-03   -7.708325386e-01
     1102000000    9.175213426e-02   -7.668176293e-01
     1103000000    1.781209111e-01   -7.529466152e-01
     1104000000    2.618601918e-01   -7.297713757e-01
     1105000000    3.433324695e-01   -6.972045302e-01
     1106000000    4.200968742e-01   -6.564521194e-01
     1107000000    4.919856191e-01   -6.061034203e-01
     1108000000    5.586727858e-01   -5.483267307e-01
     1109000000    6.176945567e-01   -4.843176007e-01
     1110000000    6.686049700e-01   -4.134695828e-01
     1111000000    7.128528953e-01   -3.355627060e-01
     1112000000    7.476786375e-01   -2.545415163e-01
     1113000000    7.721400857e-01   -1.706359982e-01
     1114000000    7.882564068e-01   -8.167622238e-02
     1115000000    7.936982512e-01    6.233343389e-03
     1116000000    7.901828289e-01    9.622937441e-02
     1117000000    7.758363485e-01    1.840194166e-01
     1118000000    7.512923479e-01    2.702955306e-01
     1119000000    7.183333039e-01    3.537845910e-01
     1120000000    6.759887934e-01    4.323402345e-01
     1121000000    6.248571277e-01    5.059431791e-01
     1122000000    5.629966259e-01    5.746688843e-01
     1123000000    4.967436790e-01    6.350724101e-01
     1124000000    4.222753644e-01    6.887266636e-01
     1125000000    3.401689231e-01    7.337304354e-01
     1126000000    2.561808527e-01    7.684766054e-01
     1127000000    1.704156101e-01    7.929594517e-01
     1128000000    8.033233881e-02    8.091661334e-01
     1129000000   -1.422998775e-02    8.140118718e-01
     1130000000   -1.050157174e-01    8.091238737e-01
     1131000000   -1.954385638e-01    7.931275964e-01
     1132000000   -2.838977575e-01    7.675622106e-01
     1133000000   -3.703599274e-01    7.318864465e-01
     1134000000   -4.518109560e-01    6.850128770e-01
     1135000000   -5.276567340e-01    6.305193305e-01
     1136000000   -5.962069035e-01    5.676004887e-01
     1137000000   -6.568184495e-01    4.990884364e-01
     1138000000   -7.120678425e-01    4.206409752e-01
     1139000000   -7.563852668e-01    3.377915919e-01
     1140000000   -7.902119160e-01    2.516490221e-01
     1141000000   -8.155894876e-01    1.604396403e-01
     1142000000   -8.297042847e-01    6.745685637e-02
     1143000000   -8.334649801e-01   -2.791110240e-02
     1144000000   -8.257511854e-01   -1.244577691e-01
     1145000000   -8.081267476e-01   -2.137634903e-01
     1146000000   -7.790334821e-01   -3.063609302e-01
     1147000000   -7.407235503e-01   -3.933269382e-01
     1148000000   -6.924601793e-01   -4.755216837e-01
     1149000000   -6.341283321e-01   -5.522305965e-01
     1150000000   -5.692014098e-01   -6.209199429e-01
     1151000000   -4.943138957e-01   -6.832579374e-01
     1152000000   -4.148125052e-01   -7.363501787e-01
     1153000000   -3.280603588e-01   -7.795463204e-01
     1154000000   -2.378016263e-01   -8.125296235e-01
     1155000000   -1.464403272e-01   -8.342698216e-01
     1156000000   -4.916387424e-02   -8.473430872e-01
     1157000000    4.683014378e-02   -8.486633301e-01
     1158000000    1.463275254e-01   -8.389468193e-01
     1159000000    2.390757650e-01   -8.178144693e-01
     1160000000    3.308431506e-01   -7.861730456e-01
     1161000000    4.176091552e-01   -7.445458174e-01
     1162000000    5.029931664e-01   -6.914296150e-01
     1163000000    5.787332654e-01   -6.301112771e-01
     1164000000    6.461419463e-01   -5.618109703e-01
     1165000000    7.057659030e-01   -4.853655398e-01
     1166000000    7.584779263e-01   -4.012361467e-01
     1167000000    8.017306328e-01   -3.109570146e-01
     1168000000    8.312203288e-01   -2.191243768e-01
     1169000000    8.523283005e-01   -1.218241453e-01
     1170000000    8.611540794e-01   -2.414586954e-02
     1171000000    8.597375154e-01    7.439760864e-02
     1172000000    8.463651538e-01    1.715117991e-01
     1173000000    8.212437034e-01    2.713232636e-01
     1174000000    7.865691781e-01    3.593920171e-01
     1175000000    7.393501997e-01    4.517282844e-01
     1176000000    6.859567165e-01    5.299034715e-01
     1177000000    6.178466678e-01    6.108149886e-01
     1178000000    5.459919572e-01    6.766726375e-01
     1179000000    4.670404494e-01    7.345155478e-01
     1180000000    3.795254529e-01    7.837917805e-01
     1181000000    2.873005867e-01    8.235285878e-01
     1182000000    1.911767274e-01    8.516049385e-01
     1183000000    9.224266559e-02    8.688144684e-01
     1184000000   -6.554545835e-03    8.734630942e-01
     1185000000   -1.088079438e-01    8.687947392e-01
     1186000000   -2.080023587e-01    8.513118625e-01
     1187000000   -3.056367934e-01    8.227093220e-01
     1188000000   -3.949188590e-01    7.835033536e-01
     1189000000   -4.867976308e-01    7.321056724e-01
     1190000000   -5.659220219e-01    6.721727252e-01
     1191000000   -6.385604143e-01    6.053510904e-01
     1192000000   -7.067522407e-01    5.263410807e-01
     1193000000   -7.628222704e-01    4.419962466e-01
     1194000000   -8.091722727e-01    3.528873920e-01
     1195000000   -8.439154029e-01    2.594853044e-01
     1196000000   -8.701604605e-01    1.564346254e-01
     1197000000   -8.828265071e-01    5.768859014e-02
     1198000000   -8.851905465e-01   -4.571833834e-02
     1199000000   -8.741977811e-01   -1.456199586e-01
     1200000000   -8.527199030e-01   -2.449098527e-01
