! NanoVNA-App
! Date: 2026-05-22 19:08:58
! Start: 3.2GHz Stop: 4.2GHz Points: 401
! S-Parameter data: F S11
# Hz S RI R 50
!     Frequency           S11_Real           S11_Imag
     3200000000    1.624950618e-01    1.829462796e-01
     3202500000    9.956371039e-02    2.194729447e-01
     3205000000    2.890093625e-02    2.353296578e-01
     3207500000   -4.206947610e-02    2.299312353e-01
     3210000000   -1.078625619e-01    2.045169920e-01
     3212500000   -1.618317664e-01    1.615809053e-01
     3215000000   -1.997354776e-01    1.055733636e-01
     3217500000   -2.199572027e-01    4.190846533e-02
     3220000000   -2.196707726e-01   -2.371246740e-02
     3222500000   -2.000585198e-01   -8.568047732e-02
     3225000000   -1.638870835e-01   -1.380779445e-01
     3227500000   -1.135813221e-01   -1.774985343e-01
     3230000000   -5.538853630e-02   -2.000357360e-01
     3232500000    5.479730666e-03   -2.040277272e-01
     3235000000    6.501035392e-02   -1.914244145e-01
     3237500000    1.156233251e-01   -1.619133800e-01
     3240000000    1.570223123e-01   -1.189303845e-01
     3242500000    1.830924600e-01   -6.705538929e-02
     3245000000    1.920457929e-01   -1.162840705e-02
     3247500000    1.855744570e-01    4.366509616e-02
     3250000000    1.629306525e-01    9.243055433e-02
     3252500000    1.273936778e-01    1.324836910e-01
     3255000000    8.293690532e-02    1.592707336e-01
     3257500000    3.332092613e-02    1.717083603e-01
     3260000000   -1.707364060e-02    1.702392995e-01
     3262500000   -6.365054846e-02    1.530647576e-01
     3265000000   -1.028429121e-01    1.257315427e-01
     3267500000   -1.311468929e-01    8.842179924e-02
     3270000000   -1.478837579e-01    4.652907327e-02
     3272500000   -1.497019827e-01    2.759462222e-03
     3275000000   -1.400121450e-01   -3.918344527e-02
     3277500000   -1.183113307e-01   -7.571914047e-02
     3280000000   -8.813429624e-02   -1.024964303e-01
     3282500000   -5.272713304e-02   -1.196773574e-01
     3285000000   -1.485218294e-02   -1.240576655e-01
     3287500000    2.194805443e-02   -1.189574003e-01
     3290000000    5.442717299e-02   -1.032253206e-01
     3292500000    7.885521650e-02   -7.894203812e-02
     3295000000    9.689309448e-02   -4.988442361e-02
     3297500000    1.037932336e-01   -1.852446608e-02
     3300000000    1.037316471e-01    1.324560586e-02
     3302500000    9.286516160e-02    4.113609344e-02
     3305000000    7.433277369e-02    6.376187503e-02
     3307500000    5.252370238e-02    7.847087830e-02
     3310000000    2.712311596e-02    8.703606576e-02
     3312500000    2.558189211e-03    8.632630110e-02
     3315000000   -2.158083767e-02    7.986631244e-02
     3317500000   -3.989583626e-02    6.607192010e-02
     3320000000   -5.403528735e-02    4.963348061e-02
     3322500000   -6.229089573e-02    3.038068116e-02
     3325000000   -6.246312708e-02    1.049918588e-02
     3327500000   -5.938715860e-02   -7.625437807e-03
     3330000000   -5.075876787e-02   -2.245473489e-02
     3332500000   -3.919364884e-02   -3.393332660e-02
     3335000000   -2.486408874e-02   -3.975252435e-02
     3337500000   -1.156474557e-02   -4.151391983e-02
     3340000000    6.300692912e-04   -4.031003639e-02
     3342500000    1.142367162e-02   -3.406989574e-02
     3345000000    1.945082657e-02   -2.692146040e-02
     3347500000    2.166680060e-02   -1.894594729e-02
     3350000000    2.217334509e-02   -1.135631464e-02
     3352500000    1.957987063e-02   -4.856816027e-03
     3355000000    1.656796783e-02   -6.054218975e-04
     3357500000    1.143590733e-02    1.967019169e-03
     3360000000    6.941612810e-03    4.324703477e-04
     3362500000    3.610569285e-03   -5.111934152e-04
     3365000000    1.661940711e-03   -4.756167531e-03
     3367500000    4.494154709e-04   -7.786210626e-03
     3370000000    1.862505218e-03   -1.006126218e-02
     3372500000    4.567969590e-03   -1.127494872e-02
     3375000000    8.183164522e-03   -1.013780572e-02
     3377500000    1.124840323e-02   -7.320480887e-03
     3380000000    1.430712268e-02   -1.736198086e-03
     3382500000    1.546588354e-02    5.087586120e-03
     3385000000    1.453366596e-02    1.098186057e-02
     3387500000    1.081468258e-02    1.903027482e-02
     3390000000    4.702725913e-03    2.659132518e-02
     3392500000   -2.307788702e-03    2.897580713e-02
     3395000000   -1.187239401e-02    2.962121926e-02
     3397500000   -2.234229632e-02    2.663376555e-02
     3400000000   -3.164703026e-02    1.960711740e-02
     3402500000   -3.811616078e-02    8.575543761e-03
     3405000000   -4.257114977e-02   -5.480976775e-03
     3407500000   -4.257212579e-02   -2.016583644e-02
     3410000000   -3.662639484e-02   -3.387543187e-02
     3412500000   -2.659568377e-02   -4.809102044e-02
     3415000000   -1.175914239e-02   -5.731045082e-02
     3417500000    6.253953092e-03   -6.220689043e-02
     3420000000    2.596960962e-02   -6.167083234e-02
     3422500000    4.693547264e-02   -5.537465960e-02
     3425000000    6.411001086e-02   -4.246450961e-02
     3427500000    7.912666351e-02   -2.387320437e-02
     3430000000    8.642728627e-02   -1.601535711e-03
     3432500000    8.731818199e-02    2.409468964e-02
     3435000000    8.116599917e-02    4.875469580e-02
     3437500000    6.644196063e-02    7.244605571e-02
     3440000000    4.471467435e-02    9.018673003e-02
     3442500000    1.733490638e-02    1.023523584e-01
     3445000000   -1.271861605e-02    1.051246226e-01
     3447500000   -4.447236285e-02    9.881429374e-02
     3450000000   -7.318158448e-02    8.308796585e-02
     3452500000   -9.732789546e-02    5.869242176e-02
     3455000000   -1.141073927e-01    2.842347324e-02
     3457500000   -1.212764382e-01   -7.546781562e-03
     3460000000   -1.169529632e-01   -4.447203502e-02
     3462500000   -1.018587872e-01   -8.027780056e-02
     3465000000   -7.656650245e-02   -1.090691313e-01
     3467500000   -4.369858280e-02   -1.315863729e-01
     3470000000   -4.817648791e-03   -1.431013197e-01
     3472500000    3.694219142e-02   -1.428443640e-01
     3475000000    7.732468843e-02   -1.295375824e-01
     3477500000    1.124676242e-01   -1.030279025e-01
     3480000000    1.404267102e-01   -6.884345412e-02
     3482500000    1.564959735e-01   -2.465971559e-02
     3485000000    1.605431885e-01    2.089606971e-02
     3487500000    1.480990946e-01    6.795930862e-02
     3490000000    1.238678694e-01    1.090421751e-01
     3492500000    8.599140495e-02    1.431407481e-01
     3495000000    4.040042311e-02    1.654831469e-01
     3497500000   -1.163141057e-02    1.731731743e-01
     3500000000   -6.349100918e-02    1.667309999e-01
     3502500000   -1.117327884e-01    1.437168568e-01
     3505000000   -1.523011178e-01    1.084348559e-01
     3507500000   -1.800793707e-01    6.165787578e-02
     3510000000   -1.930836886e-01    8.264026605e-03
     3512500000   -1.896661818e-01   -4.727706686e-02
     3515000000   -1.688097566e-01   -1.020788997e-01
     3517500000   -1.327217966e-01   -1.486915201e-01
     3520000000   -8.394547552e-02   -1.810214072e-01
     3522500000   -2.624054626e-02   -2.002115101e-01
     3525000000    3.497580066e-02   -2.012754232e-01
     3527500000    9.513540566e-02   -1.844005436e-01
     3530000000    1.488957256e-01   -1.504924595e-01
     3532500000    1.892134696e-01   -1.019114405e-01
     3535000000    2.148429453e-01   -4.149991274e-02
     3537500000    2.226724476e-01    2.443698421e-02
     3540000000    2.116287649e-01    9.075385332e-02
     3542500000    1.784057021e-01    1.496825516e-01
     3545000000    1.298211664e-01    1.985516548e-01
     3547500000    6.980192661e-02    2.285012603e-01
     3550000000    1.075411099e-03    2.423074692e-01
     3552500000   -6.914392859e-02    2.349618673e-01
     3555000000   -1.358704567e-01    2.068976760e-01
     3557500000   -1.920551211e-01    1.599982083e-01
     3560000000   -2.316827774e-01    9.766925871e-02
     3562500000   -2.505982220e-01    2.783582732e-02
     3565000000   -2.494537234e-01   -4.844833165e-02
     3567500000   -2.248658091e-01   -1.181227565e-01
     3570000000   -1.824460775e-01   -1.787395626e-01
     3572500000   -1.213961840e-01   -2.273672670e-01
     3575000000   -4.809391126e-02   -2.544378936e-01
     3577500000    3.026038222e-02   -2.595730126e-01
     3580000000    1.065062433e-01   -2.408258766e-01
     3582500000    1.738378257e-01   -2.005968541e-01
     3585000000    2.280819565e-01   -1.422105134e-01
     3587500000    2.614723146e-01   -6.912582368e-02
     3590000000    2.724127769e-01    1.057443023e-02
     3592500000    2.585758269e-01    9.256321192e-02
     3595000000    2.215253413e-01    1.628927439e-01
     3597500000    1.658107042e-01    2.247712165e-01
     3600000000    9.163165838e-02    2.656562924e-01
     3602500000    1.054622699e-02    2.822255492e-01
     3605000000   -7.290178537e-02    2.739960849e-01
     3607500000   -1.506790966e-01    2.416296303e-01
     3610000000   -2.182671279e-01    1.853430718e-01
     3612500000   -2.653861046e-01    1.141050532e-01
     3615000000   -2.896275818e-01    3.172636777e-02
     3617500000   -2.885151505e-01   -5.587803572e-02
     3620000000   -2.603911757e-01   -1.379568428e-01
     3622500000   -2.099523097e-01   -2.081370056e-01
     3625000000   -1.392458379e-01   -2.628988326e-01
     3627500000   -5.349843577e-02   -2.948891521e-01
     3630000000    3.405737504e-02   -2.988114059e-01
     3632500000    1.222589687e-01   -2.765550613e-01
     3635000000    1.964419335e-01   -2.299968600e-01
     3637500000    2.562833726e-01   -1.619086862e-01
     3640000000    2.945088744e-01   -7.660047710e-02
     3642500000    3.033963144e-01    1.386164222e-02
     3645000000    2.857773900e-01    1.043353900e-01
     3647500000    2.430839390e-01    1.863554418e-01
     3650000000    1.764954627e-01    2.514544427e-01
     3652500000    9.452036768e-02    2.940573096e-01
     3655000000   -1.479193568e-03    3.124094903e-01
     3657500000   -9.250194579e-02    2.996768355e-01
     3660000000   -1.778774261e-01    2.613974214e-01
     3662500000   -2.530159056e-01    1.949832439e-01
     3665000000   -2.985306084e-01    1.139884889e-01
     3667500000   -3.210220933e-01    1.951752789e-02
     3670000000   -3.150930405e-01   -7.687314600e-02
     3672500000   -2.778429985e-01   -1.685201526e-01
     3675000000   -2.171226293e-01   -2.443157881e-01
     3677500000   -1.344438195e-01   -2.970004380e-01
     3680000000   -4.000863060e-02   -3.262421489e-01
     3682500000    6.091786176e-02   -3.242412210e-01
     3685000000    1.551669538e-01   -2.929888368e-01
     3687500000    2.366429120e-01   -2.334802598e-01
     3690000000    2.995183170e-01   -1.524119377e-01
     3692500000    3.332508206e-01   -5.588366091e-02
     3695000000    3.384048343e-01    4.579690099e-02
     3697500000    3.115055561e-01    1.462651342e-01
     3700000000    2.545256615e-01    2.364973426e-01
     3702500000    1.784946322e-01    3.011318743e-01
     3705000000    8.121323586e-02    3.433682621e-01
     3707500000   -2.372472920e-02    3.548752069e-01
     3710000000   -1.256395280e-01    3.335262835e-01
     3712500000   -2.211106420e-01    2.822481692e-01
     3715000000   -2.926935256e-01    2.080115527e-01
     3717500000   -3.441000879e-01    1.078017354e-01
     3720000000   -3.622622192e-01    1.948041143e-03
     3722500000   -3.486117423e-01   -1.071923077e-01
     3725000000   -3.038170636e-01   -2.059695721e-01
     3727500000   -2.323605716e-01   -2.863750756e-01
     3730000000   -1.348105818e-01   -3.453399837e-01
     3732500000   -2.870046906e-02   -3.726054430e-01
     3735000000    8.049875498e-02   -3.641318977e-01
     3737500000    1.844924986e-01   -3.238257170e-01
     3740000000    2.721764743e-01   -2.561420202e-01
     3742500000    3.355529904e-01   -1.661489755e-01
     3745000000    3.690965474e-01   -5.707824975e-02
     3747500000    3.707014024e-01    5.540682748e-02
     3750000000    3.378579319e-01    1.616350412e-01
     3752500000    2.733008862e-01    2.520243824e-01
     3755000000    1.867881119e-01    3.242944479e-01
     3757500000    8.036369830e-02    3.661119640e-01
     3760000000   -2.769016288e-02    3.715096712e-01
     3762500000   -1.406839192e-01    3.454003632e-01
     3765000000   -2.380730212e-01    2.882773280e-01
     3767500000   -3.127289116e-01    2.046446800e-01
     3770000000   -3.593895435e-01    1.018726379e-01
     3772500000   -3.736493289e-01   -5.848967005e-03
     3775000000   -3.550341725e-01   -1.187626421e-01
     3777500000   -2.974749506e-01   -2.214652300e-01
     3780000000   -2.232855558e-01   -2.977331281e-01
     3782500000   -1.203060076e-01   -3.522895873e-01
     3785000000   -9.336899035e-03   -3.726885915e-01
     3787500000    1.044150293e-01   -3.556947112e-01
     3790000000    2.049382180e-01   -3.104306757e-01
     3792500000    2.871041596e-01   -2.348873168e-01
     3795000000    3.450120986e-01   -1.379024088e-01
     3797500000    3.695561886e-01   -2.897264250e-02
     3800000000    3.594097495e-01    8.399761468e-02
     3802500000    3.164642453e-01    1.865893006e-01
     3805000000    2.447906584e-01    2.706059217e-01
     3807500000    1.512008905e-01    3.301113546e-01
     3810000000    3.987283632e-02    3.609232903e-01
     3812500000   -6.745297462e-02    3.535984457e-01
     3815000000   -1.711907089e-01    3.135254979e-01
     3817500000   -2.623816729e-01    2.415807843e-01
     3820000000   -3.232161999e-01    1.515493393e-01
     3822500000   -3.534426391e-01    4.751880094e-02
     3825000000   -3.526057601e-01   -6.281483173e-02
     3827500000   -3.203459084e-01   -1.677267998e-01
     3830000000   -2.484437823e-01   -2.630285025e-01
     3832500000   -1.637334526e-01   -3.225902915e-01
     3835000000   -5.502299964e-02   -3.575653434e-01
     3837500000    5.591666326e-02   -3.619047999e-01
     3840000000    1.634729952e-01   -3.246807754e-01
     3842500000    2.525393963e-01   -2.617437840e-01
     3845000000    3.217374682e-01   -1.744557023e-01
     3847500000    3.595317006e-01   -6.894001365e-02
     3850000000    3.635713756e-01    4.309650138e-02
     3852500000    3.314914405e-01    1.518998742e-01
     3855000000    2.687888145e-01    2.483871728e-01
     3857500000    1.854106784e-01    3.153426349e-01
     3860000000    7.307861000e-02    3.575862646e-01
     3862500000   -3.875480220e-02    3.628330231e-01
     3865000000   -1.478300989e-01    3.350340426e-01
     3867500000   -2.449713647e-01    2.750070691e-01
     3870000000   -3.157375753e-01    1.867302507e-01
     3872500000   -3.586432636e-01    8.263290673e-02
     3875000000   -3.669323325e-01   -2.870681323e-02
     3877500000   -3.407715559e-01   -1.433580220e-01
     3880000000   -2.792209983e-01   -2.413333803e-01
     3882500000   -1.925434321e-01   -3.177762628e-01
     3885000000   -8.650910854e-02   -3.614114523e-01
     3887500000    3.150802478e-02   -3.722218871e-01
     3890000000    1.409546435e-01   -3.464390337e-01
     3892500000    2.414745539e-01   -2.884457409e-01
     3895000000    3.208291829e-01   -2.001836002e-01
     3897500000    3.687898517e-01   -9.433607757e-02
     3900000000    3.799667060e-01    2.782377787e-02
     3902500000    3.591091633e-01    1.358585805e-01
     3905000000    2.961873710e-01    2.442500442e-01
     3907500000    2.110392153e-01    3.221732080e-01
     3910000000    9.887596220e-02    3.719214499e-01
     3912500000   -1.548499055e-02    3.878247142e-01
     3915000000   -1.371686310e-01    3.660778999e-01
     3917500000   -2.459313124e-01    3.057981431e-01
     3920000000   -3.327461183e-01    2.132420689e-01
     3922500000   -3.836911619e-01    1.085070223e-01
     3925000000   -4.021429420e-01   -1.826686412e-02
     3927500000   -3.818469048e-01   -1.390956640e-01
     3930000000   -3.244765401e-01   -2.504074872e-01
     3932500000   -2.342664152e-01   -3.398310542e-01
     3935000000   -1.220222265e-01   -3.986697495e-01
     3937500000    6.413467228e-03   -4.193073213e-01
     3940000000    1.332040876e-01   -4.006952345e-01
     3942500000    2.499978542e-01   -3.428908288e-01
     3945000000    3.437224627e-01   -2.536362410e-01
     3947500000    4.064003229e-01   -1.360005885e-01
     3950000000    4.332324266e-01   -6.814400200e-03
     3952500000    4.155516624e-01    1.257664710e-01
     3955000000    3.593832850e-01    2.503343523e-01
     3957500000    2.725035250e-01    3.527017236e-01
     3960000000    1.517560333e-01    4.205087125e-01
     3962500000    2.016716823e-02    4.509009719e-01
     3965000000   -1.152190790e-01    4.416757226e-01
     3967500000   -2.503124475e-01    3.842884004e-01
     3970000000   -3.576614559e-01    2.932219505e-01
     3972500000   -4.327125549e-01    1.778913587e-01
     3975000000   -4.668588340e-01    3.870540485e-02
     3977500000   -4.609317780e-01   -1.037099212e-01
     3980000000   -4.088110626e-01   -2.411658913e-01
     3982500000   -3.241083622e-01   -3.518584967e-01
     3985000000   -2.013487965e-01   -4.374014437e-01
     3987500000   -5.750637874e-02   -4.803518355e-01
     3990000000    8.433014899e-02   -4.806336462e-01
     3992500000    2.302835137e-01   -4.328236282e-01
     3995000000    3.500538170e-01   -3.473919332e-01
     3997500000    4.409914911e-01   -2.249133140e-01
     4000000000    4.912238121e-01   -8.351029456e-02
     4002500000    4.953176975e-01    7.112117112e-02
     4005000000    4.564306736e-01    2.159394026e-01
     4007500000    3.714822531e-01    3.443210721e-01
     4010000000    2.482145876e-01    4.464543462e-01
     4012500000    1.124636456e-01    5.017754436e-01
     4015000000   -4.976116121e-02    5.137630105e-01
     4017500000   -2.027085125e-01    4.792110324e-01
     4020000000   -3.373253644e-01    3.979960978e-01
     4022500000   -4.461034238e-01    2.762586474e-01
     4025000000   -5.122763515e-01    1.298069954e-01
     4027500000   -5.333197713e-01   -2.195649967e-02
     4030000000   -4.983147085e-01   -1.922755688e-01
     4032500000   -4.258388281e-01   -3.285836875e-01
     4035000000   -3.082922697e-01   -4.454484880e-01
     4037500000   -1.642445922e-01   -5.183021426e-01
     4040000000    3.579007229e-03   -5.477599502e-01
     4042500000    1.633391678e-01   -5.246624947e-01
     4045000000    3.134337664e-01   -4.561067224e-01
     4047500000    4.346424043e-01   -3.415752947e-01
     4050000000    5.218551755e-01   -1.914522201e-01
     4052500000    5.567837954e-01   -2.655098401e-02
     4055000000    5.408175588e-01    1.442943960e-01
     4057500000    4.737514257e-01    3.011842370e-01
     4060000000    3.644057512e-01    4.326827228e-01
     4062500000    2.196250856e-01    5.244716406e-01
     4065000000    5.186824873e-02    5.696626902e-01
     4067500000   -1.238224953e-01    5.626696348e-01
     4070000000   -2.876951993e-01    5.029507279e-01
     4072500000   -4.283264577e-01    3.937752247e-01
     4075000000   -5.303215981e-01    2.493247688e-01
     4077500000   -5.821888447e-01    7.760141045e-02
     4080000000   -5.828231573e-01   -9.020704776e-02
     4082500000   -5.268747211e-01   -2.685963809e-01
     4085000000   -4.265148938e-01   -4.148961306e-01
     4087500000   -2.806786001e-01   -5.265294909e-01
     4090000000   -1.139421090e-01   -5.885653496e-01
     4092500000    7.073538005e-02   -5.961205959e-01
     4095000000    2.470896393e-01   -5.530219674e-01
     4097500000    4.040080011e-01   -4.530963302e-01
     4100000000    5.225796700e-01   -3.145684600e-01
     4102500000    5.949533582e-01   -1.399026960e-01
     4105000000    6.159455180e-01    3.842232376e-02
     4107500000    5.764541030e-01    2.233956605e-01
     4110000000    4.850783944e-01    3.869638443e-01
     4112500000    3.482540250e-01    5.169363022e-01
     4115000000    1.795289814e-01    5.991946459e-01
     4117500000   -8.508476429e-03    6.285377145e-01
     4120000000   -1.964680552e-01    5.995823741e-01
     4122500000   -3.657935262e-01    5.165480971e-01
     4125000000   -5.077565908e-01    3.787494600e-01
     4127500000   -5.993955135e-01    2.167617977e-01
     4130000000   -6.389299035e-01    2.368595824e-02
     4132500000   -6.219974756e-01   -1.632305831e-01
     4135000000   -5.424345732e-01   -3.450648785e-01
     4137500000   -4.157390893e-01   -4.945951104e-01
     4140000000   -2.532391250e-01   -5.984742045e-01
     4142500000   -6.032784656e-02   -6.476240754e-01
     4145000000    1.323055327e-01   -6.392672658e-01
     4147500000    3.172518313e-01   -5.704849362e-01
     4150000000    4.730078280e-01   -4.528295100e-01
     4152500000    5.872938037e-01   -2.897856534e-01
     4155000000    6.489095092e-01   -1.044901162e-01
     4157500000    6.504600644e-01    9.947455674e-02
     4160000000    5.934625268e-01    2.873778045e-01
     4162500000    4.800963700e-01    4.539443851e-01
     4165000000    3.247946501e-01    5.774681568e-01
     4167500000    1.372473687e-01    6.497392058e-01
     4170000000   -6.214372441e-02    6.629863381e-01
     4172500000   -2.592530251e-01    6.143010855e-01
     4175000000   -4.328428507e-01    5.089665651e-01
     4177500000   -5.650746226e-01    3.586890101e-01
     4180000000   -6.473767161e-01    1.721347570e-01
     4182500000   -6.692174077e-01   -2.868367918e-02
     4185000000   -6.333527565e-01   -2.266251892e-01
     4187500000   -5.329520702e-01   -4.096732438e-01
     4190000000   -3.887650669e-01   -5.509662628e-01
     4192500000   -2.071096450e-01   -6.422516108e-01
     4195000000   -5.488480907e-03   -6.768885851e-01
     4197500000    1.973160356e-01   -6.474143863e-01
     4200000000    3.799353838e-01   -5.607723594e-01
