! NanoVNA-App
! Date: 2026-05-25 01:49:19
! Start: 4.8GHz Stop: 6GHz Points: 401
! S-Parameter data: F S11
# Hz S RI R 50
!     Frequency           S11_Real           S11_Imag
     4800000000    1.599171944e-02    9.220727533e-02
     4803000000   -9.621927515e-03    9.251763672e-02
     4806000000   -3.543952852e-02    8.915076405e-02
     4809000000   -5.891859531e-02    7.429265976e-02
     4812000000   -8.297576010e-02    5.650367960e-02
     4815000000   -9.796685725e-02    3.033373319e-02
     4818000000   -1.057495698e-01    3.364965378e-04
     4821000000   -1.077188626e-01   -3.118244186e-02
     4824000000   -9.664528817e-02   -6.086277217e-02
     4827000000   -7.656068355e-02   -9.034304321e-02
     4830000000   -4.807360098e-02   -1.106836125e-01
     4833000000   -1.342853066e-02   -1.248400211e-01
     4836000000    2.507297136e-02   -1.259166598e-01
     4839000000    6.041210517e-02   -1.148221269e-01
     4842000000    9.166036546e-02   -9.172587842e-02
     4845000000    1.185888648e-01   -5.709676445e-02
     4848000000    1.309419572e-01   -1.840529405e-02
     4851000000    1.319276243e-01    2.595135197e-02
     4854000000    1.188329533e-01    7.102154195e-02
     4857000000    9.382896125e-02    1.077457294e-01
     4860000000    5.426714942e-02    1.375024170e-01
     4863000000    9.224742651e-03    1.520993859e-01
     4866000000   -3.519486263e-02    1.513632834e-01
     4869000000   -8.659963310e-02    1.313370764e-01
     4872000000   -1.236012876e-01    9.934474528e-02
     4875000000   -1.497767121e-01    5.667367205e-02
     4878000000   -1.605114341e-01    7.390812505e-03
     4881000000   -1.541662812e-01   -4.648806527e-02
     4884000000   -1.316512823e-01   -9.300800413e-02
     4887000000   -9.333485365e-02   -1.325658858e-01
     4890000000   -3.989036009e-02   -1.558217853e-01
     4893000000    1.576066017e-02   -1.630706340e-01
     4896000000    7.234910876e-02   -1.493945271e-01
     4899000000    1.218628883e-01   -1.206522435e-01
     4902000000    1.572858542e-01   -7.335867733e-02
     4905000000    1.786970794e-01   -1.966661587e-02
     4908000000    1.760627776e-01    3.820435703e-02
     4911000000    1.569909602e-01    9.588120133e-02
     4914000000    1.155665517e-01    1.406200081e-01
     4917000000    6.443475932e-02    1.717131585e-01
     4920000000    2.425096696e-03    1.860131919e-01
     4923000000   -5.994870886e-02    1.798088700e-01
     4926000000   -1.135889217e-01    1.460815072e-01
     4929000000   -1.532679498e-01    9.989180416e-02
     4932000000   -1.864524037e-01    4.340809584e-02
     4935000000   -1.812184453e-01   -1.864099875e-02
     4938000000   -1.682167500e-01   -8.280373365e-02
     4941000000   -1.317271739e-01   -1.381737441e-01
     4944000000   -7.323153317e-02   -1.664908826e-01
     4947000000   -1.384387538e-02   -1.848101616e-01
     4950000000    5.450882763e-02   -1.773768216e-01
     4953000000    1.096361428e-01   -1.489008367e-01
     4956000000    1.638519317e-01   -1.049134806e-01
     4959000000    1.882612109e-01   -4.433695599e-02
     4962000000    1.934493035e-01    2.096306533e-02
     4965000000    1.765218377e-01    8.479502797e-02
     4968000000    1.394354701e-01    1.383325309e-01
     4971000000    8.462193608e-02    1.722930968e-01
     4974000000    1.892441139e-02    1.930633336e-01
     4977000000   -4.596560821e-02    1.849148124e-01
     4980000000   -1.077116728e-01    1.578666121e-01
     4983000000   -1.590065360e-01    1.104384884e-01
     4986000000   -1.795835495e-01    5.181846395e-02
     4989000000   -1.920246035e-01   -1.849555038e-02
     4992000000   -1.751572788e-01   -8.454858512e-02
     4995000000   -1.371845454e-01   -1.359833330e-01
     4998000000   -8.040107787e-02   -1.823392510e-01
     5001000000   -1.970574446e-02   -1.903740466e-01
     5004000000    5.271657929e-02   -1.877144873e-01
     5007000000    1.073369011e-01   -1.594728827e-01
     5010000000    1.488104761e-01   -1.121516749e-01
     5013000000    1.844026297e-01   -4.735321179e-02
     5016000000    1.884460896e-01    1.947400905e-02
     5019000000    1.666845530e-01    7.249187678e-02
     5022000000    1.282137185e-01    1.336290687e-01
     5025000000    6.949757040e-02    1.769272834e-01
     5028000000    8.505432867e-03    1.868359894e-01
     5031000000   -5.777269229e-02    1.756395400e-01
     5034000000   -1.152322516e-01    1.452585459e-01
     5037000000   -1.548112929e-01    9.921594709e-02
     5040000000   -1.839980483e-01    3.415252641e-02
     5043000000   -1.841480285e-01   -2.827316336e-02
     5046000000   -1.645483226e-01   -8.256706595e-02
     5049000000   -1.223157272e-01   -1.426365376e-01
     5052000000   -7.162787020e-02   -1.717142910e-01
     5055000000   -3.419103101e-03   -1.853796691e-01
     5058000000    5.199744925e-02   -1.700943112e-01
     5061000000    1.113617197e-01   -1.385080516e-01
     5064000000    1.500355303e-01   -8.950532973e-02
     5067000000    1.721474826e-01   -2.913502604e-02
     5070000000    1.672491580e-01    2.594804205e-02
     5073000000    1.409346312e-01    9.474138916e-02
     5076000000    1.030801609e-01    1.335062534e-01
     5079000000    4.918749258e-02    1.607222855e-01
     5082000000   -1.246542856e-02    1.696845442e-01
     5085000000   -7.275586575e-02    1.533367485e-01
     5088000000   -1.175204143e-01    1.248716339e-01
     5091000000   -1.560349464e-01    7.306642085e-02
     5094000000   -1.684340388e-01    2.046527155e-02
     5097000000   -1.622934192e-01   -3.636721522e-02
     5100000000   -1.378478110e-01   -8.755391836e-02
     5103000000   -8.952192962e-02   -1.310190260e-01
     5106000000   -3.656369075e-02   -1.504789293e-01
     5109000000    1.252134331e-02   -1.544072926e-01
     5112000000    7.493013144e-02   -1.328078806e-01
     5115000000    1.108063087e-01   -1.029079705e-01
     5118000000    1.438052058e-01   -5.143988505e-02
     5121000000    1.528463215e-01   -1.723739551e-03
     5124000000    1.447744220e-01    4.436801374e-02
     5127000000    1.154406890e-01    9.932021052e-02
     5130000000    7.445884496e-02    1.315767616e-01
     5133000000    3.259767964e-02    1.452880055e-01
     5136000000   -1.722704619e-02    1.441810876e-01
     5139000000   -7.252160460e-02    1.178437024e-01
     5142000000   -1.023307666e-01    8.893494308e-02
     5145000000   -1.243757829e-01    4.236159474e-02
     5148000000   -1.295921355e-01   -5.652359687e-03
     5151000000   -1.204630807e-01   -4.605257511e-02
     5154000000   -9.258912504e-02   -8.513940126e-02
     5157000000   -4.968996719e-02   -1.124558821e-01
     5160000000   -1.012251154e-02   -1.226903275e-01
     5163000000    3.556897864e-02   -1.192132905e-01
     5166000000    7.422709465e-02   -9.752339125e-02
     5169000000    1.032290235e-01   -6.393251568e-02
     5172000000    1.167296767e-01   -2.384839952e-02
     5175000000    1.162216514e-01    1.821909286e-02
     5178000000    1.001891568e-01    5.490287021e-02
     5181000000    7.777579129e-02    8.313316852e-02
     5184000000    4.214736447e-02    9.856050462e-02
     5187000000    1.282436959e-02    1.108006686e-01
     5190000000   -3.231727332e-02    9.396386892e-02
     5193000000   -6.177603826e-02    7.474799454e-02
     5196000000   -8.218491822e-02    5.486120656e-02
     5199000000   -9.000912309e-02    1.177894603e-02
     5202000000   -9.010839462e-02   -2.259970084e-02
     5205000000   -6.955318898e-02   -5.289269611e-02
     5208000000   -5.822562426e-02   -7.403237373e-02
     5211000000   -2.063077688e-02   -8.330009878e-02
     5214000000    2.443335950e-03   -9.220862389e-02
     5217000000    3.286688402e-02   -7.965965569e-02
     5220000000    5.444526672e-02   -6.088768691e-02
     5223000000    7.146761566e-02   -3.891531006e-02
     5226000000    7.677964121e-02   -1.097663864e-02
     5229000000    7.112971693e-02    1.825371757e-02
     5232000000    6.109419465e-02    4.225763679e-02
     5235000000    3.795277327e-02    5.654107779e-02
     5238000000    1.627082750e-02    6.851792336e-02
     5241000000   -1.070013270e-02    6.493119150e-02
     5244000000   -3.301589191e-02    5.834410340e-02
     5247000000   -5.047796667e-02    4.536136240e-02
     5250000000   -6.165395305e-02    2.617344074e-02
     5253000000   -6.030542403e-02    5.826789420e-03
     5256000000   -5.530888960e-02   -1.205173135e-02
     5259000000   -5.147329345e-02   -3.124240041e-02
     5262000000   -3.727167845e-02   -4.752146453e-02
     5265000000   -1.651319489e-02   -4.589350522e-02
     5268000000   -4.104927939e-04   -5.012035742e-02
     5271000000    1.938681677e-02   -5.082172900e-02
     5274000000    3.051785380e-02   -3.707788885e-02
     5277000000    4.414730147e-02   -2.605370991e-02
     5280000000    4.079655558e-02   -1.099880692e-02
     5283000000    3.872532025e-02    2.074840944e-03
     5286000000    4.067537189e-02    2.371032164e-02
     5289000000    2.979644015e-02    3.165226430e-02
     5292000000    2.007225342e-02    3.771273419e-02
     5295000000    7.352389861e-03    4.622868448e-02
     5298000000   -2.223132178e-03    4.031608254e-02
     5301000000   -1.632827707e-02    3.735138848e-02
     5304000000   -2.560211718e-02    3.093577176e-02
     5307000000   -3.501603007e-02    2.088908106e-02
     5310000000   -3.466205671e-02    1.585624367e-02
     5313000000   -3.788479790e-02   -7.349117077e-04
     5316000000   -3.291058540e-02   -1.283107419e-02
     5319000000   -2.799015492e-02   -1.999419555e-02
     5322000000   -1.951412298e-02   -2.703620307e-02
     5325000000   -9.108868428e-03   -3.136123717e-02
     5328000000    6.971486728e-04   -3.366569430e-02
     5331000000    1.789703406e-02   -3.169810399e-02
     5334000000    2.328320593e-02   -2.932281978e-02
     5337000000    3.273037076e-02   -2.349667437e-02
     5340000000    3.724588081e-02   -9.484573267e-03
     5343000000    3.746437654e-02    4.122853279e-03
     5346000000    3.557358310e-02    1.725980639e-02
     5349000000    3.375261277e-02    2.872673608e-02
     5352000000    2.544336952e-02    3.637121245e-02
     5355000000    1.834500581e-02    4.302576929e-02
     5358000000    5.754549988e-03    4.427437484e-02
     5361000000   -9.219718166e-03    4.040056467e-02
     5364000000   -2.434034087e-02    4.297220334e-02
     5367000000   -2.707734145e-02    1.104598306e-02
     5370000000   -3.870882094e-02    4.925822373e-03
     5373000000   -4.096587375e-02   -1.426327322e-02
     5376000000   -5.481225252e-02   -2.686889283e-02
     5379000000   -3.774258494e-02   -4.357472062e-02
     5382000000   -1.128140651e-02   -4.468601570e-02
     5385000000   -6.004368770e-04   -5.387090519e-02
     5388000000    1.763208583e-02   -5.411933362e-02
     5391000000    3.378196806e-02   -4.576044902e-02
     5394000000    4.805431515e-02   -3.641522676e-02
     5397000000    3.750653937e-02   -1.145441178e-02
     5400000000    5.321488902e-02    3.304888029e-03
     5403000000    4.742271826e-02    2.256508172e-02
     5406000000    3.911626339e-02    4.084687307e-02
     5409000000    2.106840163e-02    5.015150458e-02
     5412000000    2.651773160e-03    5.696450174e-02
     5415000000   -2.233028039e-02    6.008621305e-02
     5418000000   -4.214552790e-02    4.317576438e-02
     5421000000   -4.125406593e-02    2.493065223e-02
     5424000000   -7.805746794e-02    8.090552874e-03
     5427000000   -6.613941491e-02   -1.494727004e-02
     5430000000   -5.901911855e-02   -3.495362774e-02
     5433000000   -4.706118628e-02   -6.332013756e-02
     5436000000   -2.597537823e-02   -6.329753995e-02
     5439000000   -2.340739360e-03   -7.519911975e-02
     5442000000    2.107438259e-02   -6.852167100e-02
     5445000000    3.596820310e-02   -5.313560739e-02
     5448000000    5.092431232e-02   -3.646771982e-02
     5451000000    7.326786220e-02   -8.237672970e-03
     5454000000    5.946286395e-02    7.326367777e-03
     5457000000    5.860161036e-02    4.632709548e-02
     5460000000    3.794833645e-02    6.684032828e-02
     5463000000    1.224171743e-02    8.034460992e-02
     5466000000   -1.220282819e-02    8.212251216e-02
     5469000000   -2.289850824e-02    6.965681911e-02
     5472000000   -7.013621926e-02    6.188466400e-02
     5475000000   -8.164662868e-02    3.781007975e-02
     5478000000   -7.541461289e-02    2.189134806e-02
     5481000000   -7.956072688e-02   -1.181758102e-02
     5484000000   -6.916042417e-02   -4.616212472e-02
     5487000000   -4.912342131e-02   -6.285332143e-02
     5490000000   -2.255523764e-02   -7.326862216e-02
     5493000000    1.011354290e-02   -7.667610794e-02
     5496000000    2.238968946e-02   -6.726919860e-02
     5499000000    7.390230894e-02   -4.545632750e-02
     5502000000    7.113670558e-02   -2.987189032e-02
     5505000000    8.790811151e-02    8.639590815e-03
     5508000000    8.234710246e-02    2.997618355e-02
     5511000000    7.277417928e-02    5.477631837e-02
     5514000000    4.727308825e-02    8.443772048e-02
     5517000000    3.079657443e-02    8.524888009e-02
     5520000000   -5.551727954e-03    9.001517296e-02
     5523000000   -2.585885860e-02    8.061072230e-02
     5526000000   -5.775421113e-02    5.819584429e-02
     5529000000   -6.703607738e-02    4.347882792e-02
     5532000000   -7.724969834e-02    1.215492003e-02
     5535000000   -7.089208066e-02   -3.408934548e-02
     5538000000   -6.215466931e-02   -4.492130131e-02
     5541000000   -4.578336328e-02   -6.267165393e-02
     5544000000   -3.029603045e-03   -7.885800302e-02
     5547000000    1.848326623e-02   -8.076103032e-02
     5550000000    4.597179964e-02   -7.225124538e-02
     5553000000    6.343725324e-02   -6.234874576e-02
     5556000000    8.325289935e-02   -2.936418168e-02
     5559000000    8.926326782e-02   -1.031915657e-02
     5562000000    8.402647823e-02    2.511530556e-02
     5565000000    8.621448278e-02    3.554189205e-02
     5568000000    4.846389592e-02    6.438095868e-02
     5571000000    2.909604274e-02    7.526219636e-02
     5574000000   -6.294941064e-03    7.518807799e-02
     5577000000   -3.188417852e-02    6.841544807e-02
     5580000000   -5.613780394e-02    4.841691256e-02
     5583000000   -7.234201580e-02    3.268701211e-02
     5586000000   -7.893747836e-02   -8.362877998e-05
     5589000000   -8.018142730e-02   -2.636059001e-02
     5592000000   -6.171556562e-02   -5.549757928e-02
     5595000000   -4.399681091e-02   -7.489997894e-02
     5598000000   -2.819757536e-02   -8.956740797e-02
     5601000000    1.231623068e-02   -8.708703518e-02
     5604000000    3.529444337e-02   -8.441682160e-02
     5607000000    5.631145090e-02   -7.242366672e-02
     5610000000    7.272364199e-02   -4.103612527e-02
     5613000000    8.869652450e-02   -2.529518493e-02
     5616000000    7.864867151e-02    9.989452548e-03
     5619000000    7.135958970e-02    3.712086007e-02
     5622000000    5.520071462e-02    6.165906787e-02
     5625000000    2.628246322e-02    7.885392755e-02
     5628000000   -3.769827075e-03    8.788120747e-02
     5631000000   -3.605512530e-02    7.508824766e-02
     5634000000   -6.422077119e-02    6.841357797e-02
     5637000000   -8.275382221e-02    4.321233928e-02
     5640000000   -1.042721346e-01    1.981536485e-02
     5643000000   -1.044423506e-01   -1.269279048e-02
     5646000000   -1.039434075e-01   -4.470473155e-02
     5649000000   -7.168699801e-02   -6.460727751e-02
     5652000000   -5.210988969e-02   -9.049676359e-02
     5655000000   -1.868205331e-02   -9.939762950e-02
     5658000000    1.494690124e-02   -9.950473160e-02
     5661000000    4.666217417e-02   -8.190519363e-02
     5664000000    8.481473476e-02   -6.457763910e-02
     5667000000    8.380674571e-02   -2.898462862e-02
     5670000000    1.051575541e-01    7.879782468e-03
     5673000000    9.724473208e-02    4.244577512e-02
     5676000000    8.073087037e-02    7.609061152e-02
     5679000000    5.534796789e-02    1.090307385e-01
     5682000000    1.959500089e-02    1.206300035e-01
     5685000000   -1.688374020e-02    1.242175326e-01
     5688000000   -5.578650534e-02    1.160983965e-01
     5691000000   -9.208234400e-02    9.521771967e-02
     5694000000   -1.166554689e-01    6.054741889e-02
     5697000000   -1.265767217e-01    2.026744559e-02
     5700000000   -1.223166436e-01   -2.262331918e-02
     5703000000   -1.070408449e-01   -7.070023566e-02
     5706000000   -7.500698417e-02   -1.025817767e-01
     5709000000   -4.124421254e-02   -1.157642230e-01
     5712000000    1.174527779e-02   -1.306064725e-01
     5715000000    6.304533780e-02   -1.229183078e-01
     5718000000    1.008922607e-01   -9.805195779e-02
     5721000000    1.409374624e-01   -5.768435821e-02
     5724000000    1.502808034e-01   -2.180780470e-02
     5727000000    1.545957178e-01    2.767702378e-02
     5730000000    1.359024942e-01    9.151478112e-02
     5733000000    1.051132530e-01    1.240308806e-01
     5736000000    5.558227375e-02    1.536136121e-01
     5739000000    5.310963839e-03    1.607977152e-01
     5742000000   -5.033859238e-02    1.537583321e-01
     5745000000   -1.025551409e-01    1.231915578e-01
     5748000000   -1.349947304e-01    8.949434757e-02
     5751000000   -1.616722494e-01    2.241750248e-02
     5754000000   -1.633947343e-01   -3.429510444e-02
     5757000000   -1.420727819e-01   -9.749764204e-02
     5760000000   -1.085858569e-01   -1.443459094e-01
     5763000000   -5.913487077e-02   -1.762727201e-01
     5766000000    6.507474463e-03   -1.901172101e-01
     5769000000    6.893886626e-02   -1.827794164e-01
     5772000000    1.270670593e-01   -1.496893466e-01
     5775000000    1.732302159e-01   -1.031347513e-01
     5778000000    1.964620948e-01   -3.600489721e-02
     5781000000    1.975114942e-01    3.457106650e-02
     5784000000    1.766264439e-01    1.004225388e-01
     5787000000    1.297111362e-01    1.559532583e-01
     5790000000    7.076239586e-02    1.955536008e-01
     5793000000   -9.378041141e-03    2.052075863e-01
     5796000000   -8.175902069e-02    2.002632767e-01
     5799000000   -1.490636170e-01    1.617305130e-01
     5802000000   -2.008695602e-01    1.041795984e-01
     5805000000   -2.286361456e-01    2.771518007e-02
     5808000000   -2.330664247e-01   -5.088528246e-02
     5811000000   -2.034528106e-01   -1.277233064e-01
     5814000000   -1.578425169e-01   -1.933533698e-01
     5817000000   -7.797803730e-02   -2.320286185e-01
     5820000000    5.153011996e-03   -2.570691705e-01
     5823000000    9.401568025e-02   -2.406806052e-01
     5826000000    1.604299396e-01   -1.797185987e-01
     5829000000    2.341214120e-01   -1.252692938e-01
     5832000000    2.611128986e-01   -3.470817953e-02
     5835000000    2.665834725e-01    6.309381127e-02
     5838000000    2.208030373e-01    1.434074044e-01
     5841000000    1.658357978e-01    2.279283404e-01
     5844000000    7.946400344e-02    2.670920789e-01
     5847000000   -1.848490350e-02    2.898285985e-01
     5850000000   -1.170390993e-01    2.688491642e-01
     5853000000   -1.903107017e-01    2.096918225e-01
     5856000000   -2.768796086e-01    1.369772404e-01
     5859000000   -3.043433428e-01    3.702154756e-02
     5862000000   -2.962465584e-01   -6.651201844e-02
     5865000000   -2.594666481e-01   -1.662921757e-01
     5868000000   -1.863386184e-01   -2.488287687e-01
     5871000000   -9.070600569e-02   -3.006923199e-01
     5874000000    1.929707453e-02   -3.165256381e-01
     5877000000    1.310964078e-01   -2.915289700e-01
     5880000000    2.282011360e-01   -2.315026969e-01
     5883000000    3.068389297e-01   -1.375828832e-01
     5886000000    3.235709965e-01   -3.388617933e-02
     5889000000    3.229999542e-01    8.951326460e-02
     5892000000    2.837810814e-01    2.210675031e-01
     5895000000    2.037653178e-01    2.766311169e-01
     5898000000    8.132250607e-02    3.532819450e-01
     5901000000   -1.205694396e-02    3.426758349e-01
     5904000000   -1.706719697e-01    3.253798187e-01
     5907000000   -2.576079965e-01    2.525443435e-01
     5910000000   -3.142162561e-01    1.644642651e-01
     5913000000   -3.681641519e-01    1.656455360e-02
     5916000000   -3.561057448e-01   -1.126078367e-01
     5919000000   -2.964721620e-01   -2.239252180e-01
     5922000000   -1.983852684e-01   -3.218638301e-01
     5925000000   -8.553147316e-02   -3.674592078e-01
     5928000000    4.659312963e-02   -3.787650764e-01
     5931000000    1.850779802e-01   -3.437499106e-01
     5934000000    2.980083227e-01   -2.586289048e-01
     5937000000    3.690660596e-01   -1.482480019e-01
     5940000000    4.058459401e-01    2.276586369e-03
     5943000000    3.820998967e-01    1.337259263e-01
     5946000000    3.237307370e-01    2.424649596e-01
     5949000000    2.107284963e-01    3.534882069e-01
     5952000000    8.015960455e-02    4.061100185e-01
     5955000000   -5.713266507e-02    4.123747647e-01
     5958000000   -2.103303224e-01    3.621868193e-01
     5961000000   -3.125494123e-01    2.796209455e-01
     5964000000   -4.040842354e-01    1.378152966e-01
     5967000000   -4.320092797e-01   -2.351244725e-02
     5970000000   -4.078305960e-01   -1.623907685e-01
     5973000000   -3.394725025e-01   -2.784992158e-01
     5976000000   -2.176318020e-01   -3.875067532e-01
     5979000000   -4.179197550e-02   -4.507773519e-01
     5982000000    6.980397552e-02   -4.444083571e-01
     5985000000    2.430184633e-01   -3.872383535e-01
     5988000000    3.650040925e-01   -2.795158923e-01
     5991000000    4.393591583e-01   -1.433460861e-01
     5994000000    4.657363594e-01    1.766998507e-02
     5997000000    4.274139404e-01    1.885392070e-01
     6000000000    3.590638936e-01    3.035189807e-01
