! NanoVNA-App
! Date: 2026-05-25 01:50:05
! Start: 2.3GHz Stop: 2.6GHz Points: 401
! S-Parameter data: F S11
# Hz S RI R 50
!     Frequency           S11_Real           S11_Imag
     2300000000    2.391639352e-01    2.903195620e-01
     2300750000    2.133006006e-01    3.053544760e-01
     2301500000    1.823298037e-01    3.243860006e-01
     2302250000    1.562628150e-01    3.334034979e-01
     2303000000    1.259514540e-01    3.445419669e-01
     2303750000    9.606175125e-02    3.512788415e-01
     2304500000    6.320388615e-02    3.559559584e-01
     2305250000    3.538032994e-02    3.574306369e-01
     2306000000    5.623041186e-03    3.560806513e-01
     2306750000   -2.096649632e-02    3.521060646e-01
     2307500000   -5.592666566e-02    3.452397585e-01
     2308250000   -7.967936248e-02    3.369299471e-01
     2309000000   -1.060641035e-01    3.256492019e-01
     2309750000   -1.306984872e-01    3.126577437e-01
     2310500000   -1.572147161e-01    2.967650890e-01
     2311250000   -1.785239130e-01    2.805282772e-01
     2312000000   -1.991018802e-01    2.623826265e-01
     2312750000   -2.178508043e-01    2.424687296e-01
     2313500000   -2.356046289e-01    2.196585238e-01
     2314250000   -2.480376363e-01    2.000720352e-01
     2315000000   -2.627600729e-01    1.736265570e-01
     2315750000   -2.726756334e-01    1.498036087e-01
     2316500000   -2.796511054e-01    1.263230741e-01
     2317250000   -2.867684364e-01    1.000283435e-01
     2318000000   -2.893440723e-01    7.534927130e-02
     2318750000   -2.912538350e-01    4.921485856e-02
     2319500000   -2.895347178e-01    2.755350806e-02
     2320250000   -2.875872254e-01   -1.931266161e-03
     2321000000   -2.815788686e-01   -2.176585048e-02
     2321750000   -2.753163874e-01   -4.770624638e-02
     2322500000   -2.661929429e-01   -6.902671605e-02
     2323250000   -2.560500801e-01   -8.803303540e-02
     2324000000   -2.416321486e-01   -1.115715653e-01
     2324750000   -2.307879925e-01   -1.257092506e-01
     2325500000   -2.131143510e-01   -1.476252973e-01
     2326250000   -1.969873905e-01   -1.616964638e-01
     2327000000   -1.816980392e-01   -1.729476154e-01
     2327750000   -1.602074206e-01   -1.883011162e-01
     2328500000   -1.367415786e-01   -2.030509561e-01
     2329250000   -1.250747889e-01   -2.064167261e-01
     2330000000   -9.871135652e-02   -2.174528986e-01
     2330750000   -8.093259484e-02   -2.215347886e-01
     2331500000   -6.002812460e-02   -2.247653455e-01
     2332250000   -3.957951814e-02   -2.271633595e-01
     2333000000   -1.671625301e-02   -2.277665138e-01
     2333750000    1.085258089e-03   -2.260837704e-01
     2334500000    1.482625306e-02   -2.232863605e-01
     2335250000    3.925503790e-02   -2.178095281e-01
     2336000000    5.504130945e-02   -2.115554810e-01
     2336750000    7.149872929e-02   -2.040715367e-01
     2337500000    8.907105029e-02   -1.941412985e-01
     2338250000    1.008192673e-01   -1.855136156e-01
     2339000000    1.144423261e-01   -1.727043688e-01
     2339750000    1.278919727e-01   -1.604089439e-01
     2340500000    1.386840492e-01   -1.466442198e-01
     2341250000    1.479455680e-01   -1.332212985e-01
     2342000000    1.569014788e-01   -1.178081855e-01
     2342750000    1.636265367e-01   -1.030444950e-01
     2343500000    1.692298800e-01   -8.758784086e-02
     2344250000    1.730122268e-01   -7.252946496e-02
     2345000000    1.759225726e-01   -5.626794696e-02
     2345750000    1.774629653e-01   -3.857309371e-02
     2346500000    1.771926135e-01   -2.694924548e-02
     2347250000    1.761415750e-01   -1.202702615e-02
     2348000000    1.733762771e-01    3.396909218e-03
     2348750000    1.700419933e-01    1.660595648e-02
     2349500000    1.652787030e-01    2.951201051e-02
     2350250000    1.588556170e-01    4.317069799e-02
     2351000000    1.533147544e-01    5.257536843e-02
     2351750000    1.440123320e-01    6.536040455e-02
     2352500000    1.343430430e-01    7.687085122e-02
     2353250000    1.268276274e-01    8.439442515e-02
     2354000000    1.181460470e-01    9.207386523e-02
     2354750000    1.084593832e-01    9.868563712e-02
     2355500000    9.733874351e-02    1.062196642e-01
     2356250000    8.597701788e-02    1.109020412e-01
     2357000000    7.634941489e-02    1.151305810e-01
     2357750000    6.829270720e-02    1.172065437e-01
     2358500000    5.470208451e-02    1.203020737e-01
     2359250000    4.486393929e-02    1.210574806e-01
     2360000000    3.641187772e-02    1.217290312e-01
     2360750000    2.552089468e-02    1.209330261e-01
     2361500000    1.577178948e-02    1.198215038e-01
     2362250000    5.930088926e-03    1.172622293e-01
     2363000000   -1.092618564e-03    1.144268513e-01
     2363750000   -8.563214913e-03    1.107989848e-01
     2364500000   -1.620256156e-02    1.067121774e-01
     2365250000   -2.271811478e-02    1.016668081e-01
     2366000000   -3.034537099e-02    9.499739110e-02
     2366750000   -3.386949375e-02    9.048998356e-02
     2367500000   -3.904158249e-02    8.479829133e-02
     2368250000   -4.286198691e-02    7.812516391e-02
     2369000000   -4.688417539e-02    7.222808152e-02
     2369750000   -5.006211624e-02    6.606644392e-02
     2370500000   -5.235539377e-02    6.012421474e-02
     2371250000   -5.377972871e-02    5.374126881e-02
     2372000000   -5.524441227e-02    4.845426604e-02
     2372750000   -5.589686334e-02    4.323316738e-02
     2373500000   -5.638786778e-02    3.771209344e-02
     2374250000   -5.534048006e-02    3.167860582e-02
     2375000000   -5.506104603e-02    2.791475505e-02
     2375750000   -5.403633043e-02    2.394994907e-02
     2376500000   -5.273695290e-02    1.994414814e-02
     2377250000   -5.037440732e-02    1.538317651e-02
     2378000000   -4.857994244e-02    1.212569140e-02
     2378750000   -4.640584067e-02    9.685268626e-03
     2379500000   -4.545556009e-02    7.488217205e-03
     2380250000   -4.342196137e-02    5.369077902e-03
     2381000000   -4.098349437e-02    3.147995332e-03
     2381750000   -3.906850517e-02    2.086662920e-03
     2382500000   -3.662440181e-02    4.631121119e-04
     2383250000   -3.541657329e-02   -3.658068599e-04
     2384000000   -3.519067541e-02   -8.543630829e-04
     2384750000   -3.225960210e-02   -9.578100289e-04
     2385500000   -3.266368061e-02   -1.586979837e-03
     2386250000   -3.242122754e-02   -1.655705855e-03
     2387000000   -3.015186451e-02   -5.125719472e-04
     2387750000   -3.277317062e-02   -1.921574119e-03
     2388500000   -3.194243833e-02   -1.510327216e-03
     2389250000   -3.254693374e-02   -1.653176732e-03
     2390000000   -3.285940737e-02   -1.238619909e-03
     2390750000   -3.430380300e-02   -2.508969046e-03
     2391500000   -3.497937694e-02   -2.249663696e-03
     2392250000   -3.673285246e-02   -2.490590559e-03
     2393000000   -3.791390732e-02   -3.835453652e-03
     2393750000   -4.007854685e-02   -6.768314634e-03
     2394500000   -4.193505645e-02   -7.545296103e-03
     2395250000   -4.395122826e-02   -1.005393080e-02
     2396000000   -4.597669095e-02   -1.249473169e-02
     2396750000   -4.745500535e-02   -1.582871191e-02
     2397500000   -4.936701432e-02   -1.914681122e-02
     2398250000   -5.127406493e-02   -2.298416570e-02
     2399000000   -5.261914060e-02   -2.697431482e-02
     2399750000   -5.382565036e-02   -3.176249564e-02
     2400500000   -5.399066955e-02   -3.689322248e-02
     2401250000   -5.482133478e-02   -4.151618481e-02
     2402000000   -5.490316451e-02   -4.703753442e-02
     2402750000   -5.417020991e-02   -5.302302912e-02
     2403500000   -5.369818956e-02   -5.899166316e-02
     2404250000   -5.287356302e-02   -6.508023292e-02
     2405000000   -5.038179085e-02   -7.098485529e-02
     2405750000   -4.789964110e-02   -7.700569183e-02
     2406500000   -4.450536147e-02   -8.329469711e-02
     2407250000   -4.038361460e-02   -8.934769034e-02
     2408000000   -3.698777780e-02   -9.495379031e-02
     2408750000   -3.094363026e-02   -9.978084266e-02
     2409500000   -2.567505091e-02   -1.044755355e-01
     2410250000   -1.970989071e-02   -1.098004282e-01
     2411000000   -1.262946799e-02   -1.140392795e-01
     2411750000   -4.599694628e-03   -1.173599362e-01
     2412500000    3.811782692e-03   -1.192554012e-01
     2413250000    1.216599904e-02   -1.218571961e-01
     2414000000    2.159998007e-02   -1.246196404e-01
     2414750000    3.120824881e-02   -1.248052716e-01
     2415500000    4.105466977e-02   -1.241464466e-01
     2416250000    5.132030696e-02   -1.239238083e-01
     2417000000    6.204615906e-02   -1.228024662e-01
     2417750000    7.172515988e-02   -1.191931292e-01
     2418500000    8.224628121e-02   -1.162483990e-01
     2419250000    9.297173470e-02   -1.123132110e-01
     2420000000    1.024534777e-01   -1.071271673e-01
     2420750000    1.118420139e-01   -1.012168080e-01
     2421500000    1.207157969e-01   -9.398736060e-02
     2422250000    1.292564124e-01   -8.579851687e-02
     2423000000    1.367524117e-01   -7.669695467e-02
     2423750000    1.437008530e-01   -6.677557528e-02
     2424500000    1.505926549e-01   -5.580452830e-02
     2425250000    1.550568938e-01   -4.450389370e-02
     2426000000    1.605389118e-01   -3.234379739e-02
     2426750000    1.632385254e-01   -1.964017935e-02
     2427500000    1.651639193e-01   -5.841896869e-03
     2428250000    1.667319983e-01    7.838797756e-03
     2429000000    1.666041166e-01    2.167659625e-02
     2429750000    1.652235389e-01    3.693826124e-02
     2430500000    1.616898030e-01    5.009601265e-02
     2431250000    1.586453319e-01    6.597304344e-02
     2432000000    1.539286077e-01    8.122166246e-02
     2432750000    1.468795240e-01    9.435927123e-02
     2433500000    1.390303671e-01    1.086443886e-01
     2434250000    1.306848824e-01    1.220542192e-01
     2435000000    1.204311401e-01    1.351284832e-01
     2435750000    1.084833443e-01    1.446530372e-01
     2436500000    9.628726542e-02    1.582409739e-01
     2437250000    8.270431310e-02    1.661982089e-01
     2438000000    6.749983132e-02    1.777253151e-01
     2438750000    5.227300897e-02    1.851974577e-01
     2439500000    3.577066585e-02    1.911395639e-01
     2440250000    1.904584281e-02    1.951425970e-01
     2441000000    1.189637813e-03    1.995273679e-01
     2441750000   -1.791428402e-02    2.033724487e-01
     2442500000   -3.602245077e-02    2.032759935e-01
     2443250000   -5.516394973e-02    2.029761672e-01
     2444000000   -7.303679734e-02    2.006044537e-01
     2444750000   -9.099433571e-02    1.955261081e-01
     2445500000   -1.108710915e-01    1.907864362e-01
     2446250000   -1.262099147e-01    1.836759895e-01
     2447000000   -1.453929245e-01    1.750800014e-01
     2447750000   -1.611491740e-01    1.650540233e-01
     2448500000   -1.772912443e-01    1.528202444e-01
     2449250000   -1.932966560e-01    1.390487850e-01
     2450000000   -2.066722810e-01    1.254535764e-01
     2450750000   -2.185567915e-01    1.091448367e-01
     2451500000   -2.301671803e-01    9.133677930e-02
     2452250000   -2.402256578e-01    7.319691032e-02
     2453000000   -2.482538372e-01    5.383558944e-02
     2453750000   -2.553585172e-01    3.327078000e-02
     2454500000   -2.608191669e-01    1.279318146e-02
     2455250000   -2.640435696e-01   -8.746371605e-03
     2456000000   -2.652085423e-01   -2.972107008e-02
     2456750000   -2.649698257e-01   -5.156129599e-02
     2457500000   -2.626691759e-01   -7.328593731e-02
     2458250000   -2.586785555e-01   -9.284526110e-02
     2459000000   -2.530736327e-01   -1.144309863e-01
     2459750000   -2.443936318e-01   -1.355151385e-01
     2460500000   -2.353880256e-01   -1.545359194e-01
     2461250000   -2.230906337e-01   -1.727430075e-01
     2462000000   -2.087605149e-01   -1.915281415e-01
     2462750000   -1.933937222e-01   -2.083401829e-01
     2463500000   -1.771135777e-01   -2.234982103e-01
     2464250000   -1.582370102e-01   -2.374619395e-01
     2465000000   -1.382495016e-01   -2.491484582e-01
     2465750000   -1.170898154e-01   -2.601768970e-01
     2466500000   -9.367665648e-02   -2.699845731e-01
     2467250000   -7.027071714e-02   -2.767910659e-01
     2468000000   -4.942198098e-02   -2.791726291e-01
     2468750000   -2.332328446e-02   -2.846013308e-01
     2469500000    2.013203630e-04   -2.845191658e-01
     2470250000    2.866167575e-02   -2.849627733e-01
     2471000000    5.320845172e-02   -2.810297906e-01
     2471750000    7.770635933e-02   -2.753659785e-01
     2472500000    1.002472192e-01   -2.671666443e-01
     2473250000    1.278193593e-01   -2.577794790e-01
     2474000000    1.505063772e-01   -2.458433360e-01
     2474750000    1.710960418e-01   -2.326141000e-01
     2475500000    1.936375797e-01   -2.162319720e-01
     2476250000    2.149988860e-01   -1.990962327e-01
     2477000000    2.309466153e-01   -1.810311079e-01
     2477750000    2.489823997e-01   -1.599719971e-01
     2478500000    2.644657195e-01   -1.366605610e-01
     2479250000    2.764730453e-01   -1.146998033e-01
     2480000000    2.898184359e-01   -8.940704167e-02
     2480750000    2.978658974e-01   -6.332203001e-02
     2481500000    3.039311767e-01   -3.800583631e-02
     2482250000    3.080093265e-01   -1.182006393e-02
     2483000000    3.114968836e-01    1.666414551e-02
     2483750000    3.103246987e-01    4.287359118e-02
     2484500000    3.075475991e-01    7.106192410e-02
     2485250000    3.026020825e-01    9.806777537e-02
     2486000000    2.952419817e-01    1.243402362e-01
     2486750000    2.854326665e-01    1.503605247e-01
     2487500000    2.724547982e-01    1.769621819e-01
     2488250000    2.578427196e-01    1.990102232e-01
     2489000000    2.421571016e-01    2.227351815e-01
     2489750000    2.231587470e-01    2.434851974e-01
     2490500000    2.023771852e-01    2.630783021e-01
     2491250000    1.811573654e-01    2.817870080e-01
     2492000000    1.562838405e-01    2.975420356e-01
     2492750000    1.322371662e-01    3.111964762e-01
     2493500000    1.058307961e-01    3.230359852e-01
     2494250000    7.671514899e-02    3.331131935e-01
     2495000000    4.916492850e-02    3.390682638e-01
     2495750000    2.192124911e-02    3.435152769e-01
     2496500000   -7.740550209e-03    3.450343907e-01
     2497250000   -3.911318630e-02    3.456566334e-01
     2498000000   -6.227369234e-02    3.411000669e-01
     2498750000   -9.719260782e-02    3.355228305e-01
     2499500000   -1.226053983e-01    3.273039460e-01
     2500250000   -1.468420774e-01    3.164922893e-01
     2501000000   -1.789270043e-01    3.023150563e-01
     2501750000   -2.065052688e-01    2.858022153e-01
     2502500000   -2.260820121e-01    2.690495551e-01
     2503250000   -2.475703210e-01    2.494550496e-01
     2504000000   -2.729835808e-01    2.234842926e-01
     2504750000   -2.858918309e-01    2.044412643e-01
     2505500000   -3.089347482e-01    1.738730967e-01
     2506250000   -3.206740916e-01    1.485648304e-01
     2507000000   -3.300928771e-01    1.239220798e-01
     2507750000   -3.438011408e-01    8.849149942e-02
     2508500000   -3.477828205e-01    6.218607351e-02
     2509250000   -3.526896536e-01    2.971060015e-02
     2510000000   -3.550122976e-01   -4.420646001e-04
     2510750000   -3.537746072e-01   -3.389468789e-02
     2511500000   -3.489190340e-01   -6.144052371e-02
     2512250000   -3.421326578e-01   -9.807980806e-02
     2513000000   -3.336309791e-01   -1.223684028e-01
     2513750000   -3.214178979e-01   -1.534154564e-01
     2514500000   -3.063639104e-01   -1.840934902e-01
     2515250000   -2.891984880e-01   -2.080387026e-01
     2516000000   -2.703216970e-01   -2.342684567e-01
     2516750000   -2.495756000e-01   -2.560925484e-01
     2517500000   -2.232896984e-01   -2.808776200e-01
     2518250000   -1.987659484e-01   -3.002352715e-01
     2519000000   -1.716390401e-01   -3.175750375e-01
     2519750000   -1.408411115e-01   -3.335242867e-01
     2520500000   -1.118474305e-01   -3.456312418e-01
     2521250000   -8.154926449e-02   -3.547798097e-01
     2522000000   -5.146151409e-02   -3.614883423e-01
     2522750000   -1.445857901e-02   -3.668584526e-01
     2523500000    1.719388552e-02   -3.685629368e-01
     2524250000    4.934452474e-02   -3.671183586e-01
     2525000000    8.214566112e-02   -3.631783426e-01
     2525750000    1.157740727e-01   -3.545093238e-01
     2526500000    1.439176053e-01   -3.449423015e-01
     2527250000    1.773018092e-01   -3.319315016e-01
     2528000000    2.055027485e-01   -3.165825009e-01
     2528750000    2.340007573e-01   -2.982134223e-01
     2529500000    2.601059675e-01   -2.787337005e-01
     2530250000    2.846084833e-01   -2.545104921e-01
     2531000000    3.063920736e-01   -2.306069583e-01
     2531750000    3.267469704e-01   -2.034318894e-01
     2532500000    3.425311148e-01   -1.774734110e-01
     2533250000    3.602013588e-01   -1.438664496e-01
     2534000000    3.713726997e-01   -1.139186397e-01
     2534750000    3.808859885e-01   -8.117046952e-02
     2535500000    3.875547349e-01   -5.118962377e-02
     2536250000    3.912129104e-01   -1.475688349e-02
     2537000000    3.924221694e-01    2.010027878e-02
     2537750000    3.908509612e-01    5.328464136e-02
     2538500000    3.843480647e-01    8.722971380e-02
     2539250000    3.786827624e-01    1.200830564e-01
     2540000000    3.664782941e-01    1.507558376e-01
     2540750000    3.520069718e-01    1.840494722e-01
     2541500000    3.351980746e-01    2.131675631e-01
     2542250000    3.158290088e-01    2.414092869e-01
     2543000000    2.933072448e-01    2.690494061e-01
     2543750000    2.690413296e-01    2.915193439e-01
     2544500000    2.443615645e-01    3.145601153e-01
     2545250000    2.153585553e-01    3.344512880e-01
     2546000000    1.861433685e-01    3.510101140e-01
     2546750000    1.537409276e-01    3.660322130e-01
     2547500000    1.170387194e-01    3.772893548e-01
     2548250000    8.803742379e-02    3.835638165e-01
     2549000000    5.464231223e-02    3.910328150e-01
     2549750000    1.396831870e-02    3.948897719e-01
     2550500000   -2.143041417e-02    3.934263289e-01
     2551250000   -5.585794896e-02    3.897503018e-01
     2552000000   -8.998645842e-02    3.813898563e-01
     2552750000   -1.218830496e-01    3.733683825e-01
     2553500000   -1.561144143e-01    3.608368933e-01
     2554250000   -1.916444749e-01    3.440929055e-01
     2555000000   -2.179401666e-01    3.259249330e-01
     2555750000   -2.489658296e-01    3.044905365e-01
     2556500000   -2.776893377e-01    2.798647881e-01
     2557250000   -3.025984168e-01    2.538179159e-01
     2558000000   -3.255831301e-01    2.258122116e-01
     2558750000   -3.427793384e-01    2.001674026e-01
     2559500000   -3.634893000e-01    1.620964110e-01
     2560250000   -3.776940703e-01    1.325516999e-01
     2561000000   -3.884558678e-01    9.832660109e-02
     2561750000   -3.969025910e-01    6.345179677e-02
     2562500000   -4.006541669e-01    2.683035284e-02
     2563250000   -4.037316740e-01   -7.911963388e-03
     2564000000   -4.015710056e-01   -4.299014807e-02
     2564750000   -3.976509869e-01   -7.992284000e-02
     2565500000   -3.891350627e-01   -1.192765534e-01
     2566250000   -3.791244328e-01   -1.483894438e-01
     2567000000   -3.659922183e-01   -1.817230880e-01
     2567750000   -3.442106545e-01   -2.216539085e-01
     2568500000   -3.269638121e-01   -2.479622364e-01
     2569250000   -3.057151139e-01   -2.742560506e-01
     2570000000   -2.785161734e-01   -3.025796115e-01
     2570750000   -2.528762519e-01   -3.263837099e-01
     2571500000   -2.227288336e-01   -3.500827253e-01
     2572250000   -1.899534613e-01   -3.681430519e-01
     2573000000   -1.596008092e-01   -3.845873773e-01
     2573750000   -1.241987273e-01   -3.968947530e-01
     2574500000   -8.680727333e-02   -4.071111977e-01
     2575250000   -5.170245469e-02   -4.147855341e-01
     2576000000   -1.363218203e-02   -4.185530841e-01
     2576750000    2.331343479e-02   -4.170971215e-01
     2577500000    5.894787237e-02   -4.154233634e-01
     2578250000    9.621633589e-02   -4.082612693e-01
     2579000000    1.325909793e-01   -3.984398246e-01
     2579750000    1.689690650e-01   -3.860163391e-01
     2580500000    2.048282921e-01   -3.688684106e-01
     2581250000    2.354809195e-01   -3.499959707e-01
     2582000000    2.667240798e-01   -3.289064765e-01
     2582750000    2.970883250e-01   -3.005702794e-01
     2583500000    3.183556795e-01   -2.772280574e-01
     2584250000    3.446210921e-01   -2.463643104e-01
     2585000000    3.647963107e-01   -2.132276893e-01
     2585750000    3.836945593e-01   -1.780083477e-01
     2586500000    3.962022960e-01   -1.471780986e-01
     2587250000    4.102424979e-01   -1.063873321e-01
     2588000000    4.180111885e-01   -7.136224955e-02
     2588750000    4.230011702e-01   -3.249127790e-02
     2589500000    4.252814353e-01    9.949989617e-03
     2590250000    4.225876331e-01    4.696599767e-02
     2591000000    4.170733094e-01    8.095702529e-02
     2591750000    4.090696573e-01    1.167524457e-01
     2592500000    3.952979743e-01    1.610995084e-01
     2593250000    3.789768219e-01    1.984203458e-01
     2594000000    3.639268279e-01    2.257253528e-01
     2594750000    3.375079930e-01    2.657541335e-01
     2595500000    3.158007264e-01    2.920072079e-01
     2596250000    2.837624550e-01    3.246911466e-01
     2597000000    2.565078139e-01    3.480021060e-01
     2597750000    2.249681652e-01    3.704618216e-01
     2598500000    1.894425005e-01    3.922530115e-01
     2599250000    1.481168121e-01    4.103014767e-01
     2600000000    1.125495359e-01    4.222316742e-01
