! NanoVNA-App
! Date: 2026-05-25 01:49:03
! Start: 2.3GHz Stop: 2.6GHz Points: 401
! S-Parameter data: F S11
# Hz S RI R 50
!     Frequency           S11_Real           S11_Imag
     2300000000    2.457769066e-01    2.910461724e-01
     2300750000    2.183334529e-01    3.094624579e-01
     2301500000    1.894325316e-01    3.257627785e-01
     2302250000    1.625401378e-01    3.379813135e-01
     2303000000    1.349797994e-01    3.462305963e-01
     2303750000    1.022520214e-01    3.551846147e-01
     2304500000    7.222701609e-02    3.595173061e-01
     2305250000    4.456836358e-02    3.610376418e-01
     2306000000    1.604088023e-02    3.604870439e-01
     2306750000   -1.767724939e-02    3.580485284e-01
     2307500000   -4.403740540e-02    3.526246846e-01
     2308250000   -7.487540692e-02    3.433429897e-01
     2309000000   -9.846612811e-02    3.335160315e-01
     2309750000   -1.275171191e-01    3.204005957e-01
     2310500000   -1.522434801e-01    3.051573932e-01
     2311250000   -1.742136180e-01    2.892807126e-01
     2312000000   -1.957940608e-01    2.711332738e-01
     2312750000   -2.148716450e-01    2.506215870e-01
     2313500000   -2.316016257e-01    2.293814421e-01
     2314250000   -2.490802258e-01    2.068759650e-01
     2315000000   -2.618792355e-01    1.833696067e-01
     2315750000   -2.725255787e-01    1.587889791e-01
     2316500000   -2.808572650e-01    1.347352266e-01
     2317250000   -2.880000770e-01    1.078146026e-01
     2318000000   -2.925090492e-01    8.325712383e-02
     2318750000   -2.948787510e-01    5.543392524e-02
     2319500000   -2.934940159e-01    3.234761581e-02
     2320250000   -2.917859554e-01    8.706029505e-03
     2321000000   -2.870163620e-01   -2.028001100e-02
     2321750000   -2.808234990e-01   -3.641664609e-02
     2322500000   -2.718755603e-01   -6.520588696e-02
     2323250000   -2.616226673e-01   -8.643101156e-02
     2324000000   -2.498132139e-01   -1.063298956e-01
     2324750000   -2.369189411e-01   -1.248186529e-01
     2325500000   -2.210859805e-01   -1.454764903e-01
     2326250000   -2.036332488e-01   -1.636171192e-01
     2327000000   -1.887310892e-01   -1.751956195e-01
     2327750000   -1.677961797e-01   -1.913150698e-01
     2328500000   -1.520414650e-01   -1.995887756e-01
     2329250000   -1.303231418e-01   -2.107133716e-01
     2330000000   -1.106071919e-01   -2.185433805e-01
     2330750000   -8.886921406e-02   -2.251276821e-01
     2331500000   -6.559255719e-02   -2.296857685e-01
     2332250000   -4.602136090e-02   -2.317622155e-01
     2333000000   -2.867366746e-02   -2.314912677e-01
     2333750000   -4.094894044e-03   -2.308326513e-01
     2334500000    1.340301149e-02   -2.273641378e-01
     2335250000    3.267817199e-02   -2.237269431e-01
     2336000000    5.248168483e-02   -2.167798877e-01
     2336750000    6.696993113e-02   -2.096195370e-01
     2337500000    8.263922483e-02   -2.007507235e-01
     2338250000    9.940429032e-02   -1.895387769e-01
     2339000000    1.130389348e-01   -1.782189906e-01
     2339750000    1.256583631e-01   -1.659713238e-01
     2340500000    1.382932663e-01   -1.517312825e-01
     2341250000    1.486872435e-01   -1.367678046e-01
     2342000000    1.571449786e-01   -1.224882975e-01
     2342750000    1.639358550e-01   -1.082264483e-01
     2343500000    1.703526974e-01   -9.208417684e-02
     2344250000    1.756954342e-01   -7.577632368e-02
     2345000000    1.787740290e-01   -5.924202129e-02
     2345750000    1.801718473e-01   -4.522197694e-02
     2346500000    1.805897504e-01   -2.459250763e-02
     2347250000    1.797321141e-01   -1.126499847e-02
     2348000000    1.778939217e-01    9.505084599e-04
     2348750000    1.733631194e-01    2.034805343e-02
     2349500000    1.694477350e-01    3.094565496e-02
     2350250000    1.640971899e-01    4.156652838e-02
     2351000000    1.557733715e-01    5.771184340e-02
     2351750000    1.479621381e-01    6.911734492e-02
     2352500000    1.395162046e-01    7.968126982e-02
     2353250000    1.291147619e-01    9.051590413e-02
     2354000000    1.198664010e-01    9.920837730e-02
     2354750000    1.107536852e-01    1.055635661e-01
     2355500000    1.013544947e-01    1.120808125e-01
     2356250000    8.728381991e-02    1.180279627e-01
     2357000000    7.574452460e-02    1.229506731e-01
     2357750000    6.618241966e-02    1.260466725e-01
     2358500000    5.454835668e-02    1.287005097e-01
     2359250000    4.400337860e-02    1.292428672e-01
     2360000000    3.178206459e-02    1.301809847e-01
     2360750000    2.136980742e-02    1.298181415e-01
     2361500000    1.164297294e-02    1.277195811e-01
     2362250000    3.262093291e-03    1.258973777e-01
     2363000000   -6.906632800e-03    1.222023815e-01
     2363750000   -1.547212806e-02    1.182275042e-01
     2364500000   -2.367235348e-02    1.132729426e-01
     2365250000   -3.175883368e-02    1.074957773e-01
     2366000000   -3.718772903e-02    1.021583378e-01
     2366750000   -4.438207671e-02    9.507292509e-02
     2367500000   -4.986465350e-02    8.808629960e-02
     2368250000   -5.383176729e-02    8.158145845e-02
     2369000000   -5.839210749e-02    7.395126671e-02
     2369750000   -6.162231416e-02    6.669823080e-02
     2370500000   -6.422114372e-02    6.051253527e-02
     2371250000   -6.647977978e-02    5.149131641e-02
     2372000000   -6.758557260e-02    4.529844597e-02
     2372750000   -6.850536913e-02    3.817655146e-02
     2373500000   -6.868828833e-02    3.216720000e-02
     2374250000   -6.802348047e-02    2.640929259e-02
     2375000000   -6.717376411e-02    2.064608783e-02
     2375750000   -6.521173567e-02    1.488975622e-02
     2376500000   -6.364284456e-02    1.011591963e-02
     2377250000   -6.067634001e-02    4.429223016e-03
     2378000000   -5.867513269e-02    5.717563909e-04
     2378750000   -5.503674597e-02   -3.665125929e-03
     2379500000   -5.087429658e-02   -7.878122851e-03
     2380250000   -4.921843484e-02   -1.003609970e-02
     2381000000   -4.590118676e-02   -1.230324805e-02
     2381750000   -4.247777909e-02   -1.457089558e-02
     2382500000   -4.023803398e-02   -1.652346179e-02
     2383250000   -3.401722759e-02   -1.842169091e-02
     2384000000   -3.372114152e-02   -1.897747256e-02
     2384750000   -3.044996597e-02   -1.978633925e-02
     2385500000   -2.737244219e-02   -2.047977783e-02
     2386250000   -2.549175918e-02   -2.046057582e-02
     2387000000   -2.228616923e-02   -2.003092319e-02
     2387750000   -2.062706836e-02   -1.946468279e-02
     2388500000   -2.031679638e-02   -1.981700212e-02
     2389250000   -1.769620366e-02   -1.855494455e-02
     2390000000   -1.679878868e-02   -1.775181480e-02
     2390750000   -1.667389646e-02   -1.861692220e-02
     2391500000   -1.657198742e-02   -1.808430441e-02
     2392250000   -1.639524102e-02   -1.753271744e-02
     2393000000   -1.633004099e-02   -1.767054200e-02
     2393750000   -1.709349081e-02   -1.797933690e-02
     2394500000   -1.765306108e-02   -2.025619335e-02
     2395250000   -1.859648153e-02   -1.809670031e-02
     2396000000   -1.964603551e-02   -2.032360993e-02
     2396750000   -2.106054313e-02   -2.160282061e-02
     2397500000   -2.233353443e-02   -2.285140380e-02
     2398250000   -2.376333252e-02   -2.432671189e-02
     2399000000   -2.435054444e-02   -2.711007372e-02
     2399750000   -2.567060106e-02   -2.948432788e-02
     2400500000   -2.644418925e-02   -3.246106952e-02
     2401250000   -2.734434605e-02   -3.507271782e-02
     2402000000   -2.774747834e-02   -3.834348917e-02
     2402750000   -2.750887163e-02   -4.257309809e-02
     2403500000   -2.782179788e-02   -4.584281147e-02
     2404250000   -2.733595297e-02   -4.962920770e-02
     2405000000   -2.630322240e-02   -5.418940261e-02
     2405750000   -2.515339851e-02   -5.810394138e-02
     2406500000   -2.287510969e-02   -6.301198155e-02
     2407250000   -2.175338194e-02   -6.696714461e-02
     2408000000   -1.799510419e-02   -7.104945928e-02
     2408750000   -1.517215651e-02   -7.488908619e-02
     2409500000   -1.209716965e-02   -7.895536721e-02
     2410250000   -7.557081059e-03   -8.220282942e-02
     2411000000   -2.564183436e-03   -8.535739034e-02
     2411750000    3.256342839e-03   -8.951988816e-02
     2412500000    9.636621922e-03   -9.086538851e-02
     2413250000    1.576017588e-02   -9.263775498e-02
     2414000000    2.281472459e-02   -9.381753951e-02
     2414750000    3.031404316e-02   -9.483017772e-02
     2415500000    3.736897558e-02   -9.473880380e-02
     2416250000    4.493438825e-02   -9.464031458e-02
     2417000000    5.347934365e-02   -9.343104064e-02
     2417750000    6.146696955e-02   -9.156591445e-02
     2418500000    6.942108274e-02   -8.879363537e-02
     2419250000    7.748711109e-02   -8.543660492e-02
     2420000000    8.502027392e-02   -8.102428168e-02
     2420750000    9.254601598e-02   -7.641462237e-02
     2421500000    9.948618710e-02   -7.072791457e-02
     2422250000    1.067348868e-01   -6.439453363e-02
     2423000000    1.128151864e-01   -5.728330836e-02
     2423750000    1.182555556e-01   -4.931143299e-02
     2424500000    1.230045930e-01   -4.080062732e-02
     2425250000    1.270853281e-01   -3.125493601e-02
     2426000000    1.308254749e-01   -2.124337293e-02
     2426750000    1.335604787e-01   -1.111780107e-02
     2427500000    1.349010468e-01   -3.752013436e-05
     2428250000    1.353645325e-01    1.116604824e-02
     2429000000    1.357232481e-01    2.324687131e-02
     2429750000    1.334621459e-01    3.524208814e-02
     2430500000    1.324796826e-01    4.786846414e-02
     2431250000    1.279337704e-01    5.952895060e-02
     2432000000    1.237145141e-01    7.273107022e-02
     2432750000    1.174996272e-01    8.431292325e-02
     2433500000    1.102085561e-01    9.520574659e-02
     2434250000    1.030528024e-01    1.081907675e-01
     2435000000    9.414254129e-02    1.169333011e-01
     2435750000    8.415901661e-02    1.298326403e-01
     2436500000    7.381393015e-02    1.378627121e-01
     2437250000    6.207827851e-02    1.469050497e-01
     2438000000    4.933560267e-02    1.538462192e-01
     2438750000    3.604013845e-02    1.618242562e-01
     2439500000    2.233608253e-02    1.661270112e-01
     2440250000    8.009210229e-03    1.693277210e-01
     2441000000   -8.241094649e-03    1.751608253e-01
     2441750000   -2.387376130e-02    1.770951599e-01
     2442500000   -3.848208860e-02    1.766660810e-01
     2443250000   -5.653218180e-02    1.770687997e-01
     2444000000   -7.202263921e-02    1.740094721e-01
     2444750000   -8.993669599e-02    1.707636118e-01
     2445500000   -1.041457281e-01    1.646583527e-01
     2446250000   -1.184035838e-01    1.583984643e-01
     2447000000   -1.349798590e-01    1.508712918e-01
     2447750000   -1.501614302e-01    1.410139948e-01
     2448500000   -1.632387191e-01    1.303216815e-01
     2449250000   -1.778873652e-01    1.184542850e-01
     2450000000   -1.881870478e-01    1.054514945e-01
     2450750000   -1.997472644e-01    9.105324000e-02
     2451500000   -2.097026855e-01    7.544981688e-02
     2452250000   -2.192709744e-01    5.897843465e-02
     2453000000   -2.258646339e-01    4.255279899e-02
     2453750000   -2.324616909e-01    2.356192097e-02
     2454500000   -2.371185124e-01    5.374581087e-03
     2455250000   -2.394614816e-01   -1.288747136e-02
     2456000000   -2.412616462e-01   -3.283807263e-02
     2456750000   -2.409507483e-01   -5.269538611e-02
     2457500000   -2.381610721e-01   -7.029853761e-02
     2458250000   -2.351720929e-01   -9.127704054e-02
     2459000000   -2.285477072e-01   -1.084559411e-01
     2459750000   -2.224542946e-01   -1.286430210e-01
     2460500000   -2.121902853e-01   -1.432642639e-01
     2461250000   -2.015381753e-01   -1.648846865e-01
     2462000000   -1.884872168e-01   -1.779398471e-01
     2462750000   -1.754998863e-01   -1.910534948e-01
     2463500000   -1.592648327e-01   -2.061748058e-01
     2464250000   -1.430597156e-01   -2.175376266e-01
     2465000000   -1.234070733e-01   -2.318996787e-01
     2465750000   -1.067058071e-01   -2.370391786e-01
     2466500000   -8.381019533e-02   -2.485693246e-01
     2467250000   -6.376894563e-02   -2.530535161e-01
     2468000000   -3.965957090e-02   -2.595713735e-01
     2468750000   -1.954046264e-02   -2.603689730e-01
     2469500000    5.857186858e-03   -2.624071836e-01
     2470250000    2.828792483e-02   -2.603850067e-01
     2471000000    5.105322227e-02   -2.571457028e-01
     2471750000    7.496850938e-02   -2.529574633e-01
     2472500000    9.383806586e-02   -2.448764741e-01
     2473250000    1.209627613e-01   -2.361496985e-01
     2474000000    1.414595395e-01   -2.251594812e-01
     2474750000    1.610416472e-01   -2.124299705e-01
     2475500000    1.819999665e-01   -1.975323260e-01
     2476250000    2.021902800e-01   -1.814636290e-01
     2477000000    2.168528289e-01   -1.640869379e-01
     2477750000    2.314814329e-01   -1.459116042e-01
     2478500000    2.462563068e-01   -1.249294803e-01
     2479250000    2.602228224e-01   -1.006413624e-01
     2480000000    2.698705196e-01   -7.973529398e-02
     2480750000    2.783489227e-01   -5.482118949e-02
     2481500000    2.828439176e-01   -3.138649836e-02
     2482250000    2.881045938e-01   -6.929569412e-03
     2483000000    2.899698019e-01    1.919908263e-02
     2483750000    2.889719009e-01    4.335354269e-02
     2484500000    2.867518961e-01    6.936401129e-02
     2485250000    2.816337943e-01    9.447984397e-02
     2486000000    2.757147253e-01    1.195363402e-01
     2486750000    2.656986713e-01    1.449891776e-01
     2487500000    2.547338307e-01    1.667603850e-01
     2488250000    2.406630963e-01    1.913788617e-01
     2489000000    2.251507789e-01    2.118482739e-01
     2489750000    2.079090625e-01    2.309556752e-01
     2490500000    1.879121363e-01    2.511258423e-01
     2491250000    1.672918051e-01    2.684031427e-01
     2492000000    1.457496136e-01    2.835303247e-01
     2492750000    1.211638600e-01    2.978603840e-01
     2493500000    9.891881049e-02    3.068463504e-01
     2494250000    6.908508390e-02    3.191914856e-01
     2495000000    4.654719681e-02    3.232498169e-01
     2495750000    1.930494793e-02    3.277574182e-01
     2496500000   -6.541147362e-03    3.297106624e-01
     2497250000   -3.996696323e-02    3.297064602e-01
     2498000000   -6.188760325e-02    3.260910213e-01
     2498750000   -9.019753337e-02    3.202859759e-01
     2499500000   -1.186224669e-01    3.132469356e-01
     2500250000   -1.398352385e-01    3.032399714e-01
     2501000000   -1.691970080e-01    2.901715040e-01
     2501750000   -1.948811561e-01    2.743883431e-01
     2502500000   -2.164509445e-01    2.584501505e-01
     2503250000   -2.371581942e-01    2.392923385e-01
     2504000000   -2.585448325e-01    2.176820338e-01
     2504750000   -2.731059492e-01    1.979350448e-01
     2505500000   -2.930093706e-01    1.714493185e-01
     2506250000   -3.074948192e-01    1.439495683e-01
     2507000000   -3.166260719e-01    1.199693233e-01
     2507750000   -3.283195794e-01    9.050805122e-02
     2508500000   -3.348402381e-01    6.209177151e-02
     2509250000   -3.373084664e-01    3.602625430e-02
     2510000000   -3.412828445e-01    2.781115239e-03
     2510750000   -3.400453925e-01   -2.722278051e-02
     2511500000   -3.382721245e-01   -5.895342305e-02
     2512250000   -3.313163519e-01   -8.656919003e-02
     2513000000   -3.224502504e-01   -1.158293635e-01
     2513750000   -3.123615086e-01   -1.419538260e-01
     2514500000   -2.977374196e-01   -1.720465273e-01
     2515250000   -2.816375792e-01   -1.960413307e-01
     2516000000   -2.626869678e-01   -2.229434550e-01
     2516750000   -2.440847754e-01   -2.439151257e-01
     2517500000   -2.224043608e-01   -2.616587877e-01
     2518250000   -1.974457353e-01   -2.841171920e-01
     2519000000   -1.700523198e-01   -3.022205532e-01
     2519750000   -1.432283372e-01   -3.164104223e-01
     2520500000   -1.153650805e-01   -3.293541968e-01
     2521250000   -8.539908379e-02   -3.391184509e-01
     2522000000   -5.450142175e-02   -3.458470404e-01
     2522750000   -2.458532713e-02   -3.511509299e-01
     2523500000    8.756488562e-03   -3.532873690e-01
     2524250000    3.861162812e-02   -3.522116244e-01
     2525000000    6.962887198e-02   -3.479109108e-01
     2525750000    1.016536430e-01   -3.419109881e-01
     2526500000    1.320276409e-01   -3.327544332e-01
     2527250000    1.616154760e-01   -3.201777041e-01
     2528000000    1.893931329e-01   -3.072166145e-01
     2528750000    2.166944146e-01   -2.905969024e-01
     2529500000    2.424179465e-01   -2.710319757e-01
     2530250000    2.638918757e-01   -2.512707114e-01
     2531000000    2.890095413e-01   -2.250936776e-01
     2531750000    3.085334301e-01   -2.004569620e-01
     2532500000    3.252669871e-01   -1.753268242e-01
     2533250000    3.408058584e-01   -1.451724619e-01
     2534000000    3.530243933e-01   -1.169198528e-01
     2534750000    3.618868887e-01   -8.479263633e-02
     2535500000    3.693468273e-01   -5.286682397e-02
     2536250000    3.736955822e-01   -2.283486351e-02
     2537000000    3.750279248e-01    9.634947404e-03
     2537750000    3.737379909e-01    4.276926443e-02
     2538500000    3.694358170e-01    7.639480382e-02
     2539250000    3.631480336e-01    1.060427651e-01
     2540000000    3.524219096e-01    1.371634752e-01
     2540750000    3.390663564e-01    1.688393950e-01
     2541500000    3.240220845e-01    1.965697855e-01
     2542250000    3.062686324e-01    2.240661830e-01
     2543000000    2.870926857e-01    2.496994734e-01
     2543750000    2.633896172e-01    2.736961544e-01
     2544500000    2.384008020e-01    2.964092791e-01
     2545250000    2.105583251e-01    3.158509135e-01
     2546000000    1.836120188e-01    3.317697942e-01
     2546750000    1.518801153e-01    3.463155925e-01
     2547500000    1.213446334e-01    3.570665121e-01
     2548250000    8.574535698e-02    3.686693311e-01
     2549000000    5.533207580e-02    3.728851974e-01
     2549750000    2.507945895e-02    3.754724562e-01
     2550500000   -1.288219821e-02    3.760613501e-01
     2551250000   -4.869929701e-02    3.735546768e-01
     2552000000   -7.567869127e-02    3.679748774e-01
     2552750000   -1.153113693e-01    3.577188849e-01
     2553500000   -1.444962770e-01    3.461835384e-01
     2554250000   -1.757057458e-01    3.323244452e-01
     2555000000   -2.079581618e-01    3.131921589e-01
     2555750000   -2.318843454e-01    2.965366840e-01
     2556500000   -2.625836134e-01    2.724734545e-01
     2557250000   -2.879631221e-01    2.466390729e-01
     2558000000   -3.062805831e-01    2.235283852e-01
     2558750000   -3.251225352e-01    1.973185688e-01
     2559500000   -3.452259898e-01    1.623288840e-01
     2560250000   -3.599155843e-01    1.310667247e-01
     2561000000   -3.703414500e-01    9.894080460e-02
     2561750000   -3.766987026e-01    6.996267289e-02
     2562500000   -3.833796680e-01    3.152859583e-02
     2563250000   -3.862941861e-01   -3.822047263e-03
     2564000000   -3.839293718e-01   -3.802007809e-02
     2564750000   -3.802152276e-01   -7.597421855e-02
     2565500000   -3.743369877e-01   -1.040182114e-01
     2566250000   -3.631341755e-01   -1.411891282e-01
     2567000000   -3.493403494e-01   -1.758045852e-01
     2567750000   -3.336938024e-01   -2.061244398e-01
     2568500000   -3.162192106e-01   -2.345969528e-01
     2569250000   -2.912094593e-01   -2.658168375e-01
     2570000000   -2.689248025e-01   -2.895080447e-01
     2570750000   -2.422093302e-01   -3.136520088e-01
     2571500000   -2.126988173e-01   -3.363919258e-01
     2572250000   -1.846590787e-01   -3.545261025e-01
     2573000000   -1.502693295e-01   -3.721791506e-01
     2573750000   -1.209561750e-01   -3.816491663e-01
     2574500000   -8.320066333e-02   -3.948961198e-01
     2575250000   -4.852798954e-02   -4.008866549e-01
     2576000000   -1.190847717e-02   -4.046648741e-01
     2576750000    2.508717403e-02   -4.052633941e-01
     2577500000    6.042845175e-02   -4.031345844e-01
     2578250000    9.544764459e-02   -3.967444599e-01
     2579000000    1.333336234e-01   -3.883182704e-01
     2579750000    1.665216684e-01   -3.752057850e-01
     2580500000    2.007514238e-01   -3.594974577e-01
     2581250000    2.320809811e-01   -3.411290348e-01
     2582000000    2.622084618e-01   -3.199574053e-01
     2582750000    2.934604287e-01   -2.926666141e-01
     2583500000    3.166849017e-01   -2.698947489e-01
     2584250000    3.398016095e-01   -2.407861352e-01
     2585000000    3.606910706e-01   -2.079553306e-01
     2585750000    3.782496750e-01   -1.763343513e-01
     2586500000    3.934186697e-01   -1.378760785e-01
     2587250000    4.068242013e-01   -1.024334505e-01
     2588000000    4.151725471e-01   -6.533057988e-02
     2588750000    4.191043675e-01   -3.189798445e-02
     2589500000    4.213176370e-01    1.021990832e-02
     2590250000    4.195521474e-01    4.692571238e-02
     2591000000    4.141438603e-01    8.867213875e-02
     2591750000    4.066044688e-01    1.242847219e-01
     2592500000    3.934907615e-01    1.612503380e-01
     2593250000    3.786200583e-01    1.998981386e-01
     2594000000    3.606638312e-01    2.325451076e-01
     2594750000    3.391530514e-01    2.659845948e-01
     2595500000    3.140707314e-01    2.999356687e-01
     2596250000    2.835233808e-01    3.295571208e-01
     2597000000    2.620458007e-01    3.492555320e-01
     2597750000    2.251051515e-01    3.778617084e-01
     2598500000    1.889943928e-01    3.988749087e-01
     2599250000    1.548089683e-01    4.168708920e-01
     2600000000    1.139216200e-01    4.318302274e-01
