! NanoVNA-App
! Date: 2026-05-22 19:22:56
! Start: 4.8GHz Stop: 6GHz Points: 401
! S-Parameter data: F S11
# Hz S RI R 50
!     Frequency           S11_Real           S11_Imag
     4800000000    8.434601128e-02    1.296493560e-01
     4803000000    4.299425334e-02    1.381412297e-01
     4806000000    1.948122052e-03    1.308732778e-01
     4809000000   -3.417886421e-02    1.083567664e-01
     4812000000   -6.484004855e-02    7.778442651e-02
     4815000000   -7.447489351e-02    3.427181020e-02
     4818000000   -7.711739093e-02   -7.130600978e-03
     4821000000   -5.310701951e-02   -4.413136840e-02
     4824000000   -2.424770221e-02   -7.326637954e-02
     4827000000    1.509129070e-02   -8.885975927e-02
     4830000000    5.793628097e-02   -8.952730149e-02
     4833000000    9.651938081e-02   -7.193052024e-02
     4836000000    1.254882663e-01   -4.178623483e-02
     4839000000    1.443492323e-01   -3.575210227e-03
     4842000000    1.434277892e-01    4.174157232e-02
     4845000000    1.274399310e-01    8.264196664e-02
     4848000000    9.523581713e-02    1.153703034e-01
     4851000000    5.637152120e-02    1.374880522e-01
     4854000000    8.351060562e-03    1.428114921e-01
     4857000000   -3.711328283e-02    1.287864596e-01
     4860000000   -7.628028840e-02    1.011727974e-01
     4863000000   -1.024596468e-01    6.027264521e-02
     4866000000   -1.098661199e-01    1.408925839e-02
     4869000000   -1.044827104e-01   -3.501178324e-02
     4872000000   -7.476122677e-02   -7.231092453e-02
     4875000000   -4.300021380e-02   -1.077249870e-01
     4878000000    4.303032998e-03   -1.191365123e-01
     4881000000    5.001999810e-02   -1.160726324e-01
     4884000000    9.328916669e-02   -9.965290874e-02
     4887000000    1.258671582e-01   -6.506302208e-02
     4890000000    1.434242427e-01   -2.242785878e-02
     4893000000    1.432328969e-01    2.490127273e-02
     4896000000    1.242817566e-01    6.705204397e-02
     4899000000    9.297419339e-02    9.933824092e-02
     4902000000    5.191965029e-02    1.194827184e-01
     4905000000    6.841868162e-03    1.232075989e-01
     4908000000   -3.768116981e-02    1.094209105e-01
     4911000000   -7.094620168e-02    8.024458587e-02
     4914000000   -9.104982764e-02    4.058506712e-02
     4917000000   -9.895535558e-02   -3.226078348e-03
     4920000000   -8.661664277e-02   -4.732531682e-02
     4923000000   -6.020652875e-02   -8.276151121e-02
     4926000000   -2.059870213e-02   -1.066559255e-01
     4929000000    2.625190280e-02   -1.175054535e-01
     4932000000    6.920556724e-02   -1.001428217e-01
     4935000000    1.134493351e-01   -7.897539437e-02
     4938000000    1.381484717e-01   -3.716670722e-02
     4941000000    1.493043453e-01    9.084614925e-03
     4944000000    1.479010433e-01    5.894142017e-02
     4947000000    1.203219369e-01    9.566526860e-02
     4950000000    8.555793762e-02    1.302267760e-01
     4953000000    4.201416671e-02    1.461173743e-01
     4956000000   -4.188409075e-03    1.443529427e-01
     4959000000   -4.553229734e-02    1.262822002e-01
     4962000000   -7.947913557e-02    9.373313189e-02
     4965000000   -9.893378615e-02    5.136955157e-02
     4968000000   -9.876909852e-02    7.066804916e-03
     4971000000   -8.454026282e-02   -3.847593442e-02
     4974000000   -5.280541256e-02   -7.065325975e-02
     4977000000   -1.325976104e-02   -9.440504014e-02
     4980000000    3.196928650e-02   -9.778431058e-02
     4983000000    7.748603076e-02   -8.793523908e-02
     4986000000    1.108471677e-01   -6.121496484e-02
     4989000000    1.359364539e-01   -2.284682356e-02
     4992000000    1.413530260e-01    2.101057954e-02
     4995000000    1.287249774e-01    5.928359181e-02
     4998000000    1.055107340e-01    9.589890391e-02
     5001000000    7.016125321e-02    1.202821359e-01
     5004000000    2.783622779e-02    1.271837801e-01
     5007000000   -1.181472372e-02    1.163937300e-01
     5010000000   -5.092255399e-02    9.377277642e-02
     5013000000   -7.152596116e-02    5.609407648e-02
     5016000000   -8.154901117e-02    1.195420232e-02
     5019000000   -7.174625248e-02   -3.125821427e-02
     5022000000   -4.993303865e-02   -7.313058525e-02
     5025000000   -1.235649642e-02   -9.632661194e-02
     5028000000    3.239555657e-02   -1.094711721e-01
     5031000000    7.581167668e-02   -1.036465913e-01
     5034000000    1.182898208e-01   -8.299458027e-02
     5037000000    1.433903575e-01   -4.769105092e-02
     5040000000    1.589947343e-01   -4.998914432e-03
     5043000000    1.522138566e-01    4.116981849e-02
     5046000000    1.328224093e-01    8.396177739e-02
     5049000000    9.766653925e-02    1.125902608e-01
     5052000000    5.305723101e-02    1.291365623e-01
     5055000000    5.518160295e-03    1.272905916e-01
     5058000000   -3.643721715e-02    1.084709018e-01
     5061000000   -7.395257056e-02    7.427637279e-02
     5064000000   -9.246568382e-02    3.028708510e-02
     5067000000   -1.006097198e-01   -2.258028649e-02
     5070000000   -8.327910304e-02   -6.722698361e-02
     5073000000   -5.239817873e-02   -1.071079895e-01
     5076000000   -7.988364436e-03   -1.360721588e-01
     5079000000    3.868598863e-02   -1.431418955e-01
     5082000000    8.721032739e-02   -1.348765790e-01
     5085000000    1.282649338e-01   -1.086033508e-01
     5088000000    1.576345116e-01   -7.192729414e-02
     5091000000    1.694374681e-01   -2.608098276e-02
     5094000000    1.639845371e-01    1.951380260e-02
     5097000000    1.430972964e-01    5.975532159e-02
     5100000000    1.053481326e-01    9.272085875e-02
     5103000000    6.394959241e-02    1.030366272e-01
     5106000000    1.967979036e-02    1.012354717e-01
     5109000000   -2.486507222e-02    8.133829385e-02
     5112000000   -5.399924517e-02    4.750824720e-02
     5115000000   -6.415877491e-02    8.393658325e-03
     5118000000   -6.932128966e-02   -4.397984594e-02
     5121000000   -4.878341034e-02   -7.670481503e-02
     5124000000   -1.713788323e-02   -1.137627438e-01
     5127000000    2.167724259e-02   -1.263841391e-01
     5130000000    6.838937104e-02   -1.298868507e-01
     5133000000    1.080539599e-01   -1.119329557e-01
     5136000000    1.350594163e-01   -8.252117783e-02
     5139000000    1.541582197e-01   -3.974989802e-02
     5142000000    1.513063014e-01    6.870613288e-05
     5145000000    1.364195198e-01    4.355558753e-02
     5148000000    1.038513780e-01    7.704161853e-02
     5151000000    5.966700986e-02    9.589234740e-02
     5154000000    1.316276100e-02    9.673560411e-02
     5157000000   -3.517381102e-02    8.063721657e-02
     5160000000   -6.850025058e-02    5.130283535e-02
     5163000000   -9.507178515e-02    8.515322581e-03
     5166000000   -1.033983529e-01   -3.954241797e-02
     5169000000   -9.340468794e-02   -9.143380821e-02
     5172000000   -6.658512354e-02   -1.283114254e-01
     5175000000   -2.774356492e-02   -1.574541032e-01
     5178000000    1.997766085e-02   -1.686782539e-01
     5181000000    6.796343625e-02   -1.611284316e-01
     5184000000    1.081610322e-01   -1.373977065e-01
     5187000000    1.355578303e-01   -1.022101715e-01
     5190000000    1.527535319e-01   -5.243341625e-02
     5193000000    1.474326402e-01   -8.142733946e-03
     5196000000    1.279867589e-01    3.451418877e-02
     5199000000    8.961556107e-02    7.039024681e-02
     5202000000    4.682194814e-02    8.580662310e-02
     5205000000    7.989134174e-04    8.516082913e-02
     5208000000   -4.937821254e-02    6.898724288e-02
     5211000000   -8.357796818e-02    3.568326682e-02
     5214000000   -1.024224386e-01   -2.936534118e-03
     5217000000   -1.079664901e-01   -5.106855556e-02
     5220000000   -9.393024445e-02   -9.491492808e-02
     5223000000   -6.494633853e-02   -1.323674619e-01
     5226000000   -2.553961053e-02   -1.534785330e-01
     5229000000    2.149343118e-02   -1.579112709e-01
     5232000000    6.522520632e-02   -1.467598826e-01
     5235000000    1.001386493e-01   -1.193471178e-01
     5238000000    1.237355992e-01   -8.001584560e-02
     5241000000    1.316943616e-01   -3.285027668e-02
     5244000000    1.208578572e-01    1.286883373e-02
     5247000000    9.459539503e-02    5.074439570e-02
     5250000000    5.865423381e-02    7.513330877e-02
     5253000000    1.306671742e-02    8.704725653e-02
     5256000000   -3.426119313e-02    8.139122277e-02
     5259000000   -8.039965481e-02    5.627095327e-02
     5262000000   -1.072648019e-01    2.369865775e-02
     5265000000   -1.229339987e-01   -2.627140284e-02
     5268000000   -1.210650355e-01   -6.628331542e-02
     5271000000   -9.943062812e-02   -1.132476404e-01
     5274000000   -7.061621547e-02   -1.412302405e-01
     5277000000   -2.781301364e-02   -1.582030803e-01
     5280000000    1.522921864e-02   -1.608328074e-01
     5283000000    6.264191121e-02   -1.419541836e-01
     5286000000    9.243831784e-02   -1.139253825e-01
     5289000000    1.117476597e-01   -7.591784000e-02
     5292000000    1.151275188e-01   -2.858125046e-02
     5295000000    1.024384201e-01    1.389173139e-02
     5298000000    7.398194075e-02    4.995052516e-02
     5301000000    3.547990695e-02    7.174037397e-02
     5304000000   -7.877077907e-03    8.000583947e-02
     5307000000   -5.310107768e-02    7.063971460e-02
     5310000000   -9.012811631e-02    4.737399146e-02
     5313000000   -1.167009994e-01    1.131008845e-02
     5316000000   -1.261240840e-01   -2.847330086e-02
     5319000000   -1.196287051e-01   -7.159861177e-02
     5322000000   -1.017920896e-01   -1.058589146e-01
     5325000000   -7.011334598e-02   -1.309606582e-01
     5328000000   -3.186625987e-02   -1.434601098e-01
     5331000000    1.114745345e-02   -1.385898739e-01
     5334000000    4.395233095e-02   -1.194567084e-01
     5337000000    6.945952773e-02   -9.274953604e-02
     5340000000    8.135651797e-02   -4.878994823e-02
     5343000000    7.907637954e-02   -1.279190090e-02
     5346000000    5.969549716e-02    2.418905497e-02
     5349000000    3.239360079e-02    5.034025386e-02
     5352000000   -8.823015727e-03    6.472986937e-02
     5355000000   -4.618185014e-02    6.360701472e-02
     5358000000   -8.058854192e-02    5.121498927e-02
     5361000000   -1.087133661e-01    2.220443636e-02
     5364000000   -1.218681410e-01   -9.739018045e-03
     5367000000   -1.224756390e-01   -5.642112345e-02
     5370000000   -1.054552197e-01   -8.554559201e-02
     5373000000   -8.952996135e-02   -1.100417003e-01
     5376000000   -4.476874322e-02   -1.275925636e-01
     5379000000   -9.836956160e-04   -1.212284341e-01
     5382000000    2.642864734e-02   -1.114507765e-01
     5385000000    5.419751257e-02   -8.266351372e-02
     5388000000    7.001425326e-02   -4.933048412e-02
     5391000000    7.223787159e-02   -1.278876420e-02
     5394000000    6.054189801e-02    2.709918097e-02
     5397000000    2.509745583e-02    6.424863636e-02
     5400000000   -5.487823393e-03    7.929286361e-02
     5403000000   -3.984199837e-02    8.524743468e-02
     5406000000   -8.150058985e-02    7.716730982e-02
     5409000000   -1.115564704e-01    5.710266158e-02
     5412000000   -1.347852349e-01    2.035393566e-02
     5415000000   -1.411243379e-01   -2.005867660e-02
     5418000000   -1.392882764e-01   -5.426229537e-02
     5421000000   -1.127065197e-01   -9.075706452e-02
     5424000000   -9.246376157e-02   -1.142166406e-01
     5427000000   -4.671112821e-02   -1.246934757e-01
     5430000000   -4.109102301e-03   -1.170696169e-01
     5433000000    3.094893321e-02   -9.571048617e-02
     5436000000    5.582647026e-02   -7.172743231e-02
     5439000000    6.725599617e-02   -3.185603768e-02
     5442000000    6.026170403e-02    1.593181863e-02
     5445000000    5.288985372e-02    4.653726518e-02
     5448000000    2.128470317e-02    7.840631902e-02
     5451000000   -2.027514949e-02    9.272235632e-02
     5454000000   -5.279600993e-02    9.920620173e-02
     5457000000   -9.409214556e-02    8.217137307e-02
     5460000000   -1.227406338e-01    5.594457313e-02
     5463000000   -1.417316794e-01    2.053070627e-02
     5466000000   -1.485906690e-01   -1.364543941e-02
     5469000000   -1.319194138e-01   -5.732057989e-02
     5472000000   -9.895658493e-02   -8.431261033e-02
     5475000000   -7.137806714e-02   -1.037755683e-01
     5478000000   -3.336689249e-02   -1.112535670e-01
     5481000000    9.198299609e-03   -9.739767760e-02
     5484000000    4.356726259e-02   -8.054815978e-02
     5487000000    6.428439915e-02   -3.744963184e-02
     5490000000    8.063730597e-02   -5.862093065e-03
     5493000000    7.664461434e-02    3.863871843e-02
     5496000000    5.187363178e-02    7.639093697e-02
     5499000000    2.414728142e-02    1.064464003e-01
     5502000000   -1.757500879e-02    1.163664237e-01
     5505000000   -5.562815443e-02    1.150642484e-01
     5508000000   -9.444364905e-02    1.127882302e-01
     5511000000   -1.209393367e-01    7.509288937e-02
     5514000000   -1.381516457e-01    4.314414784e-02
     5517000000   -1.430334747e-01    3.311044537e-03
     5520000000   -1.218036488e-01   -3.453053907e-02
     5523000000   -1.094036251e-01   -6.480667740e-02
     5526000000   -6.613419205e-02   -7.703772187e-02
     5529000000   -3.335746750e-02   -8.375927806e-02
     5532000000    2.674533753e-03   -6.696844101e-02
     5535000000    3.400283307e-02   -5.424607918e-02
     5538000000    5.235092342e-02   -1.916128956e-02
     5541000000    5.917281657e-02    1.837784238e-02
     5544000000    4.228959233e-02    5.357887968e-02
     5547000000    2.706643008e-02    8.126281202e-02
     5550000000   -1.987638883e-03    1.022872999e-01
     5553000000   -3.660094738e-02    1.080855876e-01
     5556000000   -6.987851113e-02    9.923974425e-02
     5559000000   -1.025120467e-01    8.711388707e-02
     5562000000   -1.214192659e-01    5.276552215e-02
     5565000000   -1.286913007e-01    1.687492058e-02
     5568000000   -1.193842366e-01   -2.134231664e-02
     5571000000   -1.028400436e-01   -5.218053237e-02
     5574000000   -7.460135221e-02   -7.878464460e-02
     5577000000   -3.085362166e-02   -8.147709817e-02
     5580000000    7.049904671e-03   -7.555229962e-02
     5583000000    4.148070514e-02   -6.012375653e-02
     5586000000    7.225134969e-02   -3.988489509e-02
     5589000000    8.512356877e-02    8.336073952e-04
     5592000000    8.092372119e-02    4.118703306e-02
     5595000000    6.501945108e-02    7.316979021e-02
     5598000000    4.701284319e-02    1.051094681e-01
     5601000000    9.876055643e-03    1.204165295e-01
     5604000000   -2.665593475e-02    1.214145795e-01
     5607000000   -6.175775453e-02    1.144156009e-01
     5610000000   -9.087560326e-02    9.221991152e-02
     5613000000   -1.090159789e-01    5.709464476e-02
     5616000000   -1.183535084e-01    2.051303908e-02
     5619000000   -1.008644998e-01   -1.444638893e-02
     5622000000   -8.272795379e-02   -4.635560513e-02
     5625000000   -5.408440158e-02   -7.251955569e-02
     5628000000   -1.547073014e-02   -6.670603901e-02
     5631000000    2.184819430e-02   -7.482937723e-02
     5634000000    5.164993554e-02   -4.916472733e-02
     5637000000    7.341232151e-02   -1.905444823e-02
     5640000000    8.978049457e-02    1.333157904e-02
     5643000000    8.282411844e-02    4.754341766e-02
     5646000000    6.680975109e-02    8.176781237e-02
     5649000000    4.138556123e-02    1.082857102e-01
     5652000000    7.415859494e-03    1.204568818e-01
     5655000000   -2.740214393e-02    1.059441417e-01
     5658000000   -6.652892381e-02    1.040634513e-01
     5661000000   -7.836737484e-02    6.815557182e-02
     5664000000   -1.058597863e-01    3.827587888e-02
     5667000000   -9.979444742e-02    2.206285950e-03
     5670000000   -9.014125168e-02   -3.617898375e-02
     5673000000   -6.207954511e-02   -6.235897541e-02
     5676000000   -2.762011439e-02   -8.744840324e-02
     5679000000    7.849780843e-03   -7.302513719e-02
     5682000000    4.806281999e-02   -7.440592349e-02
     5685000000    7.262483239e-02   -4.892856628e-02
     5688000000    1.046677455e-01   -2.171269618e-02
     5691000000    9.176503867e-02    1.493881550e-02
     5694000000    9.650123864e-02    5.214806274e-02
     5697000000    7.849453390e-02    8.933424950e-02
     5700000000    4.588670656e-02    9.767700732e-02
     5703000000    1.164765283e-02    1.183333769e-01
     5706000000   -2.154907212e-02    1.086807027e-01
     5709000000   -4.566053301e-02    8.845303208e-02
     5712000000   -8.293650299e-02    6.568387896e-02
     5715000000   -7.924988866e-02    3.085310385e-02
     5718000000   -8.450784534e-02   -4.911935423e-03
     5721000000   -6.426863372e-02   -3.487829491e-02
     5724000000   -4.073762894e-02   -6.094951928e-02
     5727000000   -6.253446452e-03   -6.562393904e-02
     5730000000    2.774417028e-02   -6.621472538e-02
     5733000000    5.668897182e-02   -5.216072127e-02
     5736000000    7.348544896e-02   -2.499466389e-02
     5739000000    9.217613935e-02    1.910969615e-03
     5742000000    8.442702889e-02    3.420649841e-02
     5745000000    7.622269541e-02    6.893333048e-02
     5748000000    5.386121571e-02    9.903008491e-02
     5751000000    2.103289776e-02    9.610809386e-02
     5754000000   -1.896336861e-02    1.096033826e-01
     5757000000   -3.637341782e-02    7.740410417e-02
     5760000000   -7.376649976e-02    6.115259975e-02
     5763000000   -8.542539179e-02    2.890804224e-02
     5766000000   -9.379733354e-02   -1.157742739e-02
     5769000000   -7.145192474e-02   -3.865160421e-02
     5772000000   -5.418777466e-02   -8.208931983e-02
     5775000000   -1.535501424e-02   -9.250063449e-02
     5778000000    2.251120843e-02   -9.553994983e-02
     5781000000    5.885547772e-02   -8.237288147e-02
     5784000000    8.222030848e-02   -5.593132228e-02
     5787000000    1.104388162e-01   -2.351417951e-02
     5790000000    1.168121025e-01    1.582927071e-02
     5793000000    1.051487923e-01    5.293608084e-02
     5796000000    8.647309244e-02    9.019162506e-02
     5799000000    5.381486192e-02    1.170015186e-01
     5802000000    1.210345794e-02    1.216319054e-01
     5805000000   -2.799271606e-02    1.166183725e-01
     5808000000   -6.519274414e-02    9.713450819e-02
     5811000000   -9.345540404e-02    6.592359394e-02
     5814000000   -1.140537709e-01    2.580840327e-02
     5817000000   -1.072479188e-01   -1.499123406e-02
     5820000000   -9.240925312e-02   -5.942882970e-02
     5823000000   -6.216304749e-02   -8.863984048e-02
     5826000000   -2.578890510e-02   -1.006003097e-01
     5829000000    2.429181710e-02   -1.133144498e-01
     5832000000    6.163139269e-02   -9.543393552e-02
     5835000000    9.375624359e-02   -6.913398951e-02
     5838000000    1.118767560e-01   -3.465603665e-02
     5841000000    1.209854931e-01    9.389093146e-03
     5844000000    1.140232682e-01    5.574809760e-02
     5847000000    8.855471760e-02    8.525008708e-02
     5850000000    5.810580030e-02    9.821651131e-02
     5853000000    1.297360472e-02    1.150460541e-01
     5856000000   -3.665980324e-02    1.145011410e-01
     5859000000   -6.071440876e-02    8.742523938e-02
     5862000000   -8.953242004e-02    5.522491783e-02
     5865000000   -1.023924127e-01    1.526738517e-02
     5868000000   -9.009193629e-02   -1.813836955e-02
     5871000000   -7.711183280e-02   -6.866917014e-02
     5874000000   -4.744206741e-02   -8.490503579e-02
     5877000000   -1.576859038e-03   -1.078316495e-01
     5880000000    3.560446203e-02   -1.028575376e-01
     5883000000    6.348618865e-02   -8.498836309e-02
     5886000000    1.048760936e-01   -5.454168841e-02
     5889000000    1.133075431e-01   -1.910195127e-02
     5892000000    1.229701117e-01    3.195806965e-02
     5895000000    1.047328115e-01    6.061948463e-02
     5898000000    7.388421148e-02    9.974645823e-02
     5901000000    4.248453677e-02    1.096919179e-01
     5904000000   -4.259832203e-03    1.162964329e-01
     5907000000   -5.291425064e-02    1.049435586e-01
     5910000000   -7.180743665e-02    7.952025533e-02
     5913000000   -9.793882817e-02    3.881665692e-02
     5916000000   -1.083127409e-01   -1.157409884e-02
     5919000000   -9.084612876e-02   -3.802491724e-02
     5922000000   -6.728371233e-02   -7.984027267e-02
     5925000000   -3.075342998e-02   -1.005655602e-01
     5928000000    1.303525548e-02   -1.119760200e-01
     5931000000    5.821837857e-02   -1.026396304e-01
     5934000000    8.970526606e-02   -7.878062874e-02
     5937000000    1.161223724e-01   -4.390050471e-02
     5940000000    1.276284754e-01   -1.039872994e-03
     5943000000    1.218293011e-01    4.726387933e-02
     5946000000    1.003004462e-01    9.006702900e-02
     5949000000    6.934452802e-02    1.097172350e-01
     5952000000    2.906525321e-02    1.223505512e-01
     5955000000   -2.867176011e-02    1.258256733e-01
     5958000000   -5.608039722e-02    1.082932279e-01
     5961000000   -9.788189828e-02    7.170176506e-02
     5964000000   -1.221022010e-01    1.795267686e-02
     5967000000   -1.147753224e-01   -1.267481316e-02
     5970000000   -9.895912558e-02   -7.117204368e-02
     5973000000   -6.821587682e-02   -9.960480034e-02
     5976000000   -3.841888905e-02   -1.102518663e-01
     5979000000    2.283867635e-02   -1.265387833e-01
     5982000000    5.844852328e-02   -1.147778258e-01
     5985000000    9.978298843e-02   -8.619733155e-02
     5988000000    1.292660087e-01   -4.489628971e-02
     5991000000    1.365230531e-01   -1.980033237e-03
     5994000000    1.278417856e-01    4.343191907e-02
     5997000000    1.086685881e-01    7.470301539e-02
     6000000000    6.947953254e-02    1.046543121e-01
