! NanoVNA-App
! Date: 2026-05-22 19:21:01
! Start: 4.8GHz Stop: 6GHz Points: 401
! S-Parameter data: F S11
# Hz S RI R 50
!     Frequency           S11_Real           S11_Imag
     4800000000    5.738222506e-03    1.022931263e-01
     4803000000   -2.720120549e-02    1.072869822e-01
     4806000000   -5.930996686e-02    9.840255231e-02
     4809000000   -8.603040129e-02    7.651828974e-02
     4812000000   -1.030650139e-01    4.240605980e-02
     4815000000   -1.040047258e-01    2.752890578e-03
     4818000000   -8.954399079e-02   -3.658400849e-02
     4821000000   -6.046573445e-02   -6.768078357e-02
     4824000000   -2.034507319e-02   -8.716836572e-02
     4827000000    2.724943869e-02   -9.264436364e-02
     4830000000    7.487805933e-02   -7.707930356e-02
     4833000000    1.140738353e-01   -4.584147409e-02
     4836000000    1.402009875e-01    1.309137733e-04
     4839000000    1.513316333e-01    5.296986550e-02
     4842000000    1.407083720e-01    1.082048491e-01
     4845000000    1.111501232e-01    1.571884900e-01
     4848000000    6.288314611e-02    1.941628605e-01
     4851000000    2.031590091e-03    2.092511207e-01
     4854000000   -5.937285349e-02    2.064715028e-01
     4857000000   -1.185075566e-01    1.792451441e-01
     4860000000   -1.657065898e-01    1.331442147e-01
     4863000000   -1.922105253e-01    6.808300316e-02
     4866000000   -1.985475421e-01    1.089892234e-03
     4869000000   -1.757745147e-01   -6.981694698e-02
     4872000000   -1.373729557e-01   -1.285693794e-01
     4875000000   -7.528946549e-02   -1.695607007e-01
     4878000000   -3.376681823e-03   -1.909422874e-01
     4881000000    6.908128411e-02   -1.837610602e-01
     4884000000    1.349381059e-01   -1.479674727e-01
     4887000000    1.938990802e-01   -1.013069227e-01
     4890000000    2.219101787e-01   -3.151924908e-02
     4893000000    2.287694812e-01    4.016845673e-02
     4896000000    2.100079209e-01    1.110403314e-01
     4899000000    1.654472500e-01    1.668811291e-01
     4902000000    1.081254780e-01    2.057365179e-01
     4905000000    3.955695033e-02    2.198146433e-01
     4908000000   -2.701074071e-02    2.101930529e-01
     4911000000   -8.441002667e-02    1.774498522e-01
     4914000000   -1.246697754e-01    1.251839846e-01
     4917000000   -1.447984427e-01    6.279580295e-02
     4920000000   -1.410167068e-01   -2.062158659e-03
     4923000000   -1.144422293e-01   -5.999913812e-02
     4926000000   -6.601527333e-02   -9.976806492e-02
     4929000000   -9.516081773e-03   -1.231857836e-01
     4932000000    4.858891666e-02   -1.195230335e-01
     4935000000    1.056644469e-01   -9.872981906e-02
     4938000000    1.448126286e-01   -5.679015815e-02
     4941000000    1.704627424e-01   -3.471549135e-03
     4944000000    1.682457477e-01    5.494613945e-02
     4947000000    1.438752264e-01    1.038789600e-01
     4950000000    1.051182672e-01    1.508865356e-01
     4953000000    4.905534908e-02    1.678704619e-01
     4956000000   -8.859453723e-03    1.681722999e-01
     4959000000   -6.397621334e-02    1.447893977e-01
     4962000000   -1.050516367e-01    1.012739316e-01
     4965000000   -1.345979869e-01    4.449156672e-02
     4968000000   -1.366025358e-01   -1.731862687e-02
     4971000000   -1.173229292e-01   -7.727852464e-02
     4974000000   -7.639325410e-02   -1.242709905e-01
     4977000000   -2.140625566e-02   -1.567678452e-01
     4980000000    4.152041674e-02   -1.682353914e-01
     4983000000    1.014596075e-01   -1.482017785e-01
     4986000000    1.560597122e-01   -1.159288287e-01
     4989000000    1.894324124e-01   -6.158155203e-02
     4992000000    2.014742047e-01    1.337569207e-03
     4995000000    1.893213391e-01    6.027545780e-02
     4998000000    1.584486514e-01    1.165662333e-01
     5001000000    1.064696014e-01    1.537414640e-01
     5004000000    4.433055595e-02    1.690340787e-01
     5007000000   -1.482803188e-02    1.602370888e-01
     5010000000   -7.174568623e-02    1.305342764e-01
     5013000000   -1.157530770e-01    8.081662655e-02
     5016000000   -1.311779320e-01    2.062186040e-02
     5019000000   -1.266101003e-01   -4.065729305e-02
     5022000000   -1.020728722e-01   -1.012209952e-01
     5025000000   -5.306708068e-02   -1.410594285e-01
     5028000000    6.191289052e-03   -1.646151543e-01
     5031000000    6.768574566e-02   -1.587616801e-01
     5034000000    1.279286146e-01   -1.335463375e-01
     5037000000    1.712271571e-01   -8.633581549e-02
     5040000000    1.946616322e-01   -2.500255592e-02
     5043000000    1.935149133e-01    4.127560556e-02
     5046000000    1.673682332e-01    1.028201655e-01
     5049000000    1.190725267e-01    1.520202458e-01
     5052000000    5.456979200e-02    1.801161766e-01
     5055000000   -1.901814155e-02    1.877440959e-01
     5058000000   -8.774232119e-02    1.633624882e-01
     5061000000   -1.461670995e-01    1.155782491e-01
     5064000000   -1.820742488e-01    4.999382794e-02
     5067000000   -1.952190995e-01   -2.415788732e-02
     5070000000   -1.788979471e-01   -9.949698299e-02
     5073000000   -1.385301948e-01   -1.661043316e-01
     5076000000   -7.718443125e-02   -2.120214403e-01
     5079000000   -1.662363997e-03   -2.334876209e-01
     5082000000    7.378108799e-02   -2.263856381e-01
     5085000000    1.449582875e-01   -1.934053749e-01
     5088000000    1.978412420e-01   -1.351480335e-01
     5091000000    2.267069519e-01   -6.472685188e-02
     5094000000    2.288791537e-01    1.518427953e-02
     5097000000    2.013565898e-01    8.915494382e-02
     5100000000    1.508686990e-01    1.462289095e-01
     5103000000    8.139324933e-02    1.834434569e-01
     5106000000    5.259060301e-03    1.929906756e-01
     5109000000   -6.975609064e-02    1.738823056e-01
     5112000000   -1.381466389e-01    1.294998527e-01
     5115000000   -1.762425601e-01    6.678942591e-02
     5118000000   -1.949162781e-01   -6.891829427e-03
     5121000000   -1.843619794e-01   -8.075842261e-02
     5124000000   -1.481114328e-01   -1.491476893e-01
     5127000000   -8.944623917e-02   -1.961787194e-01
     5130000000   -1.788115688e-02   -2.195360512e-01
     5133000000    5.024072528e-02   -2.151746601e-01
     5136000000    1.217493340e-01   -1.830345094e-01
     5139000000    1.720726788e-01   -1.302766502e-01
     5142000000    1.997864395e-01   -6.406510621e-02
     5145000000    2.007332891e-01    1.293643191e-02
     5148000000    1.756421924e-01    7.877634466e-02
     5151000000    1.263183206e-01    1.342296451e-01
     5154000000    6.246731058e-02    1.671673059e-01
     5157000000   -1.030221581e-02    1.757508963e-01
     5160000000   -7.977174222e-02    1.580374390e-01
     5163000000   -1.392672509e-01    1.167743579e-01
     5166000000   -1.779958755e-01    5.834661424e-02
     5169000000   -1.925938576e-01   -7.138600573e-03
     5172000000   -1.831060350e-01   -7.729965448e-02
     5175000000   -1.490499824e-01   -1.352807581e-01
     5178000000   -9.550934285e-02   -1.767193824e-01
     5181000000   -3.266102448e-02   -1.935536861e-01
     5184000000    2.802054211e-02   -1.888852865e-01
     5187000000    8.453699201e-02   -1.600709856e-01
     5190000000    1.264967918e-01   -1.065349877e-01
     5193000000    1.443384290e-01   -5.274230242e-02
     5196000000    1.424581558e-01    4.463824444e-03
     5199000000    1.131865308e-01    6.259230524e-02
     5202000000    6.735982746e-02    1.036209762e-01
     5205000000    1.163897477e-02    1.248366907e-01
     5208000000   -4.970255867e-02    1.221534759e-01
     5211000000   -1.032443792e-01    9.823772311e-02
     5214000000   -1.447783858e-01    5.464567989e-02
     5217000000   -1.667413265e-01    1.000862918e-03
     5220000000   -1.666231751e-01   -5.927946419e-02
     5223000000   -1.433325410e-01   -1.148765311e-01
     5226000000   -1.030741185e-01   -1.566614062e-01
     5229000000   -4.499877989e-02   -1.804011762e-01
     5232000000    1.563226618e-02   -1.819956005e-01
     5235000000    7.489132881e-02   -1.600003690e-01
     5238000000    1.189144626e-01   -1.199147999e-01
     5241000000    1.478834152e-01   -6.060130149e-02
     5244000000    1.532966346e-01   -6.124197535e-05
     5247000000    1.352769881e-01    6.452110410e-02
     5250000000    9.734507650e-02    1.134614944e-01
     5253000000    4.229893908e-02    1.469974816e-01
     5256000000   -1.437742636e-02    1.595472842e-01
     5259000000   -7.690330595e-02    1.503522843e-01
     5262000000   -1.324710846e-01    1.142365038e-01
     5265000000   -1.690291315e-01    7.044286281e-02
     5268000000   -1.866189092e-01    1.460902952e-02
     5271000000   -1.782779545e-01   -4.807809740e-02
     5274000000   -1.528282613e-01   -1.006281450e-01
     5277000000   -1.039227992e-01   -1.378003508e-01
     5280000000   -5.308718607e-02   -1.563640088e-01
     5283000000    1.490069204e-03   -1.583304852e-01
     5286000000    5.707603320e-02   -1.281551272e-01
     5289000000    9.578847140e-02   -8.794233948e-02
     5292000000    1.180230901e-01   -3.332871199e-02
     5295000000    1.153661162e-01    2.577689849e-02
     5298000000    9.618753940e-02    7.667600363e-02
     5301000000    5.960417911e-02    1.173631847e-01
     5304000000    3.936532885e-03    1.399312168e-01
     5307000000   -5.152348801e-02    1.434582770e-01
     5310000000   -1.035957336e-01    1.250032485e-01
     5313000000   -1.457650959e-01    8.591081202e-02
     5316000000   -1.685333550e-01    3.349712491e-02
     5319000000   -1.693814099e-01   -2.254546434e-02
     5322000000   -1.544131786e-01   -7.364442199e-02
     5325000000   -1.172742099e-01   -1.177150756e-01
     5328000000   -6.458999962e-02   -1.435697377e-01
     5331000000   -6.142954342e-03   -1.490527391e-01
     5334000000    5.346993729e-02   -1.315014511e-01
     5337000000    1.013420969e-01   -9.620470554e-02
     5340000000    1.340188682e-01   -4.566807300e-02
     5343000000    1.454193741e-01    1.966868900e-02
     5346000000    1.344576627e-01    8.150760829e-02
     5349000000    1.021945998e-01    1.353513002e-01
     5352000000    5.252973735e-02    1.736856848e-01
     5355000000   -5.045717116e-03    1.935667992e-01
     5358000000   -6.998095661e-02    1.922825426e-01
     5361000000   -1.300982237e-01    1.619161963e-01
     5364000000   -1.780974120e-01    1.256153286e-01
     5367000000   -1.987623423e-01    5.474791303e-02
     5370000000   -2.099189758e-01   -1.246021362e-03
     5373000000   -1.776720434e-01   -6.211332232e-02
     5376000000   -1.463696212e-01   -1.119231060e-01
     5379000000   -9.002973139e-02   -1.489600837e-01
     5382000000   -3.733230755e-02   -1.666956693e-01
     5385000000    2.708493918e-02   -1.395565122e-01
     5388000000    8.287932724e-02   -1.255016178e-01
     5391000000    1.221085861e-01   -7.054545730e-02
     5394000000    1.421975940e-01   -1.790898293e-02
     5397000000    1.340131462e-01    4.396595806e-02
     5400000000    1.170721576e-01    9.430624545e-02
     5403000000    8.175770193e-02    1.337417960e-01
     5406000000    3.285096958e-02    1.565816402e-01
     5409000000   -2.025233954e-02    1.596163660e-01
     5412000000   -6.695593894e-02    1.404716074e-01
     5415000000   -1.104973257e-01    1.132846847e-01
     5418000000   -1.338126510e-01    6.697198749e-02
     5421000000   -1.351756901e-01    1.706181094e-02
     5424000000   -1.348634958e-01   -2.963411063e-02
     5427000000   -9.318458289e-02   -6.361621618e-02
     5430000000   -5.645751581e-02   -9.158736467e-02
     5433000000   -1.221618988e-02   -1.070260406e-01
     5436000000    3.325319290e-02   -1.019626707e-01
     5439000000    6.953126192e-02   -7.501304150e-02
     5442000000    8.924562484e-02   -3.452626243e-02
     5445000000    1.127043366e-01   -1.887256745e-03
     5448000000    9.923013300e-02    3.725240752e-02
     5451000000    8.585199714e-02    7.528033108e-02
     5454000000    5.917898566e-02    1.010654047e-01
     5457000000    2.283433266e-02    1.087870151e-01
     5460000000   -1.120263897e-02    1.100733876e-01
     5463000000   -4.208122939e-02    9.304667264e-02
     5466000000   -6.789057702e-02    6.780287623e-02
     5469000000   -7.810703665e-02    3.602732345e-02
     5472000000   -6.821881980e-02    1.424477436e-03
     5475000000   -6.072251871e-02   -2.815790661e-02
     5478000000   -3.542571142e-02   -5.029181391e-02
     5481000000   -4.310632125e-03   -5.526156351e-02
     5484000000    2.506584488e-02   -4.632855579e-02
     5487000000    5.127768219e-02   -4.340939596e-02
     5490000000    7.066240162e-02   -1.846100576e-02
     5493000000    7.750554383e-02    1.197379827e-02
     5496000000    6.523159891e-02    3.959687799e-02
     5499000000    3.960603476e-02    5.931142345e-02
     5502000000    2.730706334e-02    7.769129425e-02
     5505000000   -7.463554852e-03    7.553342730e-02
     5508000000   -3.261291981e-02    5.992154405e-02
     5511000000   -5.480135232e-02    4.601854086e-02
     5514000000   -7.037765533e-02    2.087429166e-02
     5517000000   -6.267148256e-02   -1.756265759e-02
     5520000000   -5.152184144e-02   -4.388640448e-02
     5523000000   -3.094842471e-02   -6.768572330e-02
     5526000000    3.623928176e-03   -7.825460285e-02
     5529000000    3.527937084e-02   -7.869426906e-02
     5532000000    6.951425225e-02   -5.416268110e-02
     5535000000    9.235469997e-02   -3.450259194e-02
     5538000000    1.023328900e-01    3.088036319e-03
     5541000000    1.096899137e-01    3.674318269e-02
     5544000000    7.696083188e-02    7.537050545e-02
     5547000000    6.001676992e-02    1.071138754e-01
     5550000000    6.881691050e-03    1.136052385e-01
     5553000000   -2.919982187e-02    1.267702281e-01
     5556000000   -7.557749748e-02    1.076368690e-01
     5559000000   -1.086428389e-01    7.128296793e-02
     5562000000   -1.312994957e-01    2.785336971e-02
     5565000000   -1.395341456e-01   -1.870736107e-02
     5568000000   -1.235744581e-01   -6.953872740e-02
     5571000000   -9.406131506e-02   -1.098711565e-01
     5574000000   -5.427520722e-02   -1.402631849e-01
     5577000000   -1.385681797e-03   -1.519282758e-01
     5580000000    5.188878253e-02   -1.464818120e-01
     5583000000    9.533055872e-02   -1.118779555e-01
     5586000000    1.342637092e-01   -7.647801191e-02
     5589000000    1.506044418e-01   -2.172938921e-02
     5592000000    1.504365206e-01    3.273276985e-02
     5595000000    1.301002204e-01    8.573581278e-02
     5598000000    9.152989089e-02    1.291671693e-01
     5601000000    3.753927350e-02    1.468181014e-01
     5604000000   -1.730316132e-02    1.561496854e-01
     5607000000   -7.313010842e-02    1.438446790e-01
     5610000000   -1.148373857e-01    1.073372141e-01
     5613000000   -1.512154192e-01    6.157504022e-02
     5616000000   -1.529368311e-01    5.447771400e-03
     5619000000   -1.465131342e-01   -4.960475862e-02
     5622000000   -1.227041036e-01   -1.006747261e-01
     5625000000   -7.354927063e-02   -1.262558103e-01
     5628000000   -1.959938370e-02   -1.459452361e-01
     5631000000    3.580244258e-02   -1.423738003e-01
     5634000000    8.236037940e-02   -1.109331101e-01
     5637000000    1.257957816e-01   -6.935304403e-02
     5640000000    1.429152042e-01   -1.708317176e-02
     5643000000    1.331918836e-01    3.593302146e-02
     5646000000    1.268814504e-01    9.898393601e-02
     5649000000    8.041769266e-02    1.307065189e-01
     5652000000    3.010113537e-02    1.657283902e-01
     5655000000   -2.913564071e-02    1.653756648e-01
     5658000000   -7.839436829e-02    1.420124173e-01
     5661000000   -1.293569654e-01    1.126874387e-01
     5664000000   -1.527590454e-01    6.231213734e-02
     5667000000   -1.542090327e-01    1.144509297e-02
     5670000000   -1.573350579e-01   -5.214398727e-02
     5673000000   -1.206476912e-01   -9.450288117e-02
     5676000000   -7.445545495e-02   -1.290769726e-01
     5679000000   -2.118366025e-02   -1.412792355e-01
     5682000000    3.911631927e-02   -1.375576854e-01
     5685000000    7.814134657e-02   -1.026207507e-01
     5688000000    1.195086911e-01   -6.331145018e-02
     5691000000    1.328659803e-01   -1.179477107e-02
     5694000000    1.277821213e-01    3.936468810e-02
     5697000000    1.162196547e-01    1.039194912e-01
     5700000000    6.776005775e-02    1.174200028e-01
     5703000000    1.730170287e-02    1.511832923e-01
     5706000000   -3.439279646e-02    1.453086585e-01
     5709000000   -7.601527870e-02    1.202142984e-01
     5712000000   -1.159195602e-01    8.355096728e-02
     5715000000   -1.295681596e-01    3.559610993e-02
     5718000000   -1.364808977e-01   -1.945609786e-02
     5721000000   -1.150432304e-01   -6.921667606e-02
     5724000000   -7.418253273e-02   -1.059897318e-01
     5727000000   -2.506879158e-02   -1.240515560e-01
     5730000000    3.008428961e-02   -1.247936711e-01
     5733000000    8.306439221e-02   -1.061034799e-01
     5736000000    1.147409379e-01   -6.438077241e-02
     5739000000    1.441356391e-01   -1.699209213e-02
     5742000000    1.395735294e-01    3.668047860e-02
     5745000000    1.248560175e-01    9.112604707e-02
     5748000000    9.109057486e-02    1.399617493e-01
     5751000000    3.866118938e-02    1.515586078e-01
     5754000000   -2.797416970e-02    1.760235280e-01
     5757000000   -7.237163186e-02    1.449504197e-01
     5760000000   -1.262132972e-01    1.107872352e-01
     5763000000   -1.439807862e-01    5.906598642e-02
     5766000000   -1.639028937e-01   -5.722766742e-03
     5769000000   -1.408171356e-01   -5.907371640e-02
     5772000000   -1.048861295e-01   -1.006122604e-01
     5775000000   -5.234661698e-02   -1.548163742e-01
     5778000000    1.121162064e-02   -1.677567512e-01
     5781000000    7.119139284e-02   -1.541450471e-01
     5784000000    1.287358552e-01   -1.182654947e-01
     5787000000    1.690350324e-01   -6.619273126e-02
     5790000000    1.864760071e-01   -3.352063708e-03
     5793000000    1.789208651e-01    6.305049360e-02
     5796000000    1.490065604e-01    1.245913804e-01
     5799000000    9.790321440e-02    1.699460149e-01
     5802000000    3.559416905e-02    1.889679432e-01
     5805000000   -3.362859786e-02    1.870366782e-01
     5808000000   -1.014024168e-01    1.622525603e-01
     5811000000   -1.532822102e-01    1.127358451e-01
     5814000000   -1.877164096e-01    4.372018576e-02
     5817000000   -1.894081533e-01   -2.859411016e-02
     5820000000   -1.658208072e-01   -9.912483394e-02
     5823000000   -1.161708310e-01   -1.582769454e-01
     5826000000   -5.050108582e-02   -1.938853413e-01
     5829000000    3.227829561e-02   -2.117104083e-01
     5832000000    9.118919075e-02   -1.865484715e-01
     5835000000    1.626118422e-01   -1.468858421e-01
     5838000000    2.089007944e-01   -8.159837127e-02
     5841000000    2.268366367e-01   -6.164960563e-03
     5844000000    2.190741599e-01    7.148066163e-02
     5847000000    1.804523021e-01    1.391605884e-01
     5850000000    1.201743037e-01    1.948702931e-01
     5853000000    4.423760623e-02    2.185969353e-01
     5856000000   -4.495077953e-02    2.214414030e-01
     5859000000   -1.034786105e-01    1.875896305e-01
     5862000000   -1.737041920e-01    1.318060160e-01
     5865000000   -2.071247101e-01    5.915451422e-02
     5868000000   -2.157326043e-01   -2.337197773e-02
     5871000000   -1.927454770e-01   -9.940431267e-02
     5874000000   -1.452734470e-01   -1.699893028e-01
     5877000000   -6.768719852e-02   -2.221973240e-01
     5880000000   -6.702953018e-03   -2.272294909e-01
     5883000000    9.135175496e-02   -2.175699621e-01
     5886000000    1.660336554e-01   -1.707871705e-01
     5889000000    2.003414482e-01   -1.155940294e-01
     5892000000    2.253100723e-01   -4.015170410e-02
     5895000000    2.224093527e-01    4.421097785e-02
     5898000000    1.837871671e-01    1.304447502e-01
     5901000000    1.390724629e-01    1.597235650e-01
     5904000000    6.255489588e-02    1.961026788e-01
     5907000000   -3.133582324e-02    2.024866790e-01
     5910000000   -9.766221046e-02    1.728087515e-01
     5913000000   -1.573593467e-01    1.168798357e-01
     5916000000   -1.901988387e-01    5.479800329e-02
     5919000000   -2.006476372e-01   -3.607642278e-02
     5922000000   -1.809793711e-01   -9.984956682e-02
     5925000000   -1.311451495e-01   -1.676120460e-01
     5928000000   -6.187718734e-02   -2.088799924e-01
     5931000000    1.174722519e-02   -2.210234553e-01
     5934000000    9.010912478e-02   -2.057212889e-01
     5937000000    1.580734551e-01   -1.623995900e-01
     5940000000    1.976571530e-01   -1.068840250e-01
     5943000000    2.171026617e-01   -2.928271517e-02
     5946000000    2.093628496e-01    4.559530318e-02
     5949000000    1.759189665e-01    1.100871861e-01
     5952000000    1.129910350e-01    1.653861851e-01
     5955000000    5.693798885e-02    1.851862371e-01
     5958000000   -3.616646305e-02    1.851937473e-01
     5961000000   -1.003717259e-01    1.553817689e-01
     5964000000   -1.370553225e-01    1.173660830e-01
     5967000000   -1.768867224e-01    4.490302131e-02
     5970000000   -1.830330789e-01   -3.629861772e-02
     5973000000   -1.560425311e-01   -1.014875770e-01
     5976000000   -1.178709567e-01   -1.457788497e-01
     5979000000   -6.432870775e-02   -1.767148823e-01
     5982000000    6.908850279e-03   -1.882939190e-01
     5985000000    8.430483192e-02   -1.640170366e-01
     5988000000    1.315114945e-01   -1.236477718e-01
     5991000000    1.631302536e-01   -6.844179332e-02
     5994000000    1.715114862e-01    2.489402192e-03
     5997000000    1.550910920e-01    6.174999103e-02
     6000000000    1.115491763e-01    1.187371537e-01
