! NanoVNA-App
! Date: 2026-05-22 19:20:45
! Start: 2.3GHz Stop: 2.6GHz Points: 401
! S-Parameter data: F S11
# Hz S RI R 50
!     Frequency           S11_Real           S11_Imag
     2300000000    2.289517671e-01    1.042689011e-01
     2300750000    2.233407795e-01    1.049052700e-01
     2301500000    2.182287127e-01    1.034716219e-01
     2302250000    2.129114270e-01    1.022313908e-01
     2303000000    2.077095807e-01    1.005798876e-01
     2303750000    2.002341598e-01    1.002645940e-01
     2304500000    1.975058913e-01    9.319889545e-02
     2305250000    1.923189908e-01    8.998293430e-02
     2306000000    1.867764145e-01    8.695764095e-02
     2306750000    1.811207235e-01    8.247458935e-02
     2307500000    1.785223931e-01    7.533309609e-02
     2308250000    1.731018275e-01    7.033260912e-02
     2309000000    1.697044671e-01    6.390661746e-02
     2309750000    1.669741422e-01    5.696268007e-02
     2310500000    1.636407971e-01    4.950499535e-02
     2311250000    1.628338546e-01    4.122760892e-02
     2312000000    1.605088562e-01    3.321473300e-02
     2312750000    1.596272588e-01    2.501656674e-02
     2313500000    1.589610428e-01    1.673715934e-02
     2314250000    1.582139283e-01    8.158908226e-03
     2315000000    1.595695913e-01   -4.656040401e-04
     2315750000    1.606485248e-01   -8.790608495e-03
     2316500000    1.627210677e-01   -1.750632748e-02
     2317250000    1.650187075e-01   -2.583662234e-02
     2318000000    1.671490967e-01   -3.378553689e-02
     2318750000    1.706931889e-01   -4.142860323e-02
     2319500000    1.738340557e-01   -4.963269830e-02
     2320250000    1.778471768e-01   -5.609972402e-02
     2321000000    1.820465475e-01   -6.269881129e-02
     2321750000    1.870754808e-01   -6.913124025e-02
     2322500000    1.920449585e-01   -7.509679347e-02
     2323250000    1.983069032e-01   -8.065480739e-02
     2324000000    2.048050463e-01   -8.428978175e-02
     2324750000    2.091456950e-01   -8.935035765e-02
     2325500000    2.164703906e-01   -9.208069742e-02
     2326250000    2.225985676e-01   -9.437638521e-02
     2327000000    2.295903713e-01   -9.638237953e-02
     2327750000    2.356362194e-01   -9.767484665e-02
     2328500000    2.432370335e-01   -9.872320294e-02
     2329250000    2.475041598e-01   -9.825983644e-02
     2330000000    2.540420592e-01   -9.752909839e-02
     2330750000    2.602762580e-01   -9.581924975e-02
     2331500000    2.645495236e-01   -9.530709684e-02
     2332250000    2.718366683e-01   -9.018912166e-02
     2333000000    2.767737508e-01   -8.676514030e-02
     2333750000    2.807270885e-01   -8.445968479e-02
     2334500000    2.836833894e-01   -7.976306230e-02
     2335250000    2.871569693e-01   -7.565872371e-02
     2336000000    2.903945148e-01   -7.019368559e-02
     2336750000    2.924337387e-01   -6.514182687e-02
     2337500000    2.933675647e-01   -6.049736589e-02
     2338250000    2.948896885e-01   -5.403960869e-02
     2339000000    2.957924306e-01   -4.760099202e-02
     2339750000    2.958953679e-01   -4.107423127e-02
     2340500000    2.949513793e-01   -3.497891128e-02
     2341250000    2.925060689e-01   -3.051127307e-02
     2342000000    2.907774150e-01   -2.553026378e-02
     2342750000    2.882935405e-01   -1.970266737e-02
     2343500000    2.852584422e-01   -1.497739460e-02
     2344250000    2.811260819e-01   -1.027340442e-02
     2345000000    2.759277225e-01   -6.739481818e-03
     2345750000    2.711364627e-01   -3.380948910e-03
     2346500000    2.652417421e-01    1.410282915e-03
     2347250000    2.598327994e-01    5.098635331e-03
     2348000000    2.530961335e-01    4.738319200e-03
     2348750000    2.455824763e-01    7.197953761e-03
     2349500000    2.389525324e-01    4.486347549e-03
     2350250000    2.305218279e-01    8.239907213e-03
     2351000000    2.237292677e-01    5.368195474e-03
     2351750000    2.153941840e-01    2.655587858e-03
     2352500000    2.079804093e-01   -7.845911314e-04
     2353250000    1.987406611e-01   -1.267498010e-04
     2354000000    1.909409910e-01   -4.820364993e-03
     2354750000    1.836485863e-01   -1.097486354e-02
     2355500000    1.756227463e-01   -1.493122336e-02
     2356250000    1.667696536e-01   -2.024925873e-02
     2357000000    1.589572728e-01   -2.707928047e-02
     2357750000    1.527441144e-01   -3.512949869e-02
     2358500000    1.448041797e-01   -4.108121991e-02
     2359250000    1.381412148e-01   -4.903608933e-02
     2360000000    1.322713196e-01   -5.770951137e-02
     2360750000    1.263821423e-01   -6.603538245e-02
     2361500000    1.201719791e-01   -7.488598675e-02
     2362250000    1.157792732e-01   -8.410587162e-02
     2363000000    1.111206114e-01   -9.324619919e-02
     2363750000    1.073740795e-01   -1.027078629e-01
     2364500000    1.039566547e-01   -1.120224074e-01
     2365250000    1.008889526e-01   -1.215187684e-01
     2366000000    9.857907891e-02   -1.309669167e-01
     2366750000    9.707518667e-02   -1.403176934e-01
     2367500000    9.660270065e-02   -1.495865434e-01
     2368250000    9.652522206e-02   -1.584709287e-01
     2369000000    9.721577913e-02   -1.673370749e-01
     2369750000    9.750269353e-02   -1.744621992e-01
     2370500000    9.940686077e-02   -1.825245023e-01
     2371250000    1.020680889e-01   -1.904349029e-01
     2372000000    1.042209938e-01   -1.969527006e-01
     2372750000    1.071184054e-01   -2.023841739e-01
     2373500000    1.120237932e-01   -2.086843103e-01
     2374250000    1.145348102e-01   -2.133106440e-01
     2375000000    1.191682667e-01   -2.176057398e-01
     2375750000    1.243464127e-01   -2.216169685e-01
     2376500000    1.284260750e-01   -2.248125374e-01
     2377250000    1.307653636e-01   -2.260761410e-01
     2378000000    1.377109140e-01   -2.280839831e-01
     2378750000    1.399742365e-01   -2.282877266e-01
     2379500000    1.485422999e-01   -2.281071097e-01
     2380250000    1.513813585e-01   -2.269953936e-01
     2381000000    1.582228392e-01   -2.248311341e-01
     2381750000    1.585542858e-01   -2.238186002e-01
     2382500000    1.670506001e-01   -2.200914770e-01
     2383250000    1.690638214e-01   -2.164744139e-01
     2384000000    1.714138538e-01   -2.129376829e-01
     2384750000    1.744515747e-01   -2.084219009e-01
     2385500000    1.759412587e-01   -2.039447874e-01
     2386250000    1.795883626e-01   -1.981534958e-01
     2387000000    1.798803508e-01   -1.927924603e-01
     2387750000    1.818240285e-01   -1.858335584e-01
     2388500000    1.787848026e-01   -1.834964454e-01
     2389250000    1.828527153e-01   -1.729889661e-01
     2390000000    1.799795628e-01   -1.690339297e-01
     2390750000    1.782536805e-01   -1.626830697e-01
     2391500000    1.766256243e-01   -1.547437161e-01
     2392250000    1.735052019e-01   -1.490387321e-01
     2393000000    1.694715470e-01   -1.429918259e-01
     2393750000    1.648669690e-01   -1.377011240e-01
     2394500000    1.594346166e-01   -1.323241442e-01
     2395250000    1.545183957e-01   -1.268767864e-01
     2396000000    1.485749632e-01   -1.209147200e-01
     2396750000    1.415371448e-01   -1.175242960e-01
     2397500000    1.343814880e-01   -1.126908362e-01
     2398250000    1.264807731e-01   -1.094351038e-01
     2399000000    1.187560409e-01   -1.044986174e-01
     2399750000    1.101800948e-01   -1.039183512e-01
     2400500000    1.015309915e-01   -1.017040759e-01
     2401250000    9.230235219e-02   -9.958191961e-02
     2402000000    8.283163607e-02   -9.809724987e-02
     2402750000    7.343453914e-02   -9.883803129e-02
     2403500000    6.352352351e-02   -9.767827392e-02
     2404250000    5.452803522e-02   -9.889300168e-02
     2405000000    4.423132166e-02   -9.894892573e-02
     2405750000    3.477961197e-02   -1.009214297e-01
     2406500000    2.549628541e-02   -1.030709594e-01
     2407250000    1.593334787e-02   -1.056349427e-01
     2408000000    6.571594626e-03   -1.084699333e-01
     2408750000   -1.729407231e-03   -1.120869741e-01
     2409500000   -1.072994340e-02   -1.164545417e-01
     2410250000   -1.846992597e-02   -1.208807006e-01
     2411000000   -2.593541704e-02   -1.250371784e-01
     2411750000   -3.332829848e-02   -1.297206283e-01
     2412500000   -3.972281143e-02   -1.351536512e-01
     2413250000   -4.614850134e-02   -1.413278878e-01
     2414000000   -5.199000612e-02   -1.462662369e-01
     2414750000   -5.690350756e-02   -1.521190256e-01
     2415500000   -6.188988686e-02   -1.577247977e-01
     2416250000   -6.519575417e-02   -1.638370752e-01
     2417000000   -6.866161525e-02   -1.682979017e-01
     2417750000   -7.176238298e-02   -1.740747690e-01
     2418500000   -7.336945832e-02   -1.796395332e-01
     2419250000   -7.547503710e-02   -1.833020002e-01
     2420000000   -7.616025209e-02   -1.879792511e-01
     2420750000   -7.649688423e-02   -1.916987747e-01
     2421500000   -7.685549557e-02   -1.956795752e-01
     2422250000   -7.530533522e-02   -1.981344968e-01
     2423000000   -7.443647087e-02   -2.007213533e-01
     2423750000   -7.280132174e-02   -2.026166469e-01
     2424500000   -7.113610953e-02   -2.042456418e-01
     2425250000   -6.742186844e-02   -2.060442120e-01
     2426000000   -6.441455334e-02   -2.064860165e-01
     2426750000   -5.950388312e-02   -2.073504478e-01
     2427500000   -5.760735646e-02   -2.059901953e-01
     2428250000   -5.364993587e-02   -2.051774561e-01
     2429000000   -5.351737142e-02   -2.031195164e-01
     2429750000   -4.671265185e-02   -2.015225291e-01
     2430500000   -4.320593923e-02   -1.987654418e-01
     2431250000   -4.298668727e-02   -1.955952048e-01
     2432000000   -3.680509701e-02   -1.923646778e-01
     2432750000   -3.499870375e-02   -1.884531677e-01
     2433500000   -3.270158172e-02   -1.843436509e-01
     2434250000   -2.741011791e-02   -1.789093912e-01
     2435000000   -2.942431159e-02   -1.741661727e-01
     2435750000   -2.609532513e-02   -1.689768583e-01
     2436500000   -2.440363355e-02   -1.624470651e-01
     2437250000   -2.317969128e-02   -1.563266814e-01
     2438000000   -2.430950850e-02   -1.505836397e-01
     2438750000   -2.260066569e-02   -1.433901340e-01
     2439500000   -2.316636406e-02   -1.369899958e-01
     2440250000   -2.439977042e-02   -1.305453926e-01
     2441000000   -2.531801164e-02   -1.230785325e-01
     2441750000   -2.822516486e-02   -1.170149893e-01
     2442500000   -3.063122928e-02   -1.104767844e-01
     2443250000   -3.397308663e-02   -1.050494611e-01
     2444000000   -3.735371307e-02   -9.793581069e-02
     2444750000   -4.123739526e-02   -9.244129062e-02
     2445500000   -4.592090100e-02   -8.772219718e-02
     2446250000   -5.071476474e-02   -8.086114377e-02
     2447000000   -5.600749701e-02   -7.574439794e-02
     2447750000   -6.147934124e-02   -7.092496008e-02
     2448500000   -6.760165095e-02   -6.662918627e-02
     2449250000   -7.359007001e-02   -6.250693649e-02
     2450000000   -8.033372462e-02   -5.923102424e-02
     2450750000   -8.738818020e-02   -5.564715713e-02
     2451500000   -9.429789335e-02   -5.271473154e-02
     2452250000   -1.006697267e-01   -5.047242343e-02
     2453000000   -1.079862267e-01   -4.845661670e-02
     2453750000   -1.146547198e-01   -4.727897793e-02
     2454500000   -1.211489215e-01   -4.540948197e-02
     2455250000   -1.284037083e-01   -4.557945207e-02
     2456000000   -1.344860494e-01   -4.508931190e-02
     2456750000   -1.414322257e-01   -4.573509470e-02
     2457500000   -1.464002430e-01   -4.470432177e-02
     2458250000   -1.519964039e-01   -4.557069764e-02
     2459000000   -1.572011858e-01   -4.628543556e-02
     2459750000   -1.624766439e-01   -4.811291769e-02
     2460500000   -1.660411209e-01   -4.987996072e-02
     2461250000   -1.691451520e-01   -5.038891733e-02
     2462000000   -1.719148457e-01   -5.115937442e-02
     2462750000   -1.747528017e-01   -5.443127826e-02
     2463500000   -1.758381277e-01   -5.645136535e-02
     2464250000   -1.773269325e-01   -5.777920038e-02
     2465000000   -1.772041917e-01   -5.808409676e-02
     2465750000   -1.768264025e-01   -6.326708198e-02
     2466500000   -1.765388846e-01   -6.423910707e-02
     2467250000   -1.744845510e-01   -6.662053615e-02
     2468000000   -1.718989611e-01   -6.989367306e-02
     2468750000   -1.703740060e-01   -6.874230504e-02
     2469500000   -1.660951972e-01   -7.439199090e-02
     2470250000   -1.641306430e-01   -7.059551030e-02
     2471000000   -1.571474522e-01   -7.727510482e-02
     2471750000   -1.545225084e-01   -7.455806434e-02
     2472500000   -1.498822421e-01   -7.534281909e-02
     2473250000   -1.425860971e-01   -7.793734223e-02
     2474000000   -1.373791546e-01   -7.726082951e-02
     2474750000   -1.336184889e-01   -7.484240830e-02
     2475500000   -1.257385463e-01   -7.583382726e-02
     2476250000   -1.214840263e-01   -7.268381864e-02
     2477000000   -1.146512106e-01   -7.156407088e-02
     2477750000   -1.085452959e-01   -6.951168925e-02
     2478500000   -1.021266729e-01   -6.641171873e-02
     2479250000   -9.635004401e-02   -6.340645254e-02
     2480000000   -9.035648406e-02   -5.992072076e-02
     2480750000   -8.442991972e-02   -5.632647872e-02
     2481500000   -7.957837731e-02   -5.145181715e-02
     2482250000   -7.446295023e-02   -4.755202308e-02
     2483000000   -6.991330534e-02   -4.168782011e-02
     2483750000   -6.556542218e-02   -3.644283861e-02
     2484500000   -6.170031801e-02   -3.073000163e-02
     2485250000   -5.807002261e-02   -2.499091811e-02
     2486000000   -5.549439415e-02   -1.857958548e-02
     2486750000   -5.333812162e-02   -1.244277228e-02
     2487500000   -5.112689361e-02   -6.028033793e-03
     2488250000   -4.969780147e-02    9.936976712e-04
     2489000000   -4.885197058e-02    7.719588466e-03
     2489750000   -4.896271229e-02    1.516815741e-02
     2490500000   -4.887753725e-02    2.195415460e-02
     2491250000   -4.958632216e-02    2.910923958e-02
     2492000000   -5.093707517e-02    3.567568958e-02
     2492750000   -5.313896015e-02    4.319991171e-02
     2493500000   -5.458316579e-02    4.860572517e-02
     2494250000   -5.864192918e-02    5.583427846e-02
     2495000000   -6.183083728e-02    6.166676804e-02
     2495750000   -6.549806148e-02    6.776964664e-02
     2496500000   -6.892982870e-02    7.306525111e-02
     2497250000   -7.195006311e-02    7.798528671e-02
     2498000000   -7.837086171e-02    8.434349298e-02
     2498750000   -8.218701929e-02    8.829190582e-02
     2499500000   -8.696579188e-02    9.277596325e-02
     2500250000   -9.238742292e-02    9.641230851e-02
     2501000000   -9.824414551e-02    9.889391065e-02
     2501750000   -1.028003022e-01    1.020382419e-01
     2502500000   -1.068805307e-01    1.037184000e-01
     2503250000   -1.110133901e-01    1.050556898e-01
     2504000000   -1.155537218e-01    1.062721461e-01
     2504750000   -1.195809990e-01    1.066598594e-01
     2505500000   -1.215708926e-01    1.084803119e-01
     2506250000   -1.260467023e-01    1.067343503e-01
     2507000000   -1.324961483e-01    1.032903492e-01
     2507750000   -1.308047026e-01    1.044693291e-01
     2508500000   -1.334324181e-01    1.029458568e-01
     2509250000   -1.359213591e-01    1.005299315e-01
     2510000000   -1.364202648e-01    9.844022244e-02
     2510750000   -1.369562745e-01    9.486996382e-02
     2511500000   -1.372963935e-01    9.252151102e-02
     2512250000   -1.360465288e-01    8.882334083e-02
     2513000000   -1.349008977e-01    8.554928005e-02
     2513750000   -1.339043230e-01    8.081615716e-02
     2514500000   -1.314935684e-01    7.794542611e-02
     2515250000   -1.287065446e-01    7.306176424e-02
     2516000000   -1.260758191e-01    6.927576661e-02
     2516750000   -1.220958158e-01    6.533955783e-02
     2517500000   -1.177259460e-01    6.101381034e-02
     2518250000   -1.126942337e-01    5.768789351e-02
     2519000000   -1.078323275e-01    5.556103215e-02
     2519750000   -1.018758118e-01    5.023601651e-02
     2520500000   -9.588368982e-02    4.811366647e-02
     2521250000   -8.938033134e-02    4.486929253e-02
     2522000000   -8.268877119e-02    4.315385595e-02
     2522750000   -7.619593292e-02    4.217598215e-02
     2523500000   -6.850907207e-02    3.906542435e-02
     2524250000   -6.153540313e-02    3.877012804e-02
     2525000000   -5.432055518e-02    3.819002584e-02
     2525750000   -4.620695487e-02    3.779297695e-02
     2526500000   -3.961198032e-02    3.852704912e-02
     2527250000   -3.079976141e-02    3.918486461e-02
     2528000000   -2.383265458e-02    4.053087160e-02
     2528750000   -1.689785905e-02    4.241351038e-02
     2529500000   -9.342452511e-03    4.425450414e-02
     2530250000   -2.922894200e-03    4.715058208e-02
     2531000000    4.249578342e-03    5.032845587e-02
     2531750000    1.066967007e-02    5.339746922e-02
     2532500000    1.719996892e-02    5.799884349e-02
     2533250000    2.203130536e-02    6.223566085e-02
     2534000000    2.759599872e-02    6.672772765e-02
     2534750000    3.266425431e-02    7.207677513e-02
     2535500000    3.668821231e-02    7.643043250e-02
     2536250000    3.987080976e-02    8.189314604e-02
     2537000000    4.357697070e-02    8.826362342e-02
     2537750000    4.637895525e-02    9.373280406e-02
     2538500000    4.862395674e-02    9.931523353e-02
     2539250000    5.061707273e-02    1.053476185e-01
     2540000000    5.165673792e-02    1.112564728e-01
     2540750000    5.186333880e-02    1.165628880e-01
     2541500000    5.166662112e-02    1.223147064e-01
     2542250000    5.137472600e-02    1.280754507e-01
     2543000000    5.078351125e-02    1.323666871e-01
     2543750000    4.974847287e-02    1.374133378e-01
     2544500000    4.906305298e-02    1.419681460e-01
     2545250000    4.576851055e-02    1.462091208e-01
     2546000000    4.398973659e-02    1.499686092e-01
     2546750000    4.131579399e-02    1.537329555e-01
     2547500000    3.872318938e-02    1.568749696e-01
     2548250000    3.716276586e-02    1.592000127e-01
     2549000000    3.380999342e-02    1.610101163e-01
     2549750000    2.814601921e-02    1.630674452e-01
     2550500000    2.748059854e-02    1.642325073e-01
     2551250000    2.420446277e-02    1.645720154e-01
     2552000000    1.975153759e-02    1.642404050e-01
     2552750000    1.780484058e-02    1.636390239e-01
     2553500000    1.483736094e-02    1.623611003e-01
     2554250000    9.872888215e-03    1.604265124e-01
     2555000000    8.940422907e-03    1.575551927e-01
     2555750000    6.864938885e-03    1.550582647e-01
     2556500000    7.581855636e-03    1.526952535e-01
     2557250000    3.376901848e-03    1.476393342e-01
     2558000000    2.225177828e-03    1.437098831e-01
     2558750000    4.247420467e-03    1.395420283e-01
     2559500000    4.290058278e-03    1.348616034e-01
     2560250000    9.079052834e-04    1.275046468e-01
     2561000000    4.053975455e-03    1.236419380e-01
     2561750000    5.187061615e-03    1.182429194e-01
     2562500000    5.586243700e-03    1.109585613e-01
     2563250000    9.312299080e-03    1.059980020e-01
     2564000000    1.077023149e-02    9.868105501e-02
     2564750000    1.446810458e-02    9.326782078e-02
     2565500000    1.806792989e-02    8.707585931e-02
     2566250000    2.150619216e-02    8.142878115e-02
     2567000000    2.607096545e-02    7.538934052e-02
     2567750000    3.087519482e-02    7.070659101e-02
     2568500000    3.581566736e-02    6.586527824e-02
     2569250000    4.168954492e-02    5.987096950e-02
     2570000000    4.708577693e-02    5.545787141e-02
     2570750000    5.298497528e-02    5.086812377e-02
     2571500000    5.936209112e-02    4.659719765e-02
     2572250000    6.604292244e-02    4.352978617e-02
     2573000000    7.290032506e-02    4.064279795e-02
     2573750000    7.866909355e-02    3.825251758e-02
     2574500000    8.581901342e-02    3.627257049e-02
     2575250000    9.184712917e-02    3.510867059e-02
     2576000000    9.872297198e-02    3.411449492e-02
     2576750000    1.054269224e-01    3.392583877e-02
     2577500000    1.105593964e-01    3.353526443e-02
     2578250000    1.185213923e-01    3.545741364e-02
     2579000000    1.242287159e-01    3.656888008e-02
     2579750000    1.288816929e-01    3.804266825e-02
     2580500000    1.344878823e-01    4.082662240e-02
     2581250000    1.391992420e-01    4.344782978e-02
     2582000000    1.427105665e-01    4.690093920e-02
     2582750000    1.474172473e-01    5.026559904e-02
     2583500000    1.507496238e-01    5.640868098e-02
     2584250000    1.535793394e-01    6.074919179e-02
     2585000000    1.562611759e-01    6.590498984e-02
     2585750000    1.580326855e-01    6.898075342e-02
     2586500000    1.591064781e-01    7.568831742e-02
     2587250000    1.597040743e-01    8.344732225e-02
     2588000000    1.601132452e-01    8.688601851e-02
     2588750000    1.601188779e-01    9.217711538e-02
     2589500000    1.583229601e-01    9.768367559e-02
     2590250000    1.576593816e-01    1.029551551e-01
     2591000000    1.560022384e-01    1.067927480e-01
     2591750000    1.537048221e-01    1.120372191e-01
     2592500000    1.510297060e-01    1.177286282e-01
     2593250000    1.476931423e-01    1.224649921e-01
     2594000000    1.440564543e-01    1.267619133e-01
     2594750000    1.406977624e-01    1.302957684e-01
     2595500000    1.375599355e-01    1.340653151e-01
     2596250000    1.347835213e-01    1.334428787e-01
     2597000000    1.284266859e-01    1.367523074e-01
     2597750000    1.255707592e-01    1.366070360e-01
     2598500000    1.209740192e-01    1.379076242e-01
     2599250000    1.161483675e-01    1.363420039e-01
     2600000000    1.118346378e-01    1.348719448e-01
