! NanoVNA-App
! Date: 2026-05-25 01:52:31
! Start: 4.8GHz Stop: 6GHz Points: 401
! S-Parameter data: F S11
# Hz S RI R 50
!     Frequency           S11_Real           S11_Imag
     4800000000   -1.987289786e-01    3.936013579e-01
     4803000000   -3.277867734e-01    2.929565907e-01
     4806000000   -4.084193110e-01    1.574433744e-01
     4809000000   -4.375850558e-01    1.243929565e-02
     4812000000   -4.115597904e-01   -1.496169716e-01
     4815000000   -3.306296766e-01   -2.857767344e-01
     4818000000   -2.123398930e-01   -3.814471066e-01
     4821000000   -6.453511119e-02   -4.296855628e-01
     4824000000    8.569730073e-02   -4.239982665e-01
     4827000000    2.342900187e-01   -3.592010140e-01
     4830000000    3.422392607e-01   -2.530900538e-01
     4833000000    4.065846205e-01   -1.125223711e-01
     4836000000    4.180313945e-01    3.727376089e-02
     4839000000    3.733149767e-01    1.845159233e-01
     4842000000    2.816112638e-01    3.055749834e-01
     4845000000    1.611773074e-01    3.844534457e-01
     4848000000    7.781442255e-03    4.137296975e-01
     4851000000   -1.389491707e-01    3.869003654e-01
     4854000000   -2.651766837e-01    3.097233176e-01
     4857000000   -3.548233807e-01    2.086870223e-01
     4860000000   -4.004147649e-01    6.021302566e-02
     4863000000   -3.891978860e-01   -9.029986709e-02
     4866000000   -3.352955878e-01   -2.165366709e-01
     4869000000   -2.276524305e-01   -3.203282356e-01
     4872000000   -1.042717770e-01   -3.770180941e-01
     4875000000    3.425898775e-02   -3.879839480e-01
     4878000000    1.747495681e-01   -3.425403535e-01
     4881000000    2.779689133e-01   -2.649733126e-01
     4884000000    3.508612812e-01   -1.441921741e-01
     4887000000    3.783873022e-01   -1.245674398e-02
     4890000000    3.531279564e-01    1.233399510e-01
     4893000000    2.815439701e-01    2.383676022e-01
     4896000000    1.809256673e-01    3.199010491e-01
     4899000000    5.146928132e-02    3.555370271e-01
     4902000000   -7.704743743e-02    3.465773165e-01
     4905000000   -1.945798546e-01    2.944072485e-01
     4908000000   -2.832609117e-01    2.036546469e-01
     4911000000   -3.312982023e-01    8.776001632e-02
     4914000000   -3.408742249e-01   -3.408320248e-02
     4917000000   -2.993977964e-01   -1.529695392e-01
     4920000000   -2.217331976e-01   -2.480142117e-01
     4923000000   -1.159202456e-01   -3.058732748e-01
     4926000000   -1.962499926e-03   -3.270544112e-01
     4929000000    1.139609963e-01   -2.970210016e-01
     4932000000    2.111508697e-01   -2.297185957e-01
     4935000000    2.773167193e-01   -1.409910023e-01
     4938000000    3.082790673e-01   -3.325645998e-02
     4941000000    2.972603142e-01    7.883769274e-02
     4944000000    2.480688542e-01    1.781851202e-01
     4947000000    1.580221653e-01    2.461499721e-01
     4950000000    6.282154471e-02    2.917778492e-01
     4953000000   -4.720613360e-02    2.819049060e-01
     4956000000   -1.428163499e-01    2.470875233e-01
     4959000000   -2.183438540e-01    1.753091216e-01
     4962000000   -2.636170387e-01    8.558329940e-02
     4965000000   -2.742247581e-01   -1.421024092e-02
     4968000000   -2.464923412e-01   -1.088575944e-01
     4971000000   -1.895143241e-01   -1.884572655e-01
     4974000000   -1.061384156e-01   -2.391322255e-01
     4977000000   -1.377450209e-02   -2.604474723e-01
     4980000000    7.768377662e-02   -2.423863262e-01
     4983000000    1.573270708e-01   -1.967001706e-01
     4986000000    2.123772353e-01   -1.268475205e-01
     4989000000    2.381757200e-01   -4.125773534e-02
     4992000000    2.375144362e-01    4.450937361e-02
     4995000000    1.977494508e-01    1.213339269e-01
     4998000000    1.391434819e-01    1.825869530e-01
     5001000000    6.107052788e-02    2.151982039e-01
     5004000000   -1.997303590e-02    2.191812694e-01
     5007000000   -9.214762598e-02    1.906567514e-01
     5010000000   -1.474585831e-01    1.382131875e-01
     5013000000   -1.926877499e-01    7.427603006e-02
     5016000000   -2.040601224e-01    2.252188278e-03
     5019000000   -1.829687655e-01   -6.643527746e-02
     5022000000   -1.412120312e-01   -1.205377132e-01
     5025000000   -8.690224588e-02   -1.610650718e-01
     5028000000   -2.158012055e-02   -1.758960783e-01
     5031000000    4.195624217e-02   -1.656437069e-01
     5034000000    9.860963374e-02   -1.338567734e-01
     5037000000    1.345804334e-01   -8.370523900e-02
     5040000000    1.531451046e-01   -2.567714825e-02
     5043000000    1.483341902e-01    3.182268888e-02
     5046000000    1.248506680e-01    8.621065319e-02
     5049000000    8.177287877e-02    1.186992005e-01
     5052000000    3.208995238e-02    1.325398386e-01
     5055000000   -2.125727758e-02    1.363464296e-01
     5058000000   -6.713277847e-02    1.137456298e-01
     5061000000   -1.024536341e-01    7.820733637e-02
     5064000000   -1.169101149e-01    3.302693367e-02
     5067000000   -1.210062355e-01   -1.505263057e-02
     5070000000   -1.013944522e-01   -5.775532499e-02
     5073000000   -6.995774060e-02   -8.657120168e-02
     5076000000   -2.916875854e-02   -1.045793071e-01
     5079000000    1.460293308e-02   -1.074498221e-01
     5082000000    5.085634440e-02   -9.121742100e-02
     5085000000    7.758302987e-02   -6.293548644e-02
     5088000000    9.451650083e-02   -2.811006270e-02
     5091000000    9.373062849e-02    1.033261511e-02
     5094000000    8.084940910e-02    4.372690991e-02
     5097000000    5.554547161e-02    7.063440233e-02
     5100000000    2.192147821e-02    8.499073982e-02
     5103000000   -1.175970770e-02    8.480820805e-02
     5106000000   -4.674019665e-02    7.268166542e-02
     5109000000   -6.466080993e-02    4.709472507e-02
     5112000000   -8.090334386e-02    1.502123754e-02
     5115000000   -7.517826557e-02   -1.351330802e-02
     5118000000   -6.198966876e-02   -4.328309372e-02
     5121000000   -3.884879872e-02   -6.808146089e-02
     5124000000   -7.234266959e-03   -7.871364057e-02
     5127000000    2.033236995e-02   -7.013960183e-02
     5130000000    4.367676377e-02   -5.494087934e-02
     5133000000    7.321482152e-02   -3.413171321e-02
     5136000000    6.943769008e-02   -6.280656438e-03
     5139000000    7.112749666e-02    2.751797065e-02
     5142000000    5.576524511e-02    5.290080607e-02
     5145000000    3.071618825e-02    7.114791870e-02
     5148000000   -7.406105869e-04    7.532914728e-02
     5151000000   -3.073869832e-02    6.985099614e-02
     5154000000   -5.831376836e-02    5.276514590e-02
     5157000000   -7.317056507e-02    2.479806915e-02
     5160000000   -7.782621682e-02   -4.763601813e-03
     5163000000   -7.528435439e-02   -3.837471455e-02
     5166000000   -5.569689348e-02   -6.637301296e-02
     5169000000   -2.816745639e-02   -8.375886828e-02
     5172000000    5.039762706e-03   -8.381051570e-02
     5175000000    4.259914905e-02   -8.570548892e-02
     5178000000    7.204594463e-02   -6.504905969e-02
     5181000000    8.508002013e-02   -3.366918489e-02
     5184000000    9.241051227e-02    1.934779342e-03
     5187000000    9.606184810e-02    4.157062620e-02
     5190000000    6.794106960e-02    6.933561713e-02
     5193000000    3.725655377e-02    8.816996217e-02
     5196000000    4.055598285e-03    9.508896619e-02
     5199000000   -4.029927775e-02    9.818681329e-02
     5202000000   -6.674290448e-02    7.205489278e-02
     5205000000   -9.159973264e-02    4.312778264e-02
     5208000000   -1.050710231e-01    6.026802585e-03
     5211000000   -1.005730703e-01   -3.310924023e-02
     5214000000   -8.270370215e-02   -6.880248338e-02
     5217000000   -5.104748160e-02   -9.537205100e-02
     5220000000   -1.299234014e-02   -1.117883474e-01
     5223000000    3.220421448e-02   -1.112967432e-01
     5226000000    6.909599900e-02   -9.185205400e-02
     5229000000    1.000349671e-01   -6.137838960e-02
     5232000000    1.184191704e-01   -1.961725578e-02
     5235000000    1.136532053e-01    2.248192392e-02
     5238000000    1.025917307e-01    6.780688465e-02
     5241000000    7.278790325e-02    1.037741005e-01
     5244000000    3.052837774e-02    1.245335266e-01
     5247000000   -1.226675324e-02    1.266850680e-01
     5250000000   -6.275018305e-02    1.178244203e-01
     5253000000   -1.002338082e-01    8.856609464e-02
     5256000000   -1.211242378e-01    4.721772298e-02
     5259000000   -1.331128776e-01    1.669133344e-04
     5262000000   -1.269991398e-01   -5.166222900e-02
     5265000000   -1.028319746e-01   -9.868825227e-02
     5268000000   -6.021775305e-02   -1.137668639e-01
     5271000000   -1.261092816e-02   -1.392152160e-01
     5274000000    4.320314154e-02   -1.372784823e-01
     5277000000    8.560191840e-02   -1.107351929e-01
     5280000000    1.215296388e-01   -7.393298298e-02
     5283000000    1.457852721e-01   -2.323439345e-02
     5286000000    1.420827210e-01    2.850897983e-02
     5289000000    1.251084059e-01    7.916096598e-02
     5292000000    8.966162056e-02    1.197538748e-01
     5295000000    4.160157219e-02    1.472495794e-01
     5298000000   -1.208539028e-02    1.517922133e-01
     5301000000   -6.694400311e-02    1.379837543e-01
     5304000000   -1.124852598e-01    1.056129858e-01
     5307000000   -1.445660591e-01    5.820587650e-02
     5310000000   -1.531716883e-01    5.701589398e-03
     5313000000   -1.495512575e-01   -5.277995765e-02
     5316000000   -1.203449443e-01   -1.054185629e-01
     5319000000   -7.385911793e-02   -1.438339204e-01
     5322000000   -2.295305207e-02   -1.602987796e-01
     5325000000    3.881471604e-02   -1.597177386e-01
     5328000000    9.478770941e-02   -1.377778500e-01
     5331000000    1.367444694e-01   -9.611167759e-02
     5334000000    1.624588370e-01   -4.277972504e-02
     5337000000    1.676030010e-01    1.557774283e-02
     5340000000    1.511447430e-01    7.361119241e-02
     5343000000    1.142962351e-01    1.254251748e-01
     5346000000    6.568426639e-02    1.573737860e-01
     5349000000    5.671741907e-03    1.701270044e-01
     5352000000   -5.691754818e-02    1.610370725e-01
     5355000000   -1.070528105e-01    1.316523999e-01
     5358000000   -1.414679140e-01    9.165339917e-02
     5361000000   -1.700046957e-01    1.899194531e-02
     5364000000   -1.648220420e-01   -3.216079995e-02
     5367000000   -1.439702213e-01   -8.645972610e-02
     5370000000   -1.012484059e-01   -1.331967562e-01
     5373000000   -4.634275660e-02   -1.590684205e-01
     5376000000    1.044004224e-02   -1.636378765e-01
     5379000000    6.379339099e-02   -1.510685533e-01
     5382000000    1.236316636e-01   -1.115900949e-01
     5385000000    1.490853578e-01   -6.311433017e-02
     5388000000    1.630464643e-01   -3.042126773e-03
     5391000000    1.558586359e-01    5.278727785e-02
     5394000000    1.250117868e-01    1.032541767e-01
     5397000000    7.455637306e-02    1.448205560e-01
     5400000000    1.833880879e-02    1.616323590e-01
     5403000000   -3.886085376e-02    1.591620594e-01
     5406000000   -9.432546049e-02    1.328572780e-01
     5409000000   -1.349688321e-01    9.451661259e-02
     5412000000   -1.588370800e-01    4.091335088e-02
     5415000000   -1.639877856e-01   -1.560486853e-02
     5418000000   -1.465868503e-01   -7.111318409e-02
     5421000000   -1.102495417e-01   -1.185469553e-01
     5424000000   -6.002850458e-02   -1.467940211e-01
     5427000000   -8.462995291e-03   -1.609423906e-01
     5430000000    4.976283014e-02   -1.518463790e-01
     5433000000    1.003537700e-01   -1.122687683e-01
     5436000000    1.340546608e-01   -8.111644536e-02
     5439000000    1.531189978e-01   -2.288417518e-02
     5442000000    1.435013115e-01    3.680912033e-02
     5445000000    1.298057884e-01    8.118656278e-02
     5448000000    8.669700474e-02    1.197366044e-01
     5451000000    4.020339996e-02    1.417512000e-01
     5454000000   -1.435419265e-02    1.449484378e-01
     5457000000   -6.363008916e-02    1.330956221e-01
     5460000000   -1.053689346e-01    9.415168315e-02
     5463000000   -1.312050372e-01    5.188070610e-02
     5466000000   -1.415604353e-01    4.636419006e-03
     5469000000   -1.296306849e-01   -4.780744761e-02
     5472000000   -1.016704515e-01   -9.026801586e-02
     5475000000   -6.955888122e-02   -1.215256080e-01
     5478000000   -1.825913414e-02   -1.340682358e-01
     5481000000    3.040714934e-02   -1.224746555e-01
     5484000000    7.163810730e-02   -1.103890315e-01
     5487000000    1.023763940e-01   -7.965796441e-02
     5490000000    1.246934906e-01   -3.980002925e-02
     5493000000    1.189867780e-01    7.111537736e-03
     5496000000    1.129770502e-01    4.743290320e-02
     5499000000    7.736872882e-02    7.773745805e-02
     5502000000    3.914618492e-02    9.314534813e-02
     5505000000    8.884827606e-03    1.173661053e-01
     5508000000   -3.357204795e-02    9.183524549e-02
     5511000000   -6.449099630e-02    7.575377077e-02
     5514000000   -8.189238608e-02    3.966573626e-02
     5517000000   -9.542251378e-02    1.020044461e-02
     5520000000   -8.574897051e-02   -2.673585527e-02
     5523000000   -6.860596687e-02   -5.620382354e-02
     5526000000   -4.714656621e-02   -7.798477262e-02
     5529000000   -1.036627498e-02   -7.826198637e-02
     5532000000    2.055182122e-02   -7.152644545e-02
     5535000000    4.578208551e-02   -6.658607721e-02
     5538000000    6.544519216e-02   -4.072346911e-02
     5541000000    8.169116080e-02   -1.611146890e-02
     5544000000    6.485868245e-02    1.442407910e-02
     5547000000    6.393717229e-02    4.234464094e-02
     5550000000    2.961200476e-02    4.948332533e-02
     5553000000    1.705242507e-02    7.426331937e-02
     5556000000   -1.174280234e-02    5.221058801e-02
     5559000000   -3.438630328e-02    5.816882476e-02
     5562000000   -5.009956285e-02    3.699057922e-02
     5565000000   -5.682775751e-02    1.329816692e-02
     5568000000   -5.228532478e-02   -1.079209521e-02
     5571000000   -4.405247420e-02   -2.893897332e-02
     5574000000   -3.342891112e-02   -4.585416615e-02
     5577000000   -2.722066361e-03   -4.028720409e-02
     5580000000    9.207330644e-03   -4.761239141e-02
     5583000000    2.551231906e-02   -2.766878717e-02
     5586000000    4.086184874e-02   -2.452639304e-02
     5589000000    4.757209867e-02   -6.032691337e-03
     5592000000    3.501774743e-02    1.725835726e-02
     5595000000    3.305625916e-02    3.029155545e-02
     5598000000    1.028277446e-02    3.814751282e-02
     5601000000   -1.268898975e-02    2.939677052e-02
     5604000000   -2.305766568e-02    3.663904220e-02
     5607000000   -3.592643887e-02    2.535182983e-02
     5610000000   -4.113903642e-02    9.824788431e-04
     5613000000   -3.804427013e-02   -1.545760781e-02
     5616000000   -2.848638035e-02   -2.972194925e-02
     5619000000   -1.500905585e-02   -4.108668119e-02
     5622000000    5.653777625e-03   -4.390469193e-02
     5625000000    2.188465372e-02   -4.031228274e-02
     5628000000    3.762346134e-02   -3.518502414e-02
     5631000000    4.994031414e-02   -6.291074213e-03
     5634000000    4.926266894e-02    1.416026521e-02
     5637000000    5.416752025e-02    2.679553442e-02
     5640000000    3.646576405e-02    4.819687456e-02
     5643000000    8.938059211e-03    5.934948847e-02
     5646000000   -8.410222828e-03    6.396213174e-02
     5649000000   -3.546796739e-02    5.588950962e-02
     5652000000   -5.902295187e-02    2.976444177e-02
     5655000000   -6.831888855e-02    1.072552241e-02
     5658000000   -7.663613558e-02   -4.082097206e-03
     5661000000   -6.629184633e-02   -3.831476718e-02
     5664000000   -4.288361222e-02   -6.271559745e-02
     5667000000   -2.328671142e-02   -7.639070600e-02
     5670000000   -1.283176825e-03   -8.396407217e-02
     5673000000    3.716653213e-02   -7.247779518e-02
     5676000000    6.308043748e-02   -5.172702298e-02
     5679000000    8.246584982e-02   -3.791209310e-02
     5682000000    8.324993402e-02    1.047152095e-02
     5685000000    8.344337344e-02    3.599178419e-02
     5688000000    6.451506913e-02    6.600450724e-02
     5691000000    4.449203610e-02    8.881749213e-02
     5694000000   -2.707384992e-03    9.102897346e-02
     5697000000   -2.434813231e-02    9.894634783e-02
     5700000000   -6.234712899e-02    7.469778508e-02
     5703000000   -8.550858498e-02    5.188235268e-02
     5706000000   -9.445145726e-02    1.135406736e-02
     5709000000   -1.000172794e-01   -1.950901560e-02
     5712000000   -8.844383061e-02   -5.626581237e-02
     5715000000   -5.726796016e-02   -8.594797552e-02
     5718000000   -8.919239044e-03   -9.533465654e-02
     5721000000    1.304971427e-02   -1.124499589e-01
     5724000000    5.777816102e-02   -8.532289416e-02
     5727000000    8.729283512e-02   -6.490705162e-02
     5730000000    1.059640422e-01   -2.767509222e-02
     5733000000    1.075174809e-01    1.507516578e-02
     5736000000    9.087780118e-02    5.707611144e-02
     5739000000    8.051576465e-02    8.907634020e-02
     5742000000    3.006153181e-02    1.090551913e-01
     5745000000   -6.154132541e-03    1.220168546e-01
     5748000000   -4.895074666e-02    1.146082282e-01
     5751000000   -8.715211600e-02    7.763543725e-02
     5754000000   -1.193460077e-01    5.656016618e-02
     5757000000   -1.229787543e-01   -1.459579100e-03
     5760000000   -1.323020458e-01   -4.077988490e-02
     5763000000   -8.527276665e-02   -8.126395196e-02
     5766000000   -6.843434274e-02   -1.181207672e-01
     5769000000   -1.803766936e-02   -1.303126067e-01
     5772000000    3.098182566e-02   -1.277620345e-01
     5775000000    7.459372282e-02   -1.050162911e-01
     5778000000    1.096809134e-01   -7.815431058e-02
     5781000000    1.341676712e-01   -3.730116040e-02
     5784000000    1.323404014e-01    1.839696057e-02
     5787000000    1.166900024e-01    6.480243802e-02
     5790000000    8.874545991e-02    1.051837429e-01
     5793000000    3.704921156e-02    1.231230199e-01
     5796000000   -9.204217233e-03    1.345266998e-01
     5799000000   -5.764467642e-02    1.226785630e-01
     5802000000   -9.794545919e-02    9.281104058e-02
     5805000000   -1.238383949e-01    4.834209755e-02
     5808000000   -1.398169696e-01    1.737125218e-03
     5811000000   -1.306038350e-01   -4.843827710e-02
     5814000000   -1.050384790e-01   -9.208751470e-02
     5817000000   -6.519691646e-02   -1.253860593e-01
     5820000000   -1.605149917e-02   -1.493966132e-01
     5823000000    3.549364209e-02   -1.381553859e-01
     5826000000    8.329313248e-02   -1.130143777e-01
     5829000000    1.148273349e-01   -7.261843234e-02
     5832000000    1.476251632e-01   -2.938574366e-02
     5835000000    1.392085254e-01    2.625361271e-02
     5838000000    1.024504676e-01    6.569823623e-02
     5841000000    8.708889782e-02    1.181247607e-01
     5844000000    3.930900618e-02    1.421734095e-01
     5847000000   -1.558649726e-02    1.466531157e-01
     5850000000   -5.948615447e-02    1.150649190e-01
     5853000000   -1.158137545e-01    1.001112238e-01
     5856000000   -1.344104856e-01    4.833136499e-02
     5859000000   -1.529425234e-01   -3.554609837e-03
     5862000000   -1.337980777e-01   -5.346803740e-02
     5865000000   -1.049902290e-01   -1.006165296e-01
     5868000000   -6.115167588e-02   -1.286197305e-01
     5871000000   -9.641107172e-03   -1.422801912e-01
     5874000000    4.540741071e-02   -1.412995160e-01
     5877000000    9.197829664e-02   -1.126959622e-01
     5880000000    1.296146959e-01   -7.462439686e-02
     5883000000    1.419451684e-01   -2.205639146e-02
     5886000000    1.420212984e-01    3.308231756e-02
     5889000000    1.263541579e-01    9.052077681e-02
     5892000000    8.229019493e-02    1.183305904e-01
     5895000000    3.473703191e-02    1.426132172e-01
     5898000000   -2.133646607e-02    1.455264837e-01
     5901000000   -7.441277802e-02    1.325964034e-01
     5904000000   -1.104535237e-01    9.212735295e-02
     5907000000   -1.229053140e-01    4.439895973e-02
     5910000000   -1.554019302e-01   -1.275978889e-02
     5913000000   -1.114233062e-01   -4.389455169e-02
     5916000000   -1.033901572e-01   -1.150549799e-01
     5919000000   -4.912490025e-02   -1.182276756e-01
     5922000000    2.494466025e-03   -1.379875839e-01
     5925000000    5.924587697e-02   -1.347577721e-01
     5928000000    9.601094574e-02   -1.007634252e-01
     5931000000    1.282428950e-01   -5.629887059e-02
     5934000000    1.383225173e-01   -6.177708972e-03
     5937000000    1.357447207e-01    4.861158878e-02
     5940000000    1.036210805e-01    8.588789403e-02
     5943000000    6.410195678e-02    1.200477555e-01
     5946000000    1.271882281e-02    1.405941099e-01
     5949000000   -3.293170035e-02    1.269572228e-01
     5952000000   -8.989389986e-02    1.112462804e-01
     5955000000   -1.186832488e-01    7.417453825e-02
     5958000000   -1.384883672e-01    1.972827129e-02
     5961000000   -1.395004094e-01   -3.173395619e-02
     5964000000   -1.150918975e-01   -7.613711059e-02
     5967000000   -7.759672403e-02   -1.097814441e-01
     5970000000   -3.256698325e-02   -1.324326098e-01
     5973000000    2.406584099e-02   -1.413623095e-01
     5976000000    6.778272986e-02   -1.159177423e-01
     5979000000    1.091500744e-01   -8.318027109e-02
     5982000000    1.265481859e-01   -3.922816738e-02
     5985000000    1.404059827e-01    1.772198640e-02
     5988000000    1.205333620e-01    5.963829905e-02
     5991000000    9.127622843e-02    1.081906036e-01
     5994000000    4.458058625e-02    1.338311434e-01
     5997000000   -4.081448540e-03    1.385643482e-01
     6000000000   -5.842323974e-02    1.290035844e-01
