! NanoVNA-App
! Date: 2026-05-25 01:51:32
! Start: 2.3GHz Stop: 2.6GHz Points: 401
! S-Parameter data: F S11
# Hz S RI R 50
!     Frequency           S11_Real           S11_Imag
     2300000000    1.034338772e-01    2.453291863e-01
     2300750000    7.925498486e-02    2.520615160e-01
     2301500000    5.642503873e-02    2.569153905e-01
     2302250000    2.849802561e-02    2.621988952e-01
     2303000000    5.222077481e-03    2.618242800e-01
     2303750000   -2.093202993e-02    2.601998448e-01
     2304500000   -4.565198347e-02    2.569102049e-01
     2305250000   -7.116027176e-02    2.508165836e-01
     2306000000   -9.345880151e-02    2.419873476e-01
     2306750000   -1.164388955e-01    2.314607054e-01
     2307500000   -1.385953128e-01    2.181970030e-01
     2308250000   -1.601347327e-01    2.037007213e-01
     2309000000   -1.761540025e-01    1.880547702e-01
     2309750000   -1.936245561e-01    1.690467000e-01
     2310500000   -2.098302245e-01    1.490867883e-01
     2311250000   -2.227653265e-01    1.274537742e-01
     2312000000   -2.337584645e-01    1.067429706e-01
     2312750000   -2.427254319e-01    8.327334374e-02
     2313500000   -2.505023181e-01    5.823493749e-02
     2314250000   -2.535747290e-01    3.573476523e-02
     2315000000   -2.553576529e-01    1.208578050e-02
     2315750000   -2.562324405e-01   -1.447588392e-02
     2316500000   -2.535921335e-01   -3.824061900e-02
     2317250000   -2.483302802e-01   -6.233378872e-02
     2318000000   -2.418611050e-01   -8.551955223e-02
     2318750000   -2.322543263e-01   -1.097495928e-01
     2319500000   -2.221290916e-01   -1.273169965e-01
     2320250000   -2.086293846e-01   -1.493651122e-01
     2321000000   -1.917507648e-01   -1.715248525e-01
     2321750000   -1.764761806e-01   -1.848485768e-01
     2322500000   -1.581569612e-01   -2.008482069e-01
     2323250000   -1.405659169e-01   -2.126322985e-01
     2324000000   -1.171545908e-01   -2.260017395e-01
     2324750000   -9.389974922e-02   -2.368078679e-01
     2325500000   -7.549456507e-02   -2.414786518e-01
     2326250000   -4.957966506e-02   -2.480097413e-01
     2327000000   -2.319486812e-02   -2.519499063e-01
     2327750000   -3.956539091e-03   -2.511975467e-01
     2328500000    2.271317877e-02   -2.505403459e-01
     2329250000    4.299264029e-02   -2.458907217e-01
     2330000000    6.466967613e-02   -2.395185530e-01
     2330750000    9.286592901e-02   -2.323109657e-01
     2331500000    1.097111478e-01   -2.218968272e-01
     2332250000    1.322678775e-01   -2.086889893e-01
     2333000000    1.515379101e-01   -1.946191043e-01
     2333750000    1.670951694e-01   -1.800160259e-01
     2334500000    1.845216155e-01   -1.612126380e-01
     2335250000    1.978037804e-01   -1.427002847e-01
     2336000000    2.099335045e-01   -1.231193170e-01
     2336750000    2.200576812e-01   -1.019434035e-01
     2337500000    2.298261225e-01   -7.859527320e-02
     2338250000    2.349854112e-01   -5.712316558e-02
     2339000000    2.384455949e-01   -3.370863572e-02
     2339750000    2.405389249e-01   -9.706547484e-03
     2340500000    2.398663908e-01    1.314331871e-02
     2341250000    2.366599888e-01    3.620321676e-02
     2342000000    2.315402925e-01    5.818583071e-02
     2342750000    2.241115123e-01    8.157591522e-02
     2343500000    2.154863030e-01    1.029363573e-01
     2344250000    2.036771625e-01    1.234476939e-01
     2345000000    1.897801310e-01    1.452326179e-01
     2345750000    1.759256721e-01    1.602617353e-01
     2346500000    1.590600908e-01    1.755491644e-01
     2347250000    1.408594102e-01    1.911814362e-01
     2348000000    1.199208498e-01    2.051332742e-01
     2348750000    1.014597192e-01    2.140857279e-01
     2349500000    7.940915227e-02    2.240036279e-01
     2350250000    5.761378258e-02    2.308806330e-01
     2351000000    3.248284757e-02    2.372645885e-01
     2351750000    1.105219219e-02    2.394754589e-01
     2352500000   -1.491710171e-02    2.409458458e-01
     2353250000   -3.483108431e-02    2.382610589e-01
     2354000000   -5.994021520e-02    2.344799042e-01
     2354750000   -8.212141693e-02    2.280785888e-01
     2355500000   -1.000915617e-01    2.203449160e-01
     2356250000   -1.241742224e-01    2.091237158e-01
     2357000000   -1.419687271e-01    1.977497488e-01
     2357750000   -1.603288054e-01    1.828647405e-01
     2358500000   -1.759785414e-01    1.678224951e-01
     2359250000   -1.927658767e-01    1.494619250e-01
     2360000000   -2.066145241e-01    1.300826967e-01
     2360750000   -2.152681202e-01    1.131297648e-01
     2361500000   -2.269574553e-01    8.974842727e-02
     2362250000   -2.327120304e-01    6.962507218e-02
     2363000000   -2.368517965e-01    5.057708547e-02
     2363750000   -2.412364185e-01    2.480825596e-02
     2364500000   -2.426720858e-01    8.739745826e-04
     2365250000   -2.414686978e-01   -2.168723196e-02
     2366000000   -2.382218242e-01   -4.452853277e-02
     2366750000   -2.323500812e-01   -6.852085143e-02
     2367500000   -2.257406712e-01   -9.020467848e-02
     2368250000   -2.156223059e-01   -1.125976369e-01
     2369000000   -2.034362108e-01   -1.337059438e-01
     2369750000   -1.892837435e-01   -1.532186717e-01
     2370500000   -1.747731566e-01   -1.700115502e-01
     2371250000   -1.578526646e-01   -1.868450940e-01
     2372000000   -1.389850229e-01   -2.028668374e-01
     2372750000   -1.190036982e-01   -2.153910100e-01
     2373500000   -9.772558510e-02   -2.267345935e-01
     2374250000   -7.390628755e-02   -2.373393178e-01
     2375000000   -5.405896157e-02   -2.425810397e-01
     2375750000   -2.787682414e-02   -2.479663789e-01
     2376500000   -4.935291130e-03   -2.503701150e-01
     2377250000    1.642499305e-02   -2.503089011e-01
     2378000000    4.024152458e-02   -2.481909394e-01
     2378750000    6.585767865e-02   -2.436976582e-01
     2379500000    9.244239330e-02   -2.374559939e-01
     2380250000    1.091103926e-01   -2.299970090e-01
     2381000000    1.298331916e-01   -2.189232856e-01
     2381750000    1.529432237e-01   -2.050769776e-01
     2382500000    1.715668291e-01   -1.907005608e-01
     2383250000    1.914718598e-01   -1.730867028e-01
     2384000000    2.081269920e-01   -1.537671983e-01
     2384750000    2.200386822e-01   -1.359888762e-01
     2385500000    2.312599570e-01   -1.168270111e-01
     2386250000    2.437281162e-01   -9.224249423e-02
     2387000000    2.500552833e-01   -7.196446508e-02
     2387750000    2.594049275e-01   -4.396063834e-02
     2388500000    2.615424395e-01   -2.212770469e-02
     2389250000    2.630302608e-01    2.037000144e-03
     2390000000    2.626058459e-01    2.932962775e-02
     2390750000    2.591196597e-01    5.285917968e-02
     2391500000    2.540085018e-01    7.646452636e-02
     2392250000    2.469964921e-01    1.023185030e-01
     2393000000    2.366411686e-01    1.246085912e-01
     2393750000    2.251742482e-01    1.434010118e-01
     2394500000    2.099580318e-01    1.699357629e-01
     2395250000    1.956702173e-01    1.851027012e-01
     2396000000    1.771370023e-01    2.040256262e-01
     2396750000    1.576850414e-01    2.207781225e-01
     2397500000    1.370487660e-01    2.355946302e-01
     2398250000    1.146799400e-01    2.469577938e-01
     2399000000    9.181496501e-02    2.572680712e-01
     2399750000    6.767381728e-02    2.648610771e-01
     2400500000    4.217913002e-02    2.710536122e-01
     2401250000    1.694793627e-02    2.744475305e-01
     2402000000   -9.830689989e-03    2.755544186e-01
     2402750000   -3.528573364e-02    2.741815746e-01
     2403500000   -6.126240268e-02    2.698737979e-01
     2404250000   -8.778816462e-02    2.641524076e-01
     2405000000   -1.125128120e-01    2.556627691e-01
     2405750000   -1.361647248e-01    2.450285107e-01
     2406500000   -1.596682221e-01    2.315684855e-01
     2407250000   -1.801370084e-01    2.173971534e-01
     2408000000   -2.012196481e-01    1.999967098e-01
     2408750000   -2.209899276e-01    1.814396679e-01
     2409500000   -2.362092137e-01    1.617540568e-01
     2410250000   -2.509551346e-01    1.403054148e-01
     2411000000   -2.637463510e-01    1.176078618e-01
     2411750000   -2.746783495e-01    9.229701012e-02
     2412500000   -2.829221785e-01    6.694220006e-02
     2413250000   -2.878158391e-01    4.274330661e-02
     2414000000   -2.915636301e-01    1.445114333e-02
     2414750000   -2.917269170e-01   -1.231988333e-02
     2415500000   -2.910479903e-01   -3.835072741e-02
     2416250000   -2.869777381e-01   -6.558816880e-02
     2417000000   -2.800833583e-01   -9.275455028e-02
     2417750000   -2.717774510e-01   -1.159156412e-01
     2418500000   -2.607549429e-01   -1.425714940e-01
     2419250000   -2.461327761e-01   -1.666246504e-01
     2420000000   -2.310481966e-01   -1.883861721e-01
     2420750000   -2.133474201e-01   -2.104368508e-01
     2421500000   -1.938820928e-01   -2.290587574e-01
     2422250000   -1.727902442e-01   -2.461413294e-01
     2423000000   -1.508143693e-01   -2.616121471e-01
     2423750000   -1.250390112e-01   -2.756014764e-01
     2424500000   -9.877615422e-02   -2.866208851e-01
     2425250000   -7.498075813e-02   -2.943796515e-01
     2426000000   -4.656548798e-02   -3.012093008e-01
     2426750000   -1.968309842e-02   -3.049106300e-01
     2427500000    1.198782399e-02   -3.072192371e-01
     2428250000    3.468680009e-02   -3.043290377e-01
     2429000000    6.266897917e-02   -3.010281026e-01
     2429750000    9.372477233e-02   -2.939540446e-01
     2430500000    1.169404387e-01   -2.851515114e-01
     2431250000    1.440649331e-01   -2.738114595e-01
     2432000000    1.648252457e-01   -2.616128922e-01
     2432750000    1.914012283e-01   -2.446726710e-01
     2433500000    2.180659473e-01   -2.240876704e-01
     2434250000    2.351190895e-01   -2.073926032e-01
     2435000000    2.509539723e-01   -1.890878379e-01
     2435750000    2.724920511e-01   -1.591600329e-01
     2436500000    2.831255496e-01   -1.391669512e-01
     2437250000    2.972979546e-01   -1.094489768e-01
     2438000000    3.056463599e-01   -8.659981191e-02
     2438750000    3.143467605e-01   -5.569385737e-02
     2439500000    3.190800846e-01   -2.708404884e-02
     2440250000    3.195900917e-01   -1.305218902e-03
     2441000000    3.198788166e-01    2.349370345e-02
     2441750000    3.166922331e-01    5.757477880e-02
     2442500000    3.101570308e-01    8.824962378e-02
     2443250000    3.033327162e-01    1.097234562e-01
     2444000000    2.913822234e-01    1.404701173e-01
     2444750000    2.790687680e-01    1.650037318e-01
     2445500000    2.643226385e-01    1.871742606e-01
     2446250000    2.441122830e-01    2.166671604e-01
     2447000000    2.243210226e-01    2.360536158e-01
     2447750000    2.052781731e-01    2.524337471e-01
     2448500000    1.805150807e-01    2.720504105e-01
     2449250000    1.572445035e-01    2.863080204e-01
     2450000000    1.310494840e-01    2.994064391e-01
     2450750000    1.044927090e-01    3.101593256e-01
     2451500000    7.656911016e-02    3.199643791e-01
     2452250000    4.568231478e-02    3.250774145e-01
     2453000000    1.720504090e-02    3.277372122e-01
     2453750000   -1.062186807e-02    3.288050890e-01
     2454500000   -4.064226523e-02    3.253956735e-01
     2455250000   -7.048847526e-02    3.211053610e-01
     2456000000   -9.828143567e-02    3.135265708e-01
     2456750000   -1.277120709e-01    3.031532466e-01
     2457500000   -1.543256342e-01    2.908413708e-01
     2458250000   -1.783717126e-01    2.774797976e-01
     2459000000   -2.046535611e-01    2.603410184e-01
     2459750000   -2.277158797e-01    2.395615727e-01
     2460500000   -2.472248524e-01    2.199808806e-01
     2461250000   -2.664557397e-01    1.984045804e-01
     2462000000   -2.847493291e-01    1.711170524e-01
     2462750000   -2.983763516e-01    1.471294761e-01
     2463500000   -3.101613224e-01    1.190207377e-01
     2464250000   -3.195125163e-01    9.250263125e-02
     2465000000   -3.279211819e-01    6.257134676e-02
     2465750000   -3.311193287e-01    3.316907585e-02
     2466500000   -3.340197802e-01    4.911553115e-03
     2467250000   -3.326911032e-01   -2.816215530e-02
     2468000000   -3.294441104e-01   -5.248569697e-02
     2468750000   -3.237397671e-01   -8.589958400e-02
     2469500000   -3.158539236e-01   -1.106690690e-01
     2470250000   -3.058870137e-01   -1.361344010e-01
     2471000000   -2.910474241e-01   -1.674004197e-01
     2471750000   -2.727660537e-01   -1.954172999e-01
     2472500000   -2.592355013e-01   -2.130518258e-01
     2473250000   -2.351121604e-01   -2.381246537e-01
     2474000000   -2.177498490e-01   -2.542745173e-01
     2474750000   -1.888553351e-01   -2.764874995e-01
     2475500000   -1.706659794e-01   -2.886015177e-01
     2476250000   -1.374410242e-01   -3.050766587e-01
     2477000000   -1.122858226e-01   -3.150240481e-01
     2477750000   -8.368250728e-02   -3.230578005e-01
     2478500000   -5.300191417e-02   -3.291393220e-01
     2479250000   -2.576027624e-02   -3.320101798e-01
     2480000000    5.864148960e-03   -3.348819315e-01
     2480750000    3.425642475e-02   -3.314908743e-01
     2481500000    6.377966702e-02   -3.269380629e-01
     2482250000    9.105606377e-02   -3.207098246e-01
     2483000000    1.185593978e-01   -3.116826713e-01
     2483750000    1.493987441e-01   -2.979845107e-01
     2484500000    1.726406813e-01   -2.853286564e-01
     2485250000    1.983383149e-01   -2.682188153e-01
     2486000000    2.200823724e-01   -2.488854527e-01
     2486750000    2.408297658e-01   -2.281432450e-01
     2487500000    2.597106695e-01   -2.066246867e-01
     2488250000    2.771231234e-01   -1.825090200e-01
     2489000000    2.917066514e-01   -1.569051445e-01
     2489750000    3.050934672e-01   -1.286534071e-01
     2490500000    3.143378794e-01   -1.007083580e-01
     2491250000    3.230584264e-01   -7.292310148e-02
     2492000000    3.281540275e-01   -4.053644463e-02
     2492750000    3.305008709e-01   -1.550746057e-02
     2493500000    3.303942978e-01    1.334095187e-02
     2494250000    3.282678425e-01    4.448029771e-02
     2495000000    3.234606683e-01    7.440871000e-02
     2495750000    3.162015378e-01    1.014634892e-01
     2496500000    3.056356907e-01    1.294403374e-01
     2497250000    2.933065891e-01    1.550535113e-01
     2498000000    2.797646224e-01    1.796305180e-01
     2498750000    2.590654194e-01    2.063495070e-01
     2499500000    2.419994175e-01    2.268263400e-01
     2500250000    2.238686383e-01    2.442877740e-01
     2501000000    2.016905546e-01    2.630022764e-01
     2501750000    1.748920083e-01    2.808503211e-01
     2502500000    1.479498148e-01    2.948432267e-01
     2503250000    1.247803867e-01    3.055109680e-01
     2504000000    9.598018974e-02    3.151799738e-01
     2504750000    6.766743958e-02    3.212282956e-01
     2505500000    3.812940046e-02    3.261736333e-01
     2506250000    1.046412066e-02    3.276007771e-01
     2507000000   -1.673581079e-02    3.271488845e-01
     2507750000   -4.109399021e-02    3.260221779e-01
     2508500000   -7.365687191e-02    3.188387752e-01
     2509250000   -1.030889302e-01    3.098228574e-01
     2510000000   -1.281868964e-01    3.004357815e-01
     2510750000   -1.541554332e-01    2.873472571e-01
     2511500000   -1.763699949e-01    2.737365067e-01
     2512250000   -2.007364482e-01    2.555398345e-01
     2513000000   -2.193592787e-01    2.389555126e-01
     2513750000   -2.397226095e-01    2.167732120e-01
     2514500000   -2.566899359e-01    1.964496672e-01
     2515250000   -2.714243829e-01    1.730442047e-01
     2516000000   -2.863213420e-01    1.460197419e-01
     2516750000   -2.961991727e-01    1.213665679e-01
     2517500000   -3.047600091e-01    9.816996753e-02
     2518250000   -3.109478354e-01    6.878142804e-02
     2519000000   -3.140255511e-01    4.302956164e-02
     2519750000   -3.159556091e-01    1.905032620e-02
     2520500000   -3.145170510e-01   -1.186082419e-02
     2521250000   -3.096973896e-01   -3.878251463e-02
     2522000000   -3.043239713e-01   -6.441415846e-02
     2522750000   -2.973486781e-01   -8.832102269e-02
     2523500000   -2.868259251e-01   -1.130110323e-01
     2524250000   -2.725054920e-01   -1.390060186e-01
     2525000000   -2.588768899e-01   -1.593839973e-01
     2525750000   -2.409338951e-01   -1.816421598e-01
     2526500000   -2.231919616e-01   -1.994193494e-01
     2527250000   -2.044727355e-01   -2.178450972e-01
     2528000000   -1.822444797e-01   -2.348805517e-01
     2528750000   -1.588081568e-01   -2.490262836e-01
     2529500000   -1.369870156e-01   -2.603438199e-01
     2530250000   -1.116091833e-01   -2.706658244e-01
     2531000000   -8.604899049e-02   -2.785329521e-01
     2531750000   -6.179722399e-02   -2.839214206e-01
     2532500000   -3.582241014e-02   -2.869606614e-01
     2533250000   -7.358060218e-03   -2.877789140e-01
     2534000000    1.572224870e-02   -2.872817218e-01
     2534750000    4.182315245e-02   -2.837045193e-01
     2535500000    6.737805903e-02   -2.780697048e-01
     2536250000    9.054985642e-02   -2.707440555e-01
     2537000000    1.139187291e-01   -2.615994215e-01
     2537750000    1.344691068e-01   -2.504513562e-01
     2538500000    1.556626111e-01   -2.367350161e-01
     2539250000    1.747948676e-01   -2.210591733e-01
     2540000000    1.914464235e-01   -2.056257129e-01
     2540750000    2.087282985e-01   -1.865798235e-01
     2541500000    2.231860012e-01   -1.660002917e-01
     2542250000    2.348233908e-01   -1.467338502e-01
     2543000000    2.464426160e-01   -1.246090084e-01
     2543750000    2.546339333e-01   -1.031796262e-01
     2544500000    2.607114315e-01   -7.972984761e-02
     2545250000    2.652900815e-01   -5.620160699e-02
     2546000000    2.677798271e-01   -3.126718476e-02
     2546750000    2.683477998e-01   -9.608214721e-03
     2547500000    2.672342658e-01    1.299981680e-02
     2548250000    2.636857033e-01    3.675099090e-02
     2549000000    2.588979900e-01    5.751603097e-02
     2549750000    2.500257790e-01    8.077421784e-02
     2550500000    2.419635057e-01    1.007555723e-01
     2551250000    2.290932089e-01    1.213287711e-01
     2552000000    2.187011242e-01    1.381288767e-01
     2552750000    2.040822655e-01    1.552939117e-01
     2553500000    1.880224943e-01    1.706878394e-01
     2554250000    1.695708632e-01    1.857096106e-01
     2555000000    1.570429802e-01    1.959107518e-01
     2555750000    1.356813759e-01    2.080435604e-01
     2556500000    1.158911586e-01    2.168180197e-01
     2557250000    9.469442070e-02    2.235057205e-01
     2558000000    7.859281451e-02    2.291239947e-01
     2558750000    5.654627457e-02    2.325360626e-01
     2559500000    3.130652010e-02    2.333921939e-01
     2560250000    1.315514091e-02    2.336641401e-01
     2561000000   -4.558329470e-03    2.330649197e-01
     2561750000   -2.893618494e-02    2.273148000e-01
     2562500000   -4.590636864e-02    2.228606343e-01
     2563250000   -6.457469612e-02    2.164230794e-01
     2564000000   -8.291402459e-02    2.061112672e-01
     2564750000   -9.963542968e-02    1.968572587e-01
     2565500000   -1.152151451e-01    1.847175807e-01
     2566250000   -1.293397993e-01    1.727350205e-01
     2567000000   -1.424968690e-01    1.579888612e-01
     2567750000   -1.531978399e-01    1.455669552e-01
     2568500000   -1.640894711e-01    1.262983829e-01
     2569250000   -1.731569767e-01    1.106980667e-01
     2570000000   -1.798795015e-01    9.519957751e-02
     2570750000   -1.853075922e-01    7.530887425e-02
     2571500000   -1.887185872e-01    5.798045918e-02
     2572250000   -1.912509501e-01    3.988332301e-02
     2573000000   -1.918589026e-01    2.122032642e-02
     2573750000   -1.917552948e-01    4.381506238e-03
     2574500000   -1.879626811e-01   -1.355689950e-02
     2575250000   -1.851873100e-01   -2.965736762e-02
     2576000000   -1.799748987e-01   -4.670808464e-02
     2576750000   -1.719097495e-01   -6.211406365e-02
     2577500000   -1.645243615e-01   -7.606718689e-02
     2578250000   -1.554851979e-01   -9.005687386e-02
     2579000000   -1.443560421e-01   -1.034561619e-01
     2579750000   -1.327725798e-01   -1.150995791e-01
     2580500000   -1.207594648e-01   -1.250883788e-01
     2581250000   -1.068896428e-01   -1.345764101e-01
     2582000000   -9.400145710e-02   -1.427105069e-01
     2582750000   -7.934375852e-02   -1.490160078e-01
     2583500000   -6.443155557e-02   -1.537106186e-01
     2584250000   -4.972277582e-02   -1.571421325e-01
     2585000000   -3.643629700e-02   -1.597575545e-01
     2585750000   -2.003132738e-02   -1.597101837e-01
     2586500000   -4.461640026e-03   -1.583245099e-01
     2587250000    9.652466513e-03   -1.560783386e-01
     2588000000    2.264075726e-02   -1.555429846e-01
     2588750000    3.753187135e-02   -1.495368928e-01
     2589500000    5.078173801e-02   -1.427330971e-01
     2590250000    6.183871999e-02   -1.369806081e-01
     2591000000    7.393416762e-02   -1.301876456e-01
     2591750000    8.447433263e-02   -1.205038801e-01
     2592500000    9.379010648e-02   -1.100626364e-01
     2593250000    1.025998443e-01   -9.972063452e-02
     2594000000    1.103336439e-01   -9.151207656e-02
     2594750000    1.159575060e-01   -7.920869440e-02
     2595500000    1.209536120e-01   -6.669810414e-02
     2596250000    1.256342083e-01   -5.662504956e-02
     2597000000    1.274556071e-01   -4.313669726e-02
     2597750000    1.298814118e-01   -3.208515421e-02
     2598500000    1.295448244e-01   -2.009258978e-02
     2599250000    1.263294369e-01   -5.989868660e-03
     2600000000    1.259785891e-01    3.164536785e-03
