! NanoVNA-App
! Date: 2026-05-22 17:11:40
! Start: 4.8GHz Stop: 6GHz Points: 401
! S-Parameter data: F S11
# Hz S RI R 50
!     Frequency           S11_Real           S11_Imag
     4800000000   -6.947852671e-02   -7.166344672e-02
     4803000000   -4.051666334e-02   -8.633466065e-02
     4806000000   -6.662181579e-03   -9.269593656e-02
     4809000000    2.340218239e-02   -8.561931551e-02
     4812000000    4.212825745e-02   -6.729787588e-02
     4815000000    6.457430869e-02   -4.435538873e-02
     4818000000    6.812157482e-02   -2.147403546e-02
     4821000000    7.067282498e-02    6.242129020e-03
     4824000000    5.975031108e-02    2.618664131e-02
     4827000000    4.387160391e-02    4.197914153e-02
     4830000000    2.740746364e-02    5.047213659e-02
     4833000000    7.946505211e-03    5.428784713e-02
     4836000000   -9.595332667e-03    5.171134323e-02
     4839000000   -2.415176108e-02    4.370949045e-02
     4842000000   -3.521198407e-02    3.363541886e-02
     4845000000   -3.802463412e-02    2.552107722e-02
     4848000000   -4.385929555e-02    1.049885806e-02
     4851000000   -4.383599386e-02   -2.012029057e-03
     4854000000   -3.987831622e-02   -1.248820312e-02
     4857000000   -3.466337547e-02   -1.714720204e-02
     4860000000   -2.853026986e-02   -2.494157851e-02
     4863000000   -2.264607511e-02   -3.267161176e-02
     4866000000   -5.654068198e-03   -3.610182181e-02
     4869000000   -1.010262291e-03   -3.914881870e-02
     4872000000    6.828765385e-03   -4.280189797e-02
     4875000000    2.343163826e-02   -3.787721321e-02
     4878000000    3.493149206e-02   -3.292683885e-02
     4881000000    4.218704253e-02   -1.632260904e-02
     4884000000    5.085669458e-02   -8.090521209e-03
     4887000000    6.081656367e-02    5.053711589e-03
     4890000000    5.630084500e-02    2.582942694e-02
     4893000000    4.638493806e-02    4.342730716e-02
     4896000000    3.009781055e-02    5.657100677e-02
     4899000000    1.437840983e-02    6.984291971e-02
     4902000000   -9.823599830e-03    7.317319512e-02
     4905000000   -3.439788520e-02    6.762000918e-02
     4908000000   -5.813354626e-02    5.580667779e-02
     4911000000   -7.679105550e-02    3.389861062e-02
     4914000000   -8.977963775e-02    5.587971304e-03
     4917000000   -8.777500689e-02   -2.578645572e-02
     4920000000   -7.809988409e-02   -5.755054206e-02
     4923000000   -5.797080323e-02   -8.539948612e-02
     4926000000   -2.733632922e-02   -1.044487655e-01
     4929000000    9.518362582e-03   -1.030171663e-01
     4932000000    4.822161049e-02   -1.004665643e-01
     4935000000    8.306383342e-02   -7.896815985e-02
     4938000000    1.158484444e-01   -4.816038907e-02
     4941000000    1.210065857e-01   -7.172494661e-03
     4944000000    1.291974485e-01    4.053282738e-02
     4947000000    1.055161878e-01    7.780780643e-02
     4950000000    7.315647602e-02    1.157064438e-01
     4953000000    2.936789207e-02    1.331323087e-01
     4956000000   -2.079850249e-02    1.403728575e-01
     4959000000   -7.287696749e-02    1.286285222e-01
     4962000000   -1.147140414e-01    9.617705643e-02
     4965000000   -1.460260749e-01    5.074779317e-02
     4968000000   -1.565648466e-01   -2.688111737e-03
     4971000000   -1.503300816e-01   -5.974156037e-02
     4974000000   -1.199991927e-01   -1.097651273e-01
     4977000000   -7.416744530e-02   -1.483620554e-01
     4980000000   -1.752309687e-02   -1.691901386e-01
     4983000000    4.519097507e-02   -1.680073440e-01
     4986000000    1.044915318e-01   -1.440288275e-01
     4989000000    1.524363011e-01   -9.945674986e-02
     4992000000    1.791457087e-01   -4.131419584e-02
     4995000000    1.882238388e-01    2.725647204e-02
     4998000000    1.663369536e-01    8.925270289e-02
     5001000000    1.245034114e-01    1.461813897e-01
     5004000000    6.240465492e-02    1.863920540e-01
     5007000000   -7.138939109e-03    1.992832571e-01
     5010000000   -7.652475685e-02    1.838618964e-01
     5013000000   -1.447108835e-01    1.455355585e-01
     5016000000   -1.909699589e-01    8.772883564e-02
     5019000000   -2.154155672e-01    1.320788264e-02
     5022000000   -2.092806101e-01   -6.446812302e-02
     5025000000   -1.758849174e-01   -1.347937137e-01
     5028000000   -1.166971102e-01   -1.923746169e-01
     5031000000   -4.352910444e-02   -2.234638780e-01
     5034000000    3.963376582e-02   -2.263260633e-01
     5037000000    1.207875088e-01   -2.004151791e-01
     5040000000    1.885360628e-01   -1.460150033e-01
     5043000000    2.294312865e-01   -7.045412809e-02
     5046000000    2.442906201e-01    1.885881461e-02
     5049000000    2.246708870e-01    1.029322073e-01
     5052000000    1.740524918e-01    1.800689399e-01
     5055000000    1.008184999e-01    2.343324125e-01
     5058000000    1.150971279e-02    2.574000359e-01
     5061000000   -8.273501694e-02    2.473855764e-01
     5064000000   -1.678573042e-01    2.042315006e-01
     5067000000   -2.319861948e-01    1.332973540e-01
     5070000000   -2.667660415e-01    4.497625306e-02
     5073000000   -2.675361037e-01   -5.337033793e-02
     5076000000   -2.319312990e-01   -1.460966468e-01
     5079000000   -1.659449786e-01   -2.218504548e-01
     5082000000   -7.746802270e-02   -2.690590620e-01
     5085000000    2.437407896e-02   -2.811534405e-01
     5088000000    1.237918586e-01   -2.577874660e-01
     5091000000    2.088020891e-01   -1.994517297e-01
     5094000000    2.674405575e-01   -1.129228175e-01
     5097000000    2.915274799e-01   -1.106374990e-02
     5100000000    2.774889469e-01    9.280058742e-02
     5103000000    2.273058742e-01    1.860064119e-01
     5106000000    1.484258622e-01    2.568086684e-01
     5109000000    4.401299357e-02    2.939807475e-01
     5112000000   -6.166039035e-02    2.939449251e-01
     5115000000   -1.634417474e-01    2.515328228e-01
     5118000000   -2.445824146e-01    1.815101802e-01
     5121000000   -2.938337624e-01    8.202772588e-02
     5124000000   -3.031122386e-01   -2.709853277e-02
     5127000000   -2.734528482e-01   -1.363788694e-01
     5130000000   -2.109218836e-01   -2.252538353e-01
     5133000000   -1.153689325e-01   -2.860460281e-01
     5136000000   -7.378871553e-03   -3.110347688e-01
     5139000000    1.057252735e-01   -2.942694426e-01
     5142000000    2.042368352e-01   -2.407452017e-01
     5145000000    2.765837014e-01   -1.516934633e-01
     5148000000    3.121837974e-01   -4.434966668e-02
     5151000000    3.093366623e-01    7.035268843e-02
     5154000000    2.637198567e-01    1.744333208e-01
     5157000000    1.840873808e-01    2.575260699e-01
     5160000000    8.128062636e-02    3.065453172e-01
     5163000000   -3.231399879e-02    3.164098561e-01
     5166000000   -1.436984837e-01    2.800189555e-01
     5169000000   -2.344993204e-01    2.141721696e-01
     5172000000   -2.964556515e-01    1.149598882e-01
     5175000000   -3.165424168e-01    7.113090833e-04
     5178000000   -2.899794579e-01   -1.076726243e-01
     5181000000   -2.370129973e-01   -2.061240673e-01
     5184000000   -1.534255147e-01   -2.839729786e-01
     5187000000   -3.988427669e-02   -3.129864931e-01
     5190000000    7.387320697e-02   -3.029131591e-01
     5193000000    1.772361994e-01   -2.588132322e-01
     5196000000    2.557329237e-01   -1.790477335e-01
     5199000000    2.988756001e-01   -7.225349545e-02
     5202000000    3.001560867e-01    3.808483854e-02
     5205000000    2.766636312e-01    1.506258696e-01
     5208000000    1.973953843e-01    2.319551259e-01
     5211000000    1.022136360e-01    2.882793546e-01
     5214000000   -9.507853538e-03    3.084774315e-01
     5217000000   -1.180915907e-01    2.838584483e-01
     5220000000   -2.104267478e-01    2.204387039e-01
     5223000000   -2.761005461e-01    1.324213445e-01
     5226000000   -3.013523519e-01    2.583900467e-02
     5229000000   -2.899739146e-01   -8.243671060e-02
     5232000000   -2.389120758e-01   -1.771548539e-01
     5235000000   -1.586553752e-01   -2.485919744e-01
     5238000000   -5.769723281e-02   -2.897032797e-01
     5241000000    4.902038723e-02   -2.888568640e-01
     5244000000    1.525972933e-01   -2.535727620e-01
     5247000000    2.264433354e-01   -1.782124341e-01
     5250000000    2.795889080e-01   -8.517163992e-02
     5253000000    2.855409384e-01    1.781193726e-02
     5256000000    2.654251754e-01    1.254248917e-01
     5259000000    2.005043179e-01    2.046361566e-01
     5262000000    1.131593063e-01    2.528289557e-01
     5265000000    1.327631250e-02    2.836970091e-01
     5268000000   -8.406572789e-02    2.644410133e-01
     5271000000   -1.738129854e-01    2.123933285e-01
     5274000000   -2.348605543e-01    1.351770312e-01
     5277000000   -2.621831298e-01    4.492709413e-02
     5280000000   -2.624490261e-01   -5.914991722e-02
     5283000000   -2.181829512e-01   -1.470926851e-01
     5286000000   -1.497583687e-01   -2.112446725e-01
     5289000000   -6.360019743e-02   -2.494389266e-01
     5292000000    2.980501577e-02   -2.544053197e-01
     5295000000    1.198700964e-01   -2.262665033e-01
     5298000000    1.832737923e-01   -1.679624915e-01
     5301000000    2.335056812e-01   -8.951782435e-02
     5304000000    2.483910024e-01    1.335689565e-03
     5307000000    2.249130607e-01    8.547000587e-02
     5310000000    1.775848567e-01    1.577384472e-01
     5313000000    1.064524502e-01    2.079047114e-01
     5316000000    1.928062923e-02    2.302714884e-01
     5319000000   -6.181165576e-02    2.179820240e-01
     5322000000   -1.368582249e-01    1.810498685e-01
     5325000000   -1.888539493e-01    1.162736416e-01
     5328000000   -2.170294076e-01    4.033266753e-02
     5331000000   -2.152144909e-01   -4.003592953e-02
     5334000000   -1.849128157e-01   -1.106903031e-01
     5337000000   -1.303628683e-01   -1.686695963e-01
     5340000000   -6.020677835e-02   -2.012321800e-01
     5343000000    1.305144280e-02   -2.007762492e-01
     5346000000    8.032026142e-02   -1.809651554e-01
     5349000000    1.396025419e-01   -1.354148686e-01
     5352000000    1.734939069e-01   -7.087460160e-02
     5355000000    1.862187833e-01   -1.826252090e-03
     5358000000    1.721960753e-01    7.443280518e-02
     5361000000    1.299902201e-01    1.140516624e-01
     5364000000    7.242713869e-02    1.673368961e-01
     5367000000    2.244817652e-02    1.596566886e-01
     5370000000   -4.903765023e-02    1.602839082e-01
     5373000000   -1.012846902e-01    1.304053962e-01
     5376000000   -1.498700678e-01    8.336970210e-02
     5379000000   -1.515336484e-01    2.789111435e-02
     5382000000   -1.600262523e-01   -4.044480994e-02
     5385000000   -1.254604012e-01   -8.436436951e-02
     5388000000   -8.330270648e-02   -1.376907080e-01
     5391000000   -3.178746253e-02   -1.377115250e-01
     5394000000    2.132880688e-02   -1.368730515e-01
     5397000000    6.526618451e-02   -1.127592474e-01
     5400000000    1.023228019e-01   -8.020667732e-02
     5403000000    1.467351615e-01   -2.396190912e-02
     5406000000    1.272798479e-01    1.112146396e-02
     5409000000    1.122203767e-01    5.727950856e-02
     5412000000    8.213703334e-02    8.764575422e-02
     5415000000    3.926561773e-02    1.155811399e-01
     5418000000   -5.145151634e-03    1.153416261e-01
     5421000000   -5.165104195e-02    1.018074751e-01
     5424000000   -7.407606393e-02    7.102425396e-02
     5427000000   -8.710110188e-02    3.885807469e-02
     5430000000   -1.031456366e-01   -1.081132796e-02
     5433000000   -8.329936117e-02   -3.369596973e-02
     5436000000   -6.120615453e-02   -6.989657879e-02
     5439000000   -2.889153548e-02   -8.411333710e-02
     5442000000    1.424514130e-02   -9.630400687e-02
     5445000000    2.746598609e-02   -7.677502930e-02
     5448000000    5.439962819e-02   -5.893393978e-02
     5451000000    8.408426493e-02   -2.519608475e-02
     5454000000    7.431099564e-02   -1.632082276e-03
     5457000000    6.934171915e-02    3.113075532e-02
     5460000000    4.873205349e-02    5.632234737e-02
     5463000000    2.547051571e-02    6.236352399e-02
     5466000000   -2.392082242e-03    6.457596272e-02
     5469000000   -3.134469315e-02    5.881655961e-02
     5472000000   -5.091511831e-02    3.785761073e-02
     5475000000   -5.919510871e-02    1.516257972e-02
     5478000000   -5.656642467e-02   -8.911377750e-03
     5481000000   -4.141403735e-02   -1.881967299e-02
     5484000000   -2.826586366e-02   -5.030613765e-02
     5487000000   -5.345525220e-03   -5.364367738e-02
     5490000000    1.275246870e-02   -4.079327360e-02
     5493000000    3.078451939e-02   -3.036149777e-02
     5496000000    5.310500413e-02   -1.474634930e-02
     5499000000    4.167955369e-02    5.694110412e-03
     5502000000    3.354710340e-02    2.195373178e-02
     5505000000    2.117291465e-02    3.935908154e-02
     5508000000    2.953496063e-03    4.882720485e-02
     5511000000   -1.904032566e-02    4.704693332e-02
     5514000000   -3.627464175e-02    3.143193945e-02
     5517000000   -4.509871081e-02    1.215892565e-02
     5520000000   -5.546058714e-02   -8.787680417e-03
     5523000000   -3.701292351e-02   -2.696374431e-02
     5526000000   -2.786442824e-02   -4.530230165e-02
     5529000000   -6.613183301e-03   -5.859537050e-02
     5532000000    1.920185797e-02   -5.508877337e-02
     5535000000    4.624960572e-02   -5.690832436e-02
     5538000000    5.776149035e-02   -2.471523732e-02
     5541000000    7.183238864e-02   -2.182309981e-03
     5544000000    7.005323470e-02    2.525272220e-02
     5547000000    6.482433528e-02    5.407014489e-02
     5550000000    3.249026835e-02    7.291304320e-02
     5553000000    6.335463375e-03    9.193325788e-02
     5556000000   -3.057006374e-02    7.351637632e-02
     5559000000   -6.169294566e-02    7.132384181e-02
     5562000000   -8.581375331e-02    4.312241450e-02
     5565000000   -9.910627455e-02    7.342455909e-03
     5568000000   -9.254526347e-02   -3.197649494e-02
     5571000000   -7.356102765e-02   -6.789647788e-02
     5574000000   -4.654550925e-02   -9.431675822e-02
     5577000000   -6.196596194e-03   -1.071477234e-01
     5580000000    3.470043093e-02   -1.037758812e-01
     5583000000    7.345508784e-02   -8.363573998e-02
     5586000000    1.078688800e-01   -5.688110366e-02
     5589000000    1.146284789e-01   -9.103228338e-03
     5592000000    1.169859767e-01    3.618710116e-02
     5595000000    9.918331355e-02    8.081342280e-02
     5598000000    6.362223625e-02    1.142712086e-01
     5601000000    1.345324237e-02    1.300365627e-01
     5604000000   -3.671655431e-02    1.297613680e-01
     5607000000   -8.998859674e-02    1.213577613e-01
     5610000000   -1.282042265e-01    7.728087157e-02
     5613000000   -1.457185000e-01    2.132127807e-02
     5616000000   -1.518523842e-01   -3.279104456e-02
     5619000000   -1.326554567e-01   -8.999639750e-02
     5622000000   -9.424844384e-02   -1.382098794e-01
     5625000000   -3.910441697e-02   -1.659797579e-01
     5628000000    2.550710179e-02   -1.720239222e-01
     5631000000    8.553641289e-02   -1.509384960e-01
     5634000000    1.442663521e-01   -1.185954735e-01
     5637000000    1.752471626e-01   -5.515387654e-02
     5640000000    1.888826340e-01    1.191317290e-02
     5643000000    1.704537868e-01    7.718550414e-02
     5646000000    1.431884915e-01    1.497946978e-01
     5649000000    7.663844526e-02    1.834324896e-01
     5652000000    7.011403330e-03    1.912274510e-01
     5655000000   -7.039888948e-02    1.924745888e-01
     5658000000   -1.354788393e-01    1.531892270e-01
     5661000000   -1.835867316e-01    9.490687400e-02
     5664000000   -2.038974166e-01    2.010791562e-02
     5667000000   -2.070589960e-01   -5.796913430e-02
     5670000000   -1.718200594e-01   -1.304975897e-01
     5673000000   -1.151613817e-01   -1.983379722e-01
     5676000000   -3.653880209e-02   -2.091213018e-01
     5679000000    4.654029384e-02   -2.190836072e-01
     5682000000    1.299569458e-01   -1.899279058e-01
     5685000000    1.865754724e-01   -1.293960363e-01
     5688000000    2.295928597e-01   -5.330201238e-02
     5691000000    2.354577631e-01    3.579122573e-02
     5694000000    2.074885815e-01    1.208197251e-01
     5697000000    1.552381068e-01    1.974381655e-01
     5700000000    7.338146865e-02    2.445902228e-01
     5703000000   -1.422928087e-02    2.428849339e-01
     5706000000   -1.113081202e-01    2.301913202e-01
     5709000000   -1.869763881e-01    1.740828305e-01
     5712000000   -2.482906282e-01    9.256624430e-02
     5715000000   -2.554168701e-01    1.261458965e-03
     5718000000   -2.411484569e-01   -9.746995568e-02
     5721000000   -1.900829077e-01   -1.778708845e-01
     5724000000   -1.099055409e-01   -2.560740709e-01
     5727000000   -1.228902210e-02   -2.724639177e-01
     5730000000    8.511153609e-02   -2.570839524e-01
     5733000000    1.832703799e-01   -2.124337405e-01
     5736000000    2.526520193e-01   -1.308507621e-01
     5739000000    2.903794050e-01   -3.020319343e-02
     5742000000    2.816573679e-01    7.675565034e-02
     5745000000    2.399384528e-01    1.876706332e-01
     5748000000    1.590811610e-01    2.660469711e-01
     5751000000    5.541615933e-02    3.008551896e-01
     5754000000   -6.406688690e-02    3.100672662e-01
     5757000000   -1.598550975e-01    2.627121806e-01
     5760000000   -2.662114203e-01    1.865982860e-01
     5763000000   -3.060125113e-01    8.748219162e-02
     5766000000   -3.372202218e-01   -4.814274609e-02
     5769000000   -2.946147919e-01   -1.628965139e-01
     5772000000   -2.171896249e-01   -2.419113666e-01
     5775000000   -1.151645109e-01   -3.070696592e-01
     5778000000    1.751879044e-02   -3.482241631e-01
     5781000000    1.435998976e-01   -3.218427598e-01
     5784000000    2.470034063e-01   -2.468838841e-01
     5787000000    3.141243160e-01   -1.443029195e-01
     5790000000    3.539540470e-01   -1.730641164e-02
     5793000000    3.422984481e-01    1.224107668e-01
     5796000000    2.765427828e-01    2.371803075e-01
     5799000000    1.719182134e-01    3.275576532e-01
     5802000000    3.893115744e-02    3.749231994e-01
     5805000000   -7.883880287e-02    3.556765318e-01
     5808000000   -2.306235284e-01    3.067866862e-01
     5811000000   -3.247219324e-01    2.051700652e-01
     5814000000   -3.693396151e-01    8.584288508e-02
     5817000000   -3.836024106e-01   -6.707816571e-02
     5820000000   -3.358782530e-01   -2.177941948e-01
     5823000000   -2.427533865e-01   -3.097186685e-01
     5826000000   -1.158917397e-01   -3.792555928e-01
     5829000000    3.262016922e-02   -4.002568722e-01
     5832000000    1.988317072e-01   -3.645684719e-01
     5835000000    2.988427877e-01   -2.756889462e-01
     5838000000    3.831168711e-01   -1.479946822e-01
     5841000000    4.119052887e-01    1.042288844e-03
     5844000000    3.903678060e-01    1.659271717e-01
     5847000000    3.072436750e-01    2.904243767e-01
     5850000000    1.827141792e-01    3.843311965e-01
     5853000000    2.875546925e-02    4.294221401e-01
     5856000000   -1.330367476e-01    4.140437543e-01
     5859000000   -2.656306028e-01    3.424223363e-01
     5862000000   -3.745832443e-01    2.237235010e-01
     5865000000   -4.389011860e-01    6.009637937e-02
     5868000000   -4.296272099e-01   -9.701499343e-02
     5871000000   -3.692482412e-01   -2.498978525e-01
     5874000000   -2.593814731e-01   -3.662836552e-01
     5877000000   -1.062857062e-01   -4.414032698e-01
     5880000000    6.942836940e-02   -4.568213522e-01
     5883000000    2.400965393e-01   -4.001855850e-01
     5886000000    3.622393608e-01   -2.911708355e-01
     5889000000    4.454592168e-01   -1.454458833e-01
     5892000000    4.724608064e-01    2.722864226e-02
     5895000000    4.312389493e-01    1.915557384e-01
     5898000000    3.257283866e-01    3.505670130e-01
     5901000000    2.043626904e-01    4.255283177e-01
     5904000000    1.391334180e-02    4.796171784e-01
     5907000000   -1.677948385e-01    4.571821094e-01
     5910000000   -3.440965414e-01    3.563168049e-01
     5913000000   -4.412919283e-01    2.201802880e-01
     5916000000   -4.920795560e-01    6.299512088e-02
     5919000000   -4.818943441e-01   -1.472174823e-01
     5922000000   -4.033963382e-01   -2.986138165e-01
     5925000000   -2.663853168e-01   -4.314819574e-01
     5928000000   -9.437292069e-02   -5.023591518e-01
     5931000000    9.167330712e-02   -5.016712546e-01
     5934000000    2.770814598e-01   -4.352714121e-01
     5937000000    4.167116284e-01   -3.097565472e-01
     5940000000    5.009670258e-01   -1.397995800e-01
     5943000000    5.204234719e-01    6.304787844e-02
     5946000000    4.722198546e-01    2.294211686e-01
     5949000000    3.464503586e-01    4.016502798e-01
     5952000000    2.089136392e-01    4.869377613e-01
     5955000000   -1.489990391e-02    5.354467630e-01
     5958000000   -2.090763748e-01    4.956091344e-01
     5961000000   -3.692098558e-01    3.927849233e-01
     5964000000   -4.782431722e-01    2.542028725e-01
     5967000000   -5.437645912e-01    2.430042997e-02
     5970000000   -5.296231508e-01   -1.367085874e-01
     5973000000   -4.205884635e-01   -3.485385180e-01
     5976000000   -2.757725120e-01   -4.755839407e-01
     5979000000   -9.709913284e-02   -5.410670638e-01
     5982000000    1.036460102e-01   -5.449578166e-01
     5985000000    3.239406049e-01   -4.522442818e-01
     5988000000    4.583309293e-01   -3.210018873e-01
     5991000000    5.435111523e-01   -1.290403306e-01
     5994000000    5.568655133e-01    8.212351054e-02
     5997000000    4.977757633e-01    2.698369324e-01
     6000000000    3.606498837e-01    4.336408079e-01
