! NanoVNA-App
! Date: 2026-05-22 17:26:29
! Start: 4.8GHz Stop: 6GHz Points: 401
! S-Parameter data: F S11
# Hz S RI R 50
!     Frequency           S11_Real           S11_Imag
     4800000000   -5.375621840e-02   -4.698001966e-02
     4803000000   -3.061799519e-02   -6.176750362e-02
     4806000000   -7.068402600e-03   -6.258422881e-02
     4809000000    1.754624583e-02   -5.976958200e-02
     4812000000    3.019598871e-02   -4.662516341e-02
     4815000000    4.458456486e-02   -3.254825249e-02
     4818000000    4.851976782e-02   -1.643099450e-02
     4821000000    4.820751399e-02   -5.322000652e-05
     4824000000    4.313534126e-02    1.485485211e-02
     4827000000    3.406186402e-02    2.373321727e-02
     4830000000    2.464160696e-02    3.129556775e-02
     4833000000    1.336508896e-02    3.186340630e-02
     4836000000    3.841527505e-03    3.176782280e-02
     4839000000   -2.435556846e-03    2.865802124e-02
     4842000000   -8.039082401e-03    2.440135926e-02
     4845000000   -1.161584351e-02    2.134627663e-02
     4848000000   -1.504522935e-02    1.861446165e-02
     4851000000   -1.775476150e-02    1.610243879e-02
     4854000000   -2.167891525e-02    8.658085950e-03
     4857000000   -2.645209432e-02    6.254527252e-03
     4860000000   -2.723352425e-02   -2.525012940e-03
     4863000000   -3.635718673e-02   -8.839287795e-03
     4866000000   -2.732340991e-02   -1.796925999e-02
     4869000000   -2.963269874e-02   -3.116532415e-02
     4872000000   -2.023503371e-02   -4.057922587e-02
     4875000000   -6.070329808e-03   -4.721974954e-02
     4878000000    9.392107837e-03   -4.985818267e-02
     4881000000    2.582733892e-02   -4.896518961e-02
     4884000000    4.615338519e-02   -4.398197681e-02
     4887000000    5.622139946e-02   -2.557000518e-02
     4890000000    6.842797995e-02   -5.287850276e-03
     4893000000    6.785229594e-02    1.871855371e-02
     4896000000    6.315799057e-02    4.531073198e-02
     4899000000    4.483174160e-02    6.520044059e-02
     4902000000    1.959219947e-02    8.085130155e-02
     4905000000   -1.000483055e-02    8.842001110e-02
     4908000000   -3.921217844e-02    8.198232204e-02
     4911000000   -6.699201465e-02    6.555733085e-02
     4914000000   -9.015005082e-02    3.956584632e-02
     4917000000   -1.031558812e-01    4.613189492e-03
     4920000000   -1.017886698e-01   -3.380804881e-02
     4923000000   -8.680813760e-02   -6.877565384e-02
     4926000000   -5.804030597e-02   -1.007390395e-01
     4929000000   -1.901260577e-02   -1.132060066e-01
     4932000000    2.435097285e-02   -1.176247373e-01
     4935000000    6.862725317e-02   -1.065107882e-01
     4938000000    1.065779999e-01   -7.788499445e-02
     4941000000    1.307899356e-01   -3.618494049e-02
     4944000000    1.418560594e-01    1.269470062e-02
     4947000000    1.290956736e-01    5.869589746e-02
     4950000000    1.033207700e-01    1.094987169e-01
     4953000000    6.072381884e-02    1.440245807e-01
     4956000000    6.888646632e-03    1.583443433e-01
     4959000000   -5.084237456e-02    1.552963555e-01
     4962000000   -1.026920155e-01    1.292037368e-01
     4965000000   -1.448286921e-01    8.492302895e-02
     4968000000   -1.700536609e-01    2.895144746e-02
     4971000000   -1.735779643e-01   -3.413501754e-02
     4974000000   -1.533068717e-01   -9.471658617e-02
     4977000000   -1.128497347e-01   -1.473743767e-01
     4980000000   -5.378962308e-02   -1.820909083e-01
     4983000000    1.335775759e-02   -1.905813813e-01
     4986000000    8.285934478e-02   -1.780437529e-01
     4989000000    1.455387771e-01   -1.388525367e-01
     4992000000    1.843300909e-01   -8.028341830e-02
     4995000000    2.053610086e-01   -9.396802634e-03
     4998000000    1.993970573e-01    6.749911606e-02
     5001000000    1.649991572e-01    1.361996382e-01
     5004000000    1.054828092e-01    1.917499304e-01
     5007000000    3.458624333e-02    2.176280320e-01
     5010000000   -4.283275083e-02    2.181628793e-01
     5013000000   -1.254310161e-01    1.898656338e-01
     5016000000   -1.880011261e-01    1.361653805e-01
     5019000000   -2.258936614e-01    6.151541322e-02
     5022000000   -2.360997200e-01   -2.290684357e-02
     5025000000   -2.148693353e-01   -1.071281806e-01
     5028000000   -1.628559828e-01   -1.803652644e-01
     5031000000   -9.085252136e-02   -2.299882025e-01
     5034000000   -7.322888705e-04   -2.494383007e-01
     5037000000    8.927743137e-02   -2.375089824e-01
     5040000000    1.710849851e-01   -1.923674792e-01
     5043000000    2.302271426e-01   -1.197274551e-01
     5046000000    2.621493340e-01   -2.987345681e-02
     5049000000    2.593391240e-01    6.407707930e-02
     5052000000    2.203703523e-01    1.567348391e-01
     5055000000    1.529580504e-01    2.272658050e-01
     5058000000    6.297439337e-02    2.712128460e-01
     5061000000   -3.650088608e-02    2.781511545e-01
     5064000000   -1.342140883e-01    2.486261576e-01
     5067000000   -2.158435285e-01    1.892416328e-01
     5070000000   -2.699024379e-01    9.914425015e-02
     5073000000   -2.890098393e-01   -3.976496868e-03
     5076000000   -2.711380720e-01   -1.080636382e-01
     5079000000   -2.161375731e-01   -1.989719719e-01
     5082000000   -1.312296838e-01   -2.661333084e-01
     5085000000   -2.747303620e-02   -2.987416387e-01
     5088000000    8.123198152e-02   -2.908130586e-01
     5091000000    1.807883680e-01   -2.472417802e-01
     5094000000    2.576551139e-01   -1.664424837e-01
     5097000000    3.024208248e-01   -6.443087012e-02
     5100000000    3.085502386e-01    4.554266110e-02
     5103000000    2.707402408e-01    1.534969956e-01
     5106000000    2.038389444e-01    2.411167175e-01
     5109000000    1.032637209e-01    2.989702523e-01
     5112000000   -1.040192042e-02    3.153436482e-01
     5115000000   -1.238632202e-01    2.910570204e-01
     5118000000   -2.195457220e-01    2.299045324e-01
     5121000000   -2.914166451e-01    1.358858943e-01
     5124000000   -3.218839467e-01    2.512999810e-02
     5127000000   -3.086505830e-01   -9.319501370e-02
     5130000000   -2.590914071e-01   -1.972286999e-01
     5133000000   -1.725448072e-01   -2.771225274e-01
     5136000000   -6.415086985e-02   -3.221754134e-01
     5139000000    5.591877922e-02   -3.223532438e-01
     5142000000    1.672687531e-01   -2.861914933e-01
     5145000000    2.578594685e-01   -2.042059749e-01
     5148000000    3.147386909e-01   -9.908177704e-02
     5151000000    3.307227790e-01    2.050424367e-02
     5154000000    3.013668656e-01    1.382486522e-01
     5157000000    2.325916439e-01    2.378597558e-01
     5160000000    1.331636310e-01    3.060560822e-01
     5163000000    1.701666228e-02    3.360297978e-01
     5166000000   -1.047879532e-01    3.204123974e-01
     5169000000   -2.121237218e-01    2.645781338e-01
     5172000000   -2.930330038e-01    1.720812172e-01
     5175000000   -3.371226788e-01    5.853343382e-02
     5178000000   -3.331966996e-01   -6.508006155e-02
     5181000000   -2.898247242e-01   -1.774064153e-01
     5184000000   -2.109652609e-01   -2.699772120e-01
     5187000000   -9.985712916e-02   -3.233451247e-01
     5190000000    2.276793867e-02   -3.405190408e-01
     5193000000    1.437814236e-01   -3.131369352e-01
     5196000000    2.425094247e-01   -2.421092391e-01
     5199000000    3.077495992e-01   -1.387175024e-01
     5202000000    3.410208523e-01   -2.138413489e-02
     5205000000    3.259935677e-01    9.826598316e-02
     5208000000    2.690451741e-01    2.059464604e-01
     5211000000    1.787037551e-01    2.884269059e-01
     5214000000    6.640239805e-02    3.346382082e-01
     5217000000   -5.762298033e-02    3.351566792e-01
     5220000000   -1.688296497e-01    2.904024720e-01
     5223000000   -2.557797134e-01    2.097221464e-01
     5226000000   -3.136269450e-01    1.055234224e-01
     5229000000   -3.298509121e-01   -1.089019701e-02
     5232000000   -2.994426191e-01   -1.270195693e-01
     5235000000   -2.352024466e-01   -2.142195106e-01
     5238000000   -1.433471888e-01   -2.888313234e-01
     5241000000   -2.957667038e-02   -3.188598454e-01
     5244000000    8.108799160e-02   -3.046962917e-01
     5247000000    1.756797582e-01   -2.524717152e-01
     5250000000    2.605598867e-01   -1.716551781e-01
     5253000000    3.036711514e-01   -6.741964817e-02
     5256000000    3.005191088e-01    3.899933025e-02
     5259000000    2.644650936e-01    1.422752291e-01
     5262000000    1.936728805e-01    2.329263240e-01
     5265000000    9.829714894e-02    2.792961299e-01
     5268000000   -8.481187397e-04    2.914202511e-01
     5271000000   -1.058395058e-01    2.693180144e-01
     5274000000   -1.920371652e-01    2.109761238e-01
     5277000000   -2.475746572e-01    1.300128251e-01
     5280000000   -2.788642943e-01    2.828477696e-02
     5283000000   -2.594960332e-01   -6.078847125e-02
     5286000000   -2.199122310e-01   -1.518190652e-01
     5289000000   -1.484443247e-01   -2.188807875e-01
     5292000000   -5.682234839e-02   -2.579202056e-01
     5295000000    3.621050343e-02   -2.544732094e-01
     5298000000    1.238408387e-01   -2.209426016e-01
     5301000000    1.889403015e-01   -1.612928957e-01
     5304000000    2.351569384e-01   -7.833307981e-02
     5307000000    2.461355180e-01    1.118915342e-02
     5310000000    2.226381600e-01    8.938185871e-02
     5313000000    1.724405289e-01    1.657412648e-01
     5316000000    1.024263650e-01    2.075038850e-01
     5319000000    2.106813341e-02    2.264380902e-01
     5322000000   -6.282451749e-02    2.175334245e-01
     5325000000   -1.351198405e-01    1.781507432e-01
     5328000000   -1.901263595e-01    1.133459732e-01
     5331000000   -2.084779888e-01    4.128671065e-02
     5334000000   -2.091965973e-01   -3.700043261e-02
     5337000000   -1.786253452e-01   -1.112032756e-01
     5340000000   -1.237300411e-01   -1.638379246e-01
     5343000000   -5.715421587e-02   -1.968622804e-01
     5346000000    1.505257282e-02   -1.994246095e-01
     5349000000    8.645018935e-02   -1.776447147e-01
     5352000000    1.367914230e-01   -1.345227212e-01
     5355000000    1.752666682e-01   -7.436401397e-02
     5358000000    1.869803965e-01   -2.966649830e-03
     5361000000    1.690388918e-01    6.251961738e-02
     5364000000    1.345188469e-01    1.157526001e-01
     5367000000    8.418255299e-02    1.418057531e-01
     5370000000    2.412616275e-02    1.610993594e-01
     5373000000   -5.161200464e-02    1.648213118e-01
     5376000000   -8.660160005e-02    1.344846636e-01
     5379000000   -1.253062338e-01    9.204216301e-02
     5382000000   -1.643025428e-01    2.379451878e-02
     5385000000   -1.474865079e-01   -1.426461898e-02
     5388000000   -1.307739913e-01   -7.511838526e-02
     5391000000   -8.604359627e-02   -1.307588071e-01
     5394000000   -4.848605022e-02   -1.318594068e-01
     5397000000    1.551812631e-03   -1.365245581e-01
     5400000000    4.571088776e-02   -1.257345974e-01
     5403000000    9.303832054e-02   -9.533150494e-02
     5406000000    1.130447984e-01   -5.697714537e-02
     5409000000    1.252132058e-01   -8.986362256e-03
     5412000000    1.167679727e-01    3.381913155e-02
     5415000000    9.375026822e-02    6.756163388e-02
     5418000000    5.693011731e-02    9.737209231e-02
     5421000000    1.945853792e-02    1.070296615e-01
     5424000000   -1.830379292e-02    1.041664928e-01
     5427000000   -6.195961684e-02    8.237063140e-02
     5430000000   -7.054409385e-02    6.589610130e-02
     5433000000   -9.381724149e-02    1.885945350e-02
     5436000000   -8.880420774e-02   -5.398919340e-03
     5439000000   -7.914593816e-02   -3.912446648e-02
     5442000000   -5.873691663e-02   -5.860443041e-02
     5445000000   -3.306358680e-02   -7.150380313e-02
     5448000000    2.825492295e-03   -7.671084255e-02
     5451000000    2.349397726e-02   -6.813739240e-02
     5454000000    4.962401837e-02   -4.779450223e-02
     5457000000    5.732478946e-02   -3.383377567e-02
     5460000000    6.129557639e-02   -2.815483371e-03
     5463000000    5.870770663e-02    9.885923006e-03
     5466000000    4.194839299e-02    3.559721261e-02
     5469000000    2.951771580e-02    4.182094336e-02
     5472000000    1.935202070e-02    4.650318995e-02
     5475000000   -6.944277789e-03    4.252180085e-02
     5478000000   -1.701910421e-02    3.651939705e-02
     5481000000   -3.037867695e-02    1.837110333e-02
     5484000000   -3.328854963e-02    2.746868879e-03
     5487000000   -3.120486625e-02    3.175175807e-04
     5490000000   -2.519999444e-02   -1.415258180e-02
     5493000000   -9.956903756e-03   -2.272252366e-02
     5496000000   -8.904023096e-03   -2.166990750e-02
     5499000000   -3.390045138e-03   -2.101729810e-02
     5502000000    7.967543788e-03   -1.397549175e-02
     5505000000    1.173501462e-02   -8.893471211e-03
     5508000000    1.078980137e-02   -4.326297902e-03
     5511000000    8.957310580e-03    1.303704921e-03
     5514000000    5.716777872e-03    2.517155372e-04
     5517000000    2.987360116e-03    2.340420848e-03
     5520000000    7.179215085e-03   -3.454579928e-05
     5523000000    1.247947104e-03   -1.855432522e-03
     5526000000    6.225755904e-03    7.846538210e-04
     5529000000    6.739917677e-03   -2.545066178e-03
     5532000000    1.006019674e-02    6.295978092e-03
     5535000000    1.158084255e-02    1.534858486e-03
     5538000000    1.774131879e-02    1.902542775e-03
     5541000000    1.013789512e-02    1.569544151e-02
     5544000000    1.327342237e-03    2.164181322e-02
     5547000000   -2.197110560e-03    2.409666777e-02
     5550000000   -5.822753534e-03    2.809062973e-02
     5553000000   -2.189551108e-02    2.545993589e-02
     5556000000   -3.149940819e-02    1.566697843e-02
     5559000000   -3.854059055e-02   -2.685117302e-03
     5562000000   -3.803882375e-02   -1.695828326e-02
     5565000000   -3.556516021e-02   -2.983520553e-02
     5568000000   -2.137682401e-02   -4.463942721e-02
     5571000000   -4.988723900e-03   -5.258109793e-02
     5574000000    1.543037686e-02   -5.299448594e-02
     5577000000    3.865129501e-02   -4.796736687e-02
     5580000000    5.603361875e-02   -3.747101873e-02
     5583000000    6.664877385e-02   -8.920216933e-03
     5586000000    7.903926820e-02    4.253628198e-03
     5589000000    6.635684520e-02    4.035658017e-02
     5592000000    5.994136259e-02    6.270295382e-02
     5595000000    3.307703137e-02    8.313413709e-02
     5598000000    8.919303218e-05    9.198848903e-02
     5601000000   -3.818780556e-02    8.235109597e-02
     5604000000   -6.727897376e-02    7.232297212e-02
     5607000000   -8.960981667e-02    3.218898550e-02
     5610000000   -1.053306982e-01    8.474508300e-03
     5613000000   -1.117896736e-01   -2.856728993e-02
     5616000000   -9.588247538e-02   -6.733042002e-02
     5619000000   -5.880238488e-02   -9.854212403e-02
     5622000000   -2.727682889e-02   -1.220100820e-01
     5625000000    1.844614185e-02   -1.253941655e-01
     5628000000    6.379650533e-02   -1.109262928e-01
     5631000000    1.045861095e-01   -9.403951466e-02
     5634000000    1.276666969e-01   -4.130435362e-02
     5637000000    1.368453056e-01    1.023948938e-02
     5640000000    1.251408309e-01    5.981696770e-02
     5643000000    1.089861020e-01    1.068386137e-01
     5646000000    5.887182802e-02    1.374603063e-01
     5649000000    5.587466992e-03    1.535635442e-01
     5652000000   -4.993636534e-02    1.516736746e-01
     5655000000   -1.008240059e-01    1.184682697e-01
     5658000000   -1.532967836e-01    8.780202270e-02
     5661000000   -1.661261022e-01    2.447221614e-02
     5664000000   -1.703057140e-01   -3.972664475e-02
     5667000000   -1.442410648e-01   -9.737870097e-02
     5670000000   -1.059085056e-01   -1.520030200e-01
     5673000000   -4.158145934e-02   -1.784399003e-01
     5676000000    2.853246219e-02   -1.811837554e-01
     5679000000    9.622203559e-02   -1.665636152e-01
     5682000000    1.548402756e-01   -1.247455925e-01
     5685000000    1.924225688e-01   -6.303921342e-02
     5688000000    2.081014216e-01    8.705207147e-03
     5691000000    1.883152574e-01    8.363004774e-02
     5694000000    1.452234387e-01    1.458464563e-01
     5697000000    9.075620025e-02    2.072115541e-01
     5700000000    9.383939207e-03    2.230508626e-01
     5703000000   -7.240345329e-02    2.115980089e-01
     5706000000   -1.413175017e-01    1.689690650e-01
     5709000000   -2.076642364e-01    1.122238189e-01
     5712000000   -2.334330827e-01    3.131169453e-02
     5715000000   -2.370113432e-01   -5.830892920e-02
     5718000000   -1.953911036e-01   -1.353366375e-01
     5721000000   -1.409033388e-01   -2.126138061e-01
     5724000000   -5.615726113e-02   -2.540322840e-01
     5727000000    3.440897539e-02   -2.520215213e-01
     5730000000    1.277307123e-01   -2.274239808e-01
     5733000000    2.056648433e-01   -1.669467837e-01
     5736000000    2.504485846e-01   -8.236319572e-02
     5739000000    2.721864581e-01    1.295725722e-02
     5742000000    2.536762059e-01    1.152184084e-01
     5745000000    1.941152960e-01    1.918546855e-01
     5748000000    1.128765047e-01    2.694734633e-01
     5751000000    1.398993190e-02    2.794553638e-01
     5754000000   -8.951936662e-02    2.706432939e-01
     5757000000   -1.980116069e-01    2.265225053e-01
     5760000000   -2.613326311e-01    1.401562691e-01
     5763000000   -3.014881015e-01    3.650458157e-02
     5766000000   -2.981043160e-01   -7.447001338e-02
     5769000000   -2.491366714e-01   -1.793379337e-01
     5772000000   -1.704577357e-01   -2.467543036e-01
     5775000000   -6.147158518e-02   -3.135130107e-01
     5778000000    4.923513904e-02   -3.138774037e-01
     5781000000    1.713648885e-01   -2.852030396e-01
     5784000000    2.516167760e-01   -2.048249841e-01
     5787000000    3.288843036e-01   -9.378974140e-02
     5790000000    3.336510956e-01    1.881269552e-02
     5793000000    3.088350296e-01    1.446043402e-01
     5796000000    2.376842648e-01    2.476599962e-01
     5799000000    1.319165379e-01    3.238519728e-01
     5802000000    2.908861265e-03    3.535650074e-01
     5805000000   -1.229348183e-01    3.327561319e-01
     5808000000   -2.429987341e-01    2.707820535e-01
     5811000000   -3.277630210e-01    1.658605635e-01
     5814000000   -3.681547940e-01    3.979032859e-02
     5817000000   -3.617620766e-01   -1.015366167e-01
     5820000000   -3.029143810e-01   -2.470327020e-01
     5823000000   -2.041915059e-01   -3.186675012e-01
     5826000000   -7.387402654e-02   -3.752254546e-01
     5829000000    7.024127990e-02   -3.822610974e-01
     5832000000    2.184971273e-01   -3.336907923e-01
     5835000000    3.119158745e-01   -2.406343371e-01
     5838000000    3.791116178e-01   -1.161039546e-01
     5841000000    4.052316844e-01    4.469434544e-02
     5844000000    3.662035167e-01    1.705483496e-01
     5847000000    2.772019506e-01    3.100282848e-01
     5850000000    1.488009691e-01    3.910559416e-01
     5853000000    2.449019346e-03    4.200793803e-01
     5856000000   -1.550622135e-01    3.963222206e-01
     5859000000   -2.967458367e-01    3.154354692e-01
     5862000000   -3.894926906e-01    1.893921942e-01
     5865000000   -4.309653044e-01    4.145104438e-02
     5868000000   -4.206061363e-01   -1.225412786e-01
     5871000000   -3.505816758e-01   -2.767656744e-01
     5874000000   -2.360646129e-01   -3.795221746e-01
     5877000000   -7.503929734e-02   -4.451894164e-01
     5880000000    7.803136855e-02   -4.438228309e-01
     5883000000    2.430826575e-01   -3.891666830e-01
     5886000000    3.816176057e-01   -2.686684430e-01
     5889000000    4.433313012e-01   -1.281054467e-01
     5892000000    4.687910080e-01    6.227356195e-02
     5895000000    4.235175848e-01    1.984549612e-01
     5898000000    3.015091419e-01    3.765304983e-01
     5901000000    1.684111208e-01    4.477780461e-01
     5904000000   -3.996654414e-03    4.793273807e-01
     5907000000   -1.828708500e-01    4.478514791e-01
     5910000000   -3.420425653e-01    3.508786261e-01
     5913000000   -4.361740649e-01    2.142800242e-01
     5916000000   -4.900500774e-01    4.440292716e-02
     5919000000   -4.733105600e-01   -1.407908648e-01
     5922000000   -3.920195401e-01   -3.094897568e-01
     5925000000   -2.503728271e-01   -4.413381219e-01
     5928000000   -8.789817244e-02   -4.977408350e-01
     5931000000    1.091354638e-01   -4.980506599e-01
     5934000000    2.802055478e-01   -4.288325906e-01
     5937000000    4.210923314e-01   -3.003463447e-01
     5940000000    5.009253621e-01   -1.336992681e-01
     5943000000    5.165778399e-01    6.913508475e-02
     5946000000    4.599722028e-01    2.496351898e-01
     5949000000    3.381012082e-01    4.036578238e-01
     5952000000    1.837201864e-01    4.938005507e-01
     5955000000   -3.704545274e-02    5.346462727e-01
     5958000000   -1.998528093e-01    4.966523945e-01
     5961000000   -3.884717822e-01    3.763256371e-01
     5964000000   -4.943929911e-01    2.272851169e-01
     5967000000   -5.447575450e-01    2.604071051e-02
     5970000000   -5.218455791e-01   -1.752697229e-01
     5973000000   -4.192951918e-01   -3.564970791e-01
     5976000000   -2.814099193e-01   -4.757450521e-01
     5979000000   -5.477954447e-02   -5.547212958e-01
     5982000000    1.190102175e-01   -5.442495346e-01
     5985000000    3.048563600e-01   -4.718984067e-01
     5988000000    4.697937369e-01   -3.152702153e-01
     5991000000    5.582156777e-01   -1.229570657e-01
     5994000000    5.654548407e-01    8.388812095e-02
     5997000000    5.006724596e-01    2.881549299e-01
     6000000000    3.551638722e-01    4.519156814e-01
