! NanoVNA-App
! Date: 2026-05-22 17:26:15
! Start: 2.3GHz Stop: 2.6GHz Points: 401
! S-Parameter data: F S11
# Hz S RI R 50
!     Frequency           S11_Real           S11_Imag
     2300000000   -2.883400917e-01    8.528894745e-03
     2300750000   -2.866938412e-01   -1.741202921e-02
     2301500000   -2.824744284e-01   -4.226049408e-02
     2302250000   -2.762160897e-01   -6.664508581e-02
     2303000000   -2.673416734e-01   -9.090627730e-02
     2303750000   -2.577028871e-01   -1.129331440e-01
     2304500000   -2.454968393e-01   -1.340298653e-01
     2305250000   -2.318088263e-01   -1.546349674e-01
     2306000000   -2.161294073e-01   -1.728162915e-01
     2306750000   -1.995986402e-01   -1.898393929e-01
     2307500000   -1.811442524e-01   -2.051832378e-01
     2308250000   -1.622351557e-01   -2.189108878e-01
     2309000000   -1.408896893e-01   -2.306190878e-01
     2309750000   -1.201450750e-01   -2.400158346e-01
     2310500000   -9.826437384e-02   -2.484558374e-01
     2311250000   -7.534234971e-02   -2.542794645e-01
     2312000000   -5.305794254e-02   -2.577329874e-01
     2312750000   -3.040100448e-02   -2.596344352e-01
     2313500000   -7.336806506e-03   -2.593403757e-01
     2314250000    1.446525101e-02   -2.575424016e-01
     2315000000    3.692851588e-02   -2.533735931e-01
     2315750000    5.831777677e-02   -2.470217645e-01
     2316500000    7.900463790e-02   -2.398309559e-01
     2317250000    9.797856212e-02   -2.304234654e-01
     2318000000    1.166944653e-01   -2.191424072e-01
     2318750000    1.350457966e-01   -2.062764615e-01
     2319500000    1.498447806e-01   -1.927382499e-01
     2320250000    1.656415462e-01   -1.776018739e-01
     2321000000    1.779538244e-01   -1.609751880e-01
     2321750000    1.889079064e-01   -1.438414752e-01
     2322500000    1.992606670e-01   -1.257642210e-01
     2323250000    2.080777586e-01   -1.077374220e-01
     2324000000    2.138327658e-01   -8.800458163e-02
     2324750000    2.186610550e-01   -6.910865009e-02
     2325500000    2.211237401e-01   -4.908706993e-02
     2326250000    2.221987993e-01   -2.909014188e-02
     2327000000    2.219112813e-01   -9.486774914e-03
     2327750000    2.203224897e-01    9.699736722e-03
     2328500000    2.171949446e-01    2.802528068e-02
     2329250000    2.103492171e-01    4.672449455e-02
     2330000000    2.036824077e-01    6.323237717e-02
     2330750000    1.954675466e-01    8.059093356e-02
     2331500000    1.855744720e-01    9.604743868e-02
     2332250000    1.746284068e-01    1.110494211e-01
     2333000000    1.629661620e-01    1.249946281e-01
     2333750000    1.496820897e-01    1.361653358e-01
     2334500000    1.355724931e-01    1.473871469e-01
     2335250000    1.204851344e-01    1.572362036e-01
     2336000000    1.054764539e-01    1.651436239e-01
     2336750000    8.972050995e-02    1.720340550e-01
     2337500000    7.378014177e-02    1.775936484e-01
     2338250000    5.699152499e-02    1.819683760e-01
     2339000000    4.083494097e-02    1.836129129e-01
     2339750000    2.478722483e-02    1.848183721e-01
     2340500000    8.457309566e-03    1.835800111e-01
     2341250000   -6.946925074e-03    1.818802655e-01
     2342000000   -2.231917717e-02    1.781377643e-01
     2342750000   -3.699048981e-02    1.732403338e-01
     2343500000   -5.161172524e-02    1.676540375e-01
     2344250000   -6.450859457e-02    1.597375423e-01
     2345000000   -7.760170102e-02    1.527466178e-01
     2345750000   -8.830282837e-02    1.424544901e-01
     2346500000   -1.001892611e-01    1.329429746e-01
     2347250000   -1.087755561e-01    1.216343641e-01
     2348000000   -1.185530424e-01    1.109941155e-01
     2348750000   -1.255448312e-01    9.777020663e-02
     2349500000   -1.301902831e-01    8.505465835e-02
     2350250000   -1.362893730e-01    7.227586210e-02
     2351000000   -1.402318031e-01    5.988568068e-02
     2351750000   -1.423838884e-01    4.635491967e-02
     2352500000   -1.455049813e-01    3.318459913e-02
     2353250000   -1.438280493e-01    2.026603743e-02
     2354000000   -1.443252712e-01    6.841024384e-03
     2354750000   -1.412174702e-01   -5.778135266e-03
     2355500000   -1.379915923e-01   -1.818532497e-02
     2356250000   -1.339327693e-01   -2.974816971e-02
     2357000000   -1.309720427e-01   -4.138206318e-02
     2357750000   -1.230076998e-01   -5.117372051e-02
     2358500000   -1.170377359e-01   -6.172976270e-02
     2359250000   -1.102129221e-01   -7.076018304e-02
     2360000000   -1.027426422e-01   -7.925735414e-02
     2360750000   -9.386905283e-02   -8.526527882e-02
     2361500000   -8.550526947e-02   -9.229256213e-02
     2362250000   -7.674854249e-02   -9.879904240e-02
     2363000000   -6.687796116e-02   -1.025594324e-01
     2363750000   -5.725931749e-02   -1.060704514e-01
     2364500000   -4.818836600e-02   -1.087025926e-01
     2365250000   -3.800072521e-02   -1.098791808e-01
     2366000000   -2.836630493e-02   -1.110596433e-01
     2366750000   -1.904130168e-02   -1.106522828e-01
     2367500000   -9.371967055e-03   -1.101051420e-01
     2368250000   -8.834163309e-04   -1.075920537e-01
     2369000000    8.154177107e-03   -1.055958346e-01
     2369750000    1.662230305e-02   -1.020129099e-01
     2370500000    2.418114617e-02   -9.757828712e-02
     2371250000    3.251599893e-02   -9.373772144e-02
     2372000000    3.841395676e-02   -8.801845461e-02
     2372750000    4.465633258e-02   -8.185820282e-02
     2373500000    5.158716813e-02   -7.753144950e-02
     2374250000    5.637650192e-02   -7.120727748e-02
     2375000000    6.149823591e-02   -6.574121863e-02
     2375750000    6.442148238e-02   -5.847306922e-02
     2376500000    6.852556765e-02   -5.328778177e-02
     2377250000    7.025193423e-02   -4.651428387e-02
     2378000000    7.168105245e-02   -4.040602595e-02
     2378750000    7.490041852e-02   -3.409890831e-02
     2379500000    7.396028936e-02   -2.736439556e-02
     2380250000    7.513429224e-02   -2.144141681e-02
     2381000000    7.310008258e-02   -1.587380096e-02
     2381750000    7.150198519e-02   -1.023840811e-02
     2382500000    7.141660899e-02   -4.433192778e-03
     2383250000    6.756823510e-02   -5.966209574e-05
     2384000000    6.738908589e-02    5.663451739e-03
     2384750000    6.340043247e-02    8.564605378e-03
     2385500000    6.162607670e-02    1.399237290e-02
     2386250000    5.775652081e-02    1.717297174e-02
     2387000000    5.436882749e-02    2.064326033e-02
     2387750000    5.069422722e-02    2.266424894e-02
     2388500000    4.734903947e-02    2.580914460e-02
     2389250000    4.361790419e-02    2.903015725e-02
     2390000000    4.017335176e-02    3.060293943e-02
     2390750000    3.613097593e-02    3.184656054e-02
     2391500000    3.292169422e-02    3.521895409e-02
     2392250000    2.989354543e-02    3.524683416e-02
     2393000000    2.628711425e-02    3.615332022e-02
     2393750000    2.338008769e-02    3.697537258e-02
     2394500000    2.072162740e-02    3.629601002e-02
     2395250000    1.794282161e-02    3.687032685e-02
     2396000000    1.552736852e-02    3.827829286e-02
     2396750000    1.336190384e-02    3.812515363e-02
     2397500000    1.207207330e-02    3.694739565e-02
     2398250000    9.568802081e-03    3.728430346e-02
     2399000000    7.742536720e-03    3.706173599e-02
     2399750000    6.905420683e-03    3.651153296e-02
     2400500000    5.762653425e-03    3.638692200e-02
     2401250000    4.719064571e-03    3.585460782e-02
     2402000000    3.064248478e-03    3.630999103e-02
     2402750000    2.029239666e-03    3.633144498e-02
     2403500000    1.429331722e-03    3.614712879e-02
     2404250000   -7.217155071e-04    3.706880286e-02
     2405000000   -8.474559872e-04    3.728872538e-02
     2405750000   -8.181635058e-04    3.778298944e-02
     2406500000   -2.686992986e-03    3.828233108e-02
     2407250000   -3.470893018e-03    3.861149400e-02
     2408000000   -4.683623090e-03    3.938499093e-02
     2408750000   -4.456342664e-03    4.043207690e-02
     2409500000   -6.280438974e-03    4.130383953e-02
     2410250000   -7.890854962e-03    4.191313311e-02
     2411000000   -8.877281100e-03    4.274496436e-02
     2411750000   -1.209815592e-02    4.279723763e-02
     2412500000   -1.354850829e-02    4.415469989e-02
     2413250000   -1.627920195e-02    4.419431835e-02
     2414000000   -1.838819496e-02    4.520677403e-02
     2414750000   -2.133380435e-02    4.578135535e-02
     2415500000   -2.449551784e-02    4.532136023e-02
     2416250000   -2.759895101e-02    4.559801146e-02
     2417000000   -3.091304377e-02    4.529979452e-02
     2417750000   -3.473405167e-02    4.495799914e-02
     2418500000   -3.798200935e-02    4.470958933e-02
     2419250000   -4.167779908e-02    4.372146726e-02
     2420000000   -4.544701800e-02    4.275442660e-02
     2420750000   -4.876603559e-02    4.082640260e-02
     2421500000   -5.253602192e-02    3.950974718e-02
     2422250000   -5.625273660e-02    3.600890934e-02
     2423000000   -5.952188745e-02    3.224842995e-02
     2423750000   -6.314060837e-02    3.053941764e-02
     2424500000   -6.624719501e-02    2.550913393e-02
     2425250000   -6.941721588e-02    2.116102539e-02
     2426000000   -7.144349068e-02    1.599930786e-02
     2426750000   -7.364873588e-02    1.093547698e-02
     2427500000   -7.710435241e-02    6.728622131e-03
     2428250000   -7.763920724e-02   -5.634013796e-04
     2429000000   -7.827936858e-02   -6.742403377e-03
     2429750000   -8.057861030e-02   -1.285110228e-02
     2430500000   -7.747408748e-02   -2.099660784e-02
     2431250000   -7.835281640e-02   -2.731263638e-02
     2432000000   -7.838776708e-02   -3.415400535e-02
     2432750000   -7.614877820e-02   -4.158457741e-02
     2433500000   -7.422252744e-02   -4.931729287e-02
     2434250000   -7.084725797e-02   -5.627910793e-02
     2435000000   -6.749131531e-02   -6.317052990e-02
     2435750000   -6.283438951e-02   -6.976738572e-02
     2436500000   -5.582237244e-02   -7.565932721e-02
     2437250000   -5.234907568e-02   -8.210885525e-02
     2438000000   -4.260940105e-02   -9.183093905e-02
     2438750000   -3.557920828e-02   -9.688338637e-02
     2439500000   -2.790422551e-02   -1.016660258e-01
     2440250000   -2.016666159e-02   -1.064092293e-01
     2441000000   -1.127949450e-02   -1.094231978e-01
     2441750000   -1.617620816e-03   -1.123278439e-01
     2442500000    8.999264799e-03   -1.130594015e-01
     2443250000    1.855602302e-02   -1.144238487e-01
     2444000000    2.902052552e-02   -1.145168170e-01
     2444750000    3.968768567e-02   -1.137139425e-01
     2445500000    5.043164268e-02   -1.120952293e-01
     2446250000    6.093292311e-02   -1.098422855e-01
     2447000000    7.174628973e-02   -1.062252223e-01
     2447750000    8.228613436e-02   -1.011448950e-01
     2448500000    9.247815609e-02   -9.605944157e-02
     2449250000    1.019738689e-01   -8.969424665e-02
     2450000000    1.118067577e-01   -8.282179385e-02
     2450750000    1.200556457e-01   -7.414136082e-02
     2451500000    1.285711825e-01   -6.517651677e-02
     2452250000    1.361380666e-01   -5.495125428e-02
     2453000000    1.429628581e-01   -4.497771710e-02
     2453750000    1.488834471e-01   -3.351931646e-02
     2454500000    1.530707479e-01   -2.151245065e-02
     2455250000    1.564748436e-01   -8.713379502e-03
     2456000000    1.593920141e-01    4.065313376e-03
     2456750000    1.613720804e-01    1.757341437e-02
     2457500000    1.596805900e-01    3.137547523e-02
     2458250000    1.609717607e-01    4.422041029e-02
     2459000000    1.575285643e-01    5.847192928e-02
     2459750000    1.542449445e-01    7.179537416e-02
     2460500000    1.495839506e-01    8.527447283e-02
     2461250000    1.427183598e-01    9.873304516e-02
     2462000000    1.362834722e-01    1.114647985e-01
     2462750000    1.265216768e-01    1.234539077e-01
     2463500000    1.170871407e-01    1.350703835e-01
     2464250000    1.075179577e-01    1.463231891e-01
     2465000000    9.468489885e-02    1.554613113e-01
     2465750000    8.098412305e-02    1.643979549e-01
     2466500000    6.874495000e-02    1.731365621e-01
     2467250000    5.426445603e-02    1.800101846e-01
     2468000000    3.793565556e-02    1.840268672e-01
     2468750000    2.399980463e-02    1.898857802e-01
     2469500000    6.184975617e-03    1.907961220e-01
     2470250000   -9.437927045e-03    1.940195113e-01
     2471000000   -2.671717294e-02    1.935256273e-01
     2471750000   -4.366686940e-02    1.900472194e-01
     2472500000   -6.025601923e-02    1.882273257e-01
     2473250000   -7.707491517e-02    1.830896735e-01
     2474000000   -9.386050701e-02    1.763747931e-01
     2474750000   -1.098703519e-01    1.689942479e-01
     2475500000   -1.248172969e-01    1.599272043e-01
     2476250000   -1.395005882e-01    1.498403549e-01
     2477000000   -1.534142196e-01    1.389089078e-01
     2477750000   -1.658156812e-01    1.233028099e-01
     2478500000   -1.778240949e-01    1.108434573e-01
     2479250000   -1.882590801e-01    9.537726641e-02
     2480000000   -1.968380362e-01    7.775874436e-02
     2480750000   -2.047702521e-01    6.116660312e-02
     2481500000   -2.109842449e-01    4.338406026e-02
     2482250000   -2.160253823e-01    2.423702553e-02
     2483000000   -2.191402316e-01    5.579487886e-03
     2483750000   -2.198619545e-01   -1.436636876e-02
     2484500000   -2.193848342e-01   -3.434393555e-02
     2485250000   -2.168235779e-01   -5.400985107e-02
     2486000000   -2.124915570e-01   -7.377324998e-02
     2486750000   -2.068341225e-01   -9.301135689e-02
     2487500000   -2.002500892e-01   -1.113150269e-01
     2488250000   -1.905878484e-01   -1.298947036e-01
     2489000000   -1.790679693e-01   -1.476033777e-01
     2489750000   -1.680200100e-01   -1.646144539e-01
     2490500000   -1.533797085e-01   -1.796030849e-01
     2491250000   -1.379805505e-01   -1.938930303e-01
     2492000000   -1.212832108e-01   -2.073532641e-01
     2492750000   -1.039056852e-01   -2.190713286e-01
     2493500000   -8.493040502e-02   -2.290520966e-01
     2494250000   -6.515591592e-02   -2.375192642e-01
     2495000000   -4.433684424e-02   -2.444493920e-01
     2495750000   -2.387443371e-02   -2.494738847e-01
     2496500000   -1.851456822e-03   -2.521713972e-01
     2497250000    2.087996900e-02   -2.518326640e-01
     2498000000    4.208731651e-02   -2.514789701e-01
     2498750000    6.523650885e-02   -2.481522560e-01
     2499500000    8.675339073e-02   -2.433891594e-01
     2500250000    1.080188230e-01   -2.366095185e-01
     2501000000    1.296209991e-01   -2.264684737e-01
     2501750000    1.489420682e-01   -2.171372026e-01
     2502500000    1.690008044e-01   -2.021939456e-01
     2503250000    1.870289147e-01   -1.889989972e-01
     2504000000    2.039099932e-01   -1.731228232e-01
     2504750000    2.191676944e-01   -1.547260135e-01
     2505500000    2.332528979e-01   -1.364261508e-01
     2506250000    2.444655299e-01   -1.165525466e-01
     2507000000    2.563386261e-01   -9.421272576e-02
     2507750000    2.642502487e-01   -7.097770274e-02
     2508500000    2.703512013e-01   -4.790528119e-02
     2509250000    2.751403749e-01   -2.387806401e-02
     2510000000    2.762564719e-01    5.793561577e-04
     2510750000    2.768869102e-01    2.630525641e-02
     2511500000    2.747060955e-01    5.029648170e-02
     2512250000    2.714779675e-01    7.408026606e-02
     2513000000    2.644242346e-01    9.889391810e-02
     2513750000    2.552459240e-01    1.224748790e-01
     2514500000    2.444826216e-01    1.452220529e-01
     2515250000    2.312713861e-01    1.674874425e-01
     2516000000    2.161076814e-01    1.880761683e-01
     2516750000    1.998675466e-01    2.070931792e-01
     2517500000    1.806942821e-01    2.259330004e-01
     2518250000    1.610531211e-01    2.418075949e-01
     2519000000    1.384154558e-01    2.561669350e-01
     2519750000    1.159611344e-01    2.688323557e-01
     2520500000    9.162384272e-02    2.792899609e-01
     2521250000    6.740805507e-02    2.881952226e-01
     2522000000    4.015313834e-02    2.935981750e-01
     2522750000    1.431108639e-02    2.974350154e-01
     2523500000   -1.297738589e-02    2.983252406e-01
     2524250000   -3.964294866e-02    2.973331809e-01
     2525000000   -6.630176306e-02    2.943341434e-01
     2525750000   -9.368333220e-02    2.885230482e-01
     2526500000   -1.195235625e-01    2.806023657e-01
     2527250000   -1.452095360e-01    2.701692283e-01
     2528000000   -1.690091640e-01    2.571921349e-01
     2528750000   -1.922354102e-01    2.428849339e-01
     2529500000   -2.146042883e-01    2.250794917e-01
     2530250000   -2.346375287e-01    2.072736919e-01
     2531000000   -2.530279458e-01    1.865658164e-01
     2531750000   -2.700164616e-01    1.633532792e-01
     2532500000   -2.842742503e-01    1.393678486e-01
     2533250000   -2.969696522e-01    1.145852879e-01
     2534000000   -3.069390059e-01    8.743159473e-02
     2534750000   -3.143251538e-01    6.084802374e-02
     2535500000   -3.195533156e-01    3.212799132e-02
     2536250000   -3.221032917e-01    3.653516993e-03
     2537000000   -3.219752014e-01   -2.515058964e-02
     2537750000   -3.195132315e-01   -5.370400473e-02
     2538500000   -3.146657944e-01   -8.191933483e-02
     2539250000   -3.065930605e-01   -1.103578806e-01
     2540000000   -2.960778475e-01   -1.381657720e-01
     2540750000   -2.834350467e-01   -1.650962830e-01
     2541500000   -2.692815959e-01   -1.901885420e-01
     2542250000   -2.510176301e-01   -2.142011821e-01
     2543000000   -2.317725122e-01   -2.370027900e-01
     2543750000   -2.104182839e-01   -2.574406564e-01
     2544500000   -1.869390905e-01   -2.762020230e-01
     2545250000   -1.622074991e-01   -2.933144569e-01
     2546000000   -1.355825067e-01   -3.075430095e-01
     2546750000   -1.076652706e-01   -3.200770617e-01
     2547500000   -7.872498035e-02   -3.293071687e-01
     2548250000   -4.946131259e-02   -3.366319239e-01
     2549000000   -1.878134720e-02   -3.407349586e-01
     2549750000    1.227821968e-02   -3.420245349e-01
     2550500000    4.257910699e-02   -3.406735659e-01
     2551250000    7.372086495e-02   -3.364508748e-01
     2552000000    1.022708416e-01   -3.300868571e-01
     2552750000    1.321983337e-01   -3.204778135e-01
     2553500000    1.599486470e-01   -3.085411191e-01
     2554250000    1.879732162e-01   -2.928804755e-01
     2555000000    2.141123265e-01   -2.761005163e-01
     2555750000    2.387229502e-01   -2.561057508e-01
     2556500000    2.619837821e-01   -2.334425151e-01
     2557250000    2.813809514e-01   -2.114973217e-01
     2558000000    3.011114597e-01   -1.838396043e-01
     2558750000    3.165713549e-01   -1.575685143e-01
     2559500000    3.305673599e-01   -1.273451149e-01
     2560250000    3.420049250e-01   -9.820662439e-02
     2561000000    3.504115045e-01   -6.781680137e-02
     2561750000    3.564820588e-01   -3.440310434e-02
     2562500000    3.584152758e-01   -1.067313831e-03
     2563250000    3.584044576e-01    2.960651740e-02
     2564000000    3.555594683e-01    6.150855497e-02
     2564750000    3.497493267e-01    9.419107437e-02
     2565500000    3.410334289e-01    1.263335943e-01
     2566250000    3.297669888e-01    1.563094556e-01
     2567000000    3.150255978e-01    1.869767904e-01
     2567750000    2.989436686e-01    2.138314694e-01
     2568500000    2.790922225e-01    2.409158200e-01
     2569250000    2.569999397e-01    2.657924592e-01
     2570000000    2.330233455e-01    2.890171111e-01
     2570750000    2.079333663e-01    3.086094856e-01
     2571500000    1.798145026e-01    3.269447684e-01
     2572250000    1.513252854e-01    3.423049450e-01
     2573000000    1.204523891e-01    3.552199006e-01
     2573750000    8.830526471e-02    3.651611805e-01
     2574500000    5.659610778e-02    3.718239069e-01
     2575250000    2.274718881e-02    3.756981790e-01
     2576000000   -1.052616257e-02    3.768514991e-01
     2576750000   -4.378211126e-02    3.741069436e-01
     2577500000   -7.645042241e-02    3.692350984e-01
     2578250000   -1.093163788e-01    3.614740372e-01
     2579000000   -1.416798979e-01    3.496294320e-01
     2579750000   -1.731301695e-01    3.350584805e-01
     2580500000   -2.018264234e-01    3.189550340e-01
     2581250000   -2.308018506e-01    2.983500063e-01
     2582000000   -2.570298016e-01    2.766682506e-01
     2582750000   -2.804063261e-01    2.527587116e-01
     2583500000   -3.035033941e-01    2.254443914e-01
     2584250000   -3.221310973e-01    1.976323426e-01
     2585000000   -3.385949135e-01    1.677704155e-01
     2585750000   -3.536689281e-01    1.358027011e-01
     2586500000   -3.645725846e-01    1.034909859e-01
     2587250000   -3.728998899e-01    6.961642206e-02
     2588000000   -3.785217702e-01    3.457734361e-02
     2588750000   -3.802846372e-01   -3.527671215e-04
     2589500000   -3.792040944e-01   -3.361621872e-02
     2590250000   -3.750119209e-01   -6.929259747e-02
     2591000000   -3.672155142e-01   -1.041866913e-01
     2591750000   -3.573388457e-01   -1.359390914e-01
     2592500000   -3.437795937e-01   -1.688783765e-01
     2593250000   -3.271430731e-01   -1.990643889e-01
     2594000000   -3.073005974e-01   -2.294974774e-01
     2594750000   -2.854565978e-01   -2.571386993e-01
     2595500000   -2.619978487e-01   -2.816559076e-01
     2596250000   -2.338343114e-01   -3.070113361e-01
     2597000000   -2.071333379e-01   -3.258207142e-01
     2597750000   -1.756700575e-01   -3.448388278e-01
     2598500000   -1.424997896e-01   -3.609398305e-01
     2599250000   -1.105889007e-01   -3.730712533e-01
     2600000000   -7.575472444e-02   -3.830363154e-01
