! NanoVNA-App
! Date: 2026-05-22 17:25:33
! Start: 2.3GHz Stop: 2.6GHz Points: 401
! S-Parameter data: F S11
# Hz S RI R 50
!     Frequency           S11_Real           S11_Imag
     2300000000   -2.107312381e-01   -3.618184105e-02
     2300750000   -2.050661296e-01   -5.463440344e-02
     2301500000   -1.976380348e-01   -7.226152718e-02
     2302250000   -1.888732612e-01   -8.845416456e-02
     2303000000   -1.788765192e-01   -1.047861055e-01
     2303750000   -1.682919413e-01   -1.190008745e-01
     2304500000   -1.555307806e-01   -1.319314241e-01
     2305250000   -1.423364878e-01   -1.440338492e-01
     2306000000   -1.275654733e-01   -1.540505588e-01
     2306750000   -1.126715392e-01   -1.629919261e-01
     2307500000   -9.631638974e-02   -1.707157642e-01
     2308250000   -8.043195307e-02   -1.769909859e-01
     2309000000   -6.376360357e-02   -1.814778447e-01
     2309750000   -4.642776027e-02   -1.846652776e-01
     2310500000   -2.994265780e-02   -1.862858385e-01
     2311250000   -1.243433822e-02   -1.860975772e-01
     2312000000    4.085362423e-03   -1.845971197e-01
     2312750000    2.055240236e-02   -1.812179238e-01
     2313500000    3.634319454e-02   -1.772209853e-01
     2314250000    5.104385316e-02   -1.714501977e-01
     2315000000    6.572760642e-02   -1.644606441e-01
     2315750000    7.955159247e-02   -1.561133713e-01
     2316500000    9.204269201e-02   -1.472713202e-01
     2317250000    1.040215492e-01   -1.378264576e-01
     2318000000    1.140633225e-01   -1.256623566e-01
     2318750000    1.237701327e-01   -1.144816726e-01
     2319500000    1.307585984e-01   -1.013616323e-01
     2320250000    1.381908506e-01   -8.845704794e-02
     2321000000    1.437385380e-01   -7.459023595e-02
     2321750000    1.477635354e-01   -6.051382795e-02
     2322500000    1.505838782e-01   -4.717323557e-02
     2323250000    1.523518264e-01   -3.357422352e-02
     2324000000    1.522076577e-01   -1.854658872e-02
     2324750000    1.511780173e-01   -5.193021148e-03
     2325500000    1.484148055e-01    8.598422632e-03
     2326250000    1.457059979e-01    2.199997567e-02
     2327000000    1.411687285e-01    3.430885822e-02
     2327750000    1.352051049e-01    4.626141489e-02
     2328500000    1.300033182e-01    5.744345486e-02
     2329250000    1.210940778e-01    6.835007668e-02
     2330000000    1.129720286e-01    7.796598971e-02
     2330750000    1.044409052e-01    8.634279668e-02
     2331500000    9.434988350e-02    9.390348941e-02
     2332250000    8.393815160e-02    1.007960886e-01
     2333000000    7.401272655e-02    1.067902371e-01
     2333750000    6.278940290e-02    1.108928174e-01
     2334500000    5.126024410e-02    1.149311066e-01
     2335250000    3.995645419e-02    1.170674041e-01
     2336000000    2.915404178e-02    1.183638945e-01
     2336750000    1.797511056e-02    1.191489920e-01
     2337500000    6.719770841e-03    1.182062253e-01
     2338250000   -3.824440064e-03    1.166155785e-01
     2339000000   -1.370758750e-02    1.141182855e-01
     2339750000   -2.341056429e-02    1.107415706e-01
     2340500000   -3.294003010e-02    1.056565866e-01
     2341250000   -4.131444171e-02    1.007203013e-01
     2342000000   -4.921839014e-02    9.430681169e-02
     2342750000   -5.662695691e-02    8.822380006e-02
     2343500000   -6.280538440e-02    7.971051335e-02
     2344250000   -6.910830736e-02    7.303570211e-02
     2345000000   -7.386147231e-02    6.540492922e-02
     2345750000   -7.790489495e-02    5.624075234e-02
     2346500000   -8.129976690e-02    4.723483697e-02
     2347250000   -8.417003602e-02    3.905410320e-02
     2348000000   -8.608383685e-02    3.072278947e-02
     2348750000   -8.636051416e-02    2.165140025e-02
     2349500000   -8.601273596e-02    1.268560812e-02
     2350250000   -8.519724756e-02    4.649134353e-03
     2351000000   -8.390173316e-02   -2.518903697e-03
     2351750000   -8.151559532e-02   -1.081278548e-02
     2352500000   -7.843662053e-02   -1.780352369e-02
     2353250000   -7.561246306e-02   -2.436548844e-02
     2354000000   -7.006363571e-02   -3.094819561e-02
     2354750000   -6.590460986e-02   -3.658276796e-02
     2355500000   -6.058759615e-02   -4.152473062e-02
     2356250000   -5.588100851e-02   -4.648739472e-02
     2357000000   -5.068152770e-02   -4.998782650e-02
     2357750000   -4.404648393e-02   -5.307151005e-02
     2358500000   -3.737154976e-02   -5.603117496e-02
     2359250000   -3.283953667e-02   -5.784866959e-02
     2360000000   -2.679769509e-02   -5.909895897e-02
     2360750000   -2.050129883e-02   -5.983322859e-02
     2361500000   -1.543982793e-02   -5.965170637e-02
     2362250000   -9.252092801e-03   -5.929835141e-02
     2363000000   -3.906397149e-03   -5.714500695e-02
     2363750000    3.878517891e-04   -5.612967908e-02
     2364500000    4.999960307e-03   -5.373341218e-02
     2365250000    9.113656357e-03   -5.045621097e-02
     2366000000    1.298691332e-02   -4.761445895e-02
     2366750000    1.613026857e-02   -4.451603442e-02
     2367500000    1.933501288e-02   -4.024880007e-02
     2368250000    2.197843418e-02   -3.674946353e-02
     2369000000    2.383002266e-02   -3.177376091e-02
     2369750000    2.520663105e-02   -2.790323831e-02
     2370500000    2.652200870e-02   -2.379588038e-02
     2371250000    2.739411034e-02   -1.934232563e-02
     2372000000    2.825510129e-02   -1.647803560e-02
     2372750000    2.781505138e-02   -1.166320499e-02
     2373500000    2.760132775e-02   -8.766192943e-03
     2374250000    2.672733925e-02   -5.407325923e-03
     2375000000    2.502851747e-02   -2.800824121e-03
     2375750000    2.430530638e-02   -7.245400338e-04
     2376500000    2.192578837e-02    1.379808993e-03
     2377250000    1.965681277e-02    3.479267703e-03
     2378000000    1.750303246e-02    4.468596540e-03
     2378750000    1.643094979e-02    4.686011001e-03
     2379500000    1.200453844e-02    5.370222498e-03
     2380250000    1.129328460e-02    4.580365960e-03
     2381000000    7.102833129e-03    4.732619040e-03
     2381750000    4.549677018e-03    3.772414522e-03
     2382500000    5.414289888e-03    2.569781849e-03
     2383250000   -9.635056485e-04    6.756798830e-04
     2384000000    2.561786969e-04   -6.584128714e-04
     2384750000   -1.805090695e-03   -3.122127848e-03
     2385500000   -5.565304775e-03   -6.268346217e-03
     2386250000   -5.325409584e-03   -8.270324208e-03
     2387000000   -4.897166509e-03   -9.653670713e-03
     2387750000   -5.488513038e-03   -1.280767377e-02
     2388500000   -6.782567129e-03   -1.646693237e-02
     2389250000   -5.446715280e-03   -1.796327904e-02
     2390000000   -4.156294279e-03   -2.023409866e-02
     2390750000   -3.463767702e-03   -2.309836261e-02
     2391500000   -1.568930107e-03   -2.421743236e-02
     2392250000    5.979064736e-04   -2.619802766e-02
     2393000000    3.600037424e-03   -2.752189711e-02
     2393750000    6.303257775e-03   -2.952472121e-02
     2394500000    9.629777633e-03   -2.975395322e-02
     2395250000    1.321681961e-02   -3.021288477e-02
     2396000000    1.721892133e-02   -3.039440885e-02
     2396750000    2.115225233e-02   -2.916009352e-02
     2397500000    2.492105402e-02   -2.859517373e-02
     2398250000    2.934628911e-02   -2.726330049e-02
     2399000000    3.347975761e-02   -2.528623119e-02
     2399750000    3.749784455e-02   -2.294268087e-02
     2400500000    4.205025733e-02   -1.995280012e-02
     2401250000    4.548106343e-02   -1.624171250e-02
     2402000000    4.938835278e-02   -1.204702817e-02
     2402750000    5.250170454e-02   -8.137270808e-03
     2403500000    5.648059770e-02   -2.925535664e-03
     2404250000    5.745529011e-02    3.470470663e-03
     2405000000    6.048529223e-02    8.671145886e-03
     2405750000    6.224972755e-02    1.507572457e-02
     2406500000    6.283012778e-02    2.176697552e-02
     2407250000    6.299395859e-02    2.854075842e-02
     2408000000    6.300224364e-02    3.498767689e-02
     2408750000    6.246080622e-02    4.222551733e-02
     2409500000    6.023961678e-02    4.889967665e-02
     2410250000    5.773136392e-02    5.587489530e-02
     2411000000    5.480871350e-02    6.305751950e-02
     2411750000    5.116904527e-02    6.914570928e-02
     2412500000    4.603282735e-02    7.558361441e-02
     2413250000    4.039910808e-02    8.173016459e-02
     2414000000    3.406136855e-02    8.747996390e-02
     2414750000    2.729914524e-02    9.245947003e-02
     2415500000    1.893590391e-02    9.674222022e-02
     2416250000    1.122462098e-02    1.007734612e-01
     2417000000    2.225300996e-03    1.039701849e-01
     2417750000   -6.995288190e-03    1.063957140e-01
     2418500000   -1.623892412e-02    1.083029732e-01
     2419250000   -2.580665238e-02    1.093917042e-01
     2420000000   -3.554299474e-02    1.098502874e-01
     2420750000   -4.565988854e-02    1.085033342e-01
     2421500000   -5.607394502e-02    1.063020527e-01
     2422250000   -6.584494561e-02    1.035319418e-01
     2423000000   -7.648812234e-02    1.000613719e-01
     2423750000   -8.655484021e-02    9.416851401e-02
     2424500000   -9.518675506e-02    8.818810433e-02
     2425250000   -1.042107642e-01    8.199717849e-02
     2426000000   -1.128763258e-01    7.447678596e-02
     2426750000   -1.243071109e-01    6.268556416e-02
     2427500000   -1.299589574e-01    5.006351694e-02
     2428250000   -1.364150196e-01    4.106212035e-02
     2429000000   -1.412651539e-01    2.944079973e-02
     2429750000   -1.452580541e-01    1.706507616e-02
     2430500000   -1.470858902e-01    3.947606310e-03
     2431250000   -1.497259736e-01   -8.717497811e-03
     2432000000   -1.509991437e-01   -2.222872898e-02
     2432750000   -1.498559564e-01   -3.640492633e-02
     2433500000   -1.462639868e-01   -5.078651384e-02
     2434250000   -1.445164084e-01   -6.366924942e-02
     2435000000   -1.407701075e-01   -7.707134634e-02
     2435750000   -1.340097338e-01   -9.036760777e-02
     2436500000   -1.290145069e-01   -1.027421206e-01
     2437250000   -1.194266677e-01   -1.153997630e-01
     2438000000   -1.107182130e-01   -1.269731969e-01
     2438750000   -9.955173731e-02   -1.372375935e-01
     2439500000   -8.794471622e-02   -1.478197277e-01
     2440250000   -7.578827441e-02   -1.571170390e-01
     2441000000   -6.226209179e-02   -1.645999104e-01
     2441750000   -4.723736271e-02   -1.710109711e-01
     2442500000   -3.251289949e-02   -1.768279076e-01
     2443250000   -1.615241170e-02   -1.809751391e-01
     2444000000    3.414067905e-04   -1.828948259e-01
     2444750000    1.701840013e-02   -1.850301027e-01
     2445500000    3.482289240e-02   -1.843820512e-01
     2446250000    5.198016018e-02   -1.821499914e-01
     2447000000    6.891063601e-02   -1.790216416e-01
     2447750000    8.637925237e-02   -1.739210635e-01
     2448500000    1.035444438e-01   -1.672937870e-01
     2449250000    1.195419431e-01   -1.602670550e-01
     2450000000    1.356086582e-01   -1.507981718e-01
     2450750000    1.505022794e-01   -1.398208737e-01
     2451500000    1.647404879e-01   -1.276105195e-01
     2452250000    1.778696626e-01   -1.141987294e-01
     2453000000    1.898350567e-01   -9.813851118e-02
     2453750000    2.006275803e-01   -8.322873712e-02
     2454500000    2.098773122e-01   -6.689250469e-02
     2455250000    2.176681459e-01   -4.902517051e-02
     2456000000    2.246308625e-01   -3.094750457e-02
     2456750000    2.286154032e-01   -1.114932168e-02
     2457500000    2.323240042e-01    7.078132592e-03
     2458250000    2.323760539e-01    2.744691819e-02
     2459000000    2.314581871e-01    4.788009077e-02
     2459750000    2.285646498e-01    6.766816229e-02
     2460500000    2.242652327e-01    8.709769696e-02
     2461250000    2.178559452e-01    1.066588834e-01
     2462000000    2.094206810e-01    1.260972023e-01
     2462750000    1.993269771e-01    1.439720541e-01
     2463500000    1.888845861e-01    1.613207161e-01
     2464250000    1.741790175e-01    1.778563261e-01
     2465000000    1.594205350e-01    1.934681833e-01
     2465750000    1.426536292e-01    2.076889277e-01
     2466500000    1.250176430e-01    2.201768756e-01
     2467250000    1.066981927e-01    2.319185436e-01
     2468000000    8.551352471e-02    2.406387478e-01
     2468750000    6.436717510e-02    2.482794374e-01
     2469500000    4.321094975e-02    2.546193898e-01
     2470250000    2.124085836e-02    2.589854300e-01
     2471000000   -3.261833219e-03    2.601486742e-01
     2471750000   -2.388242260e-02    2.619378269e-01
     2472500000   -4.812877625e-02    2.581647038e-01
     2473250000   -7.127697766e-02    2.547752857e-01
     2474000000   -9.429127723e-02    2.475205660e-01
     2474750000   -1.171149388e-01    2.387634814e-01
     2475500000   -1.381826401e-01    2.300018519e-01
     2476250000   -1.588959843e-01    2.165718675e-01
     2477000000   -1.785550565e-01    2.023843527e-01
     2477750000   -1.971049756e-01    1.859741658e-01
     2478500000   -2.137520462e-01    1.691620797e-01
     2479250000   -2.292347848e-01    1.501634419e-01
     2480000000   -2.435422540e-01    1.293248087e-01
     2480750000   -2.554576695e-01    1.076535359e-01
     2481500000   -2.650634646e-01    8.437751979e-02
     2482250000   -2.736809552e-01    6.086742878e-02
     2483000000   -2.789632976e-01    3.597811237e-02
     2483750000   -2.826272845e-01    1.109234523e-02
     2484500000   -2.837120891e-01   -1.492885593e-02
     2485250000   -2.826702595e-01   -4.043911025e-02
     2486000000   -2.793423533e-01   -6.639739126e-02
     2486750000   -2.738489807e-01   -9.138555825e-02
     2487500000   -2.653142512e-01   -1.162693277e-01
     2488250000   -2.559326887e-01   -1.403215826e-01
     2489000000   -2.438299954e-01   -1.634394974e-01
     2489750000   -2.288063616e-01   -1.864990294e-01
     2490500000   -2.130449861e-01   -2.070152909e-01
     2491250000   -1.932179630e-01   -2.267186940e-01
     2492000000   -1.742254198e-01   -2.448802888e-01
     2492750000   -1.517779082e-01   -2.604345679e-01
     2493500000   -1.295379102e-01   -2.752983868e-01
     2494250000   -1.047622785e-01   -2.867006361e-01
     2495000000   -7.958586514e-02   -2.968562841e-01
     2495750000   -5.188692734e-02   -3.034721911e-01
     2496500000   -2.550188825e-02   -3.088786006e-01
     2497250000    6.621301291e-04   -3.120979667e-01
     2498000000    2.800131217e-02   -3.110933602e-01
     2498750000    5.703106895e-02   -3.091018200e-01
     2499500000    8.534252644e-02   -3.023990989e-01
     2500250000    1.119524762e-01   -2.953010201e-01
     2501000000    1.382945627e-01   -2.857282460e-01
     2501750000    1.633654535e-01   -2.734085917e-01
     2502500000    1.880505830e-01   -2.589504123e-01
     2503250000    2.111057341e-01   -2.421473861e-01
     2504000000    2.319348603e-01   -2.244872451e-01
     2504750000    2.522516251e-01   -2.018467039e-01
     2505500000    2.699897885e-01   -1.795775294e-01
     2506250000    2.852813900e-01   -1.560585648e-01
     2507000000    3.000437617e-01   -1.276906878e-01
     2507750000    3.113391399e-01   -1.026581004e-01
     2508500000    3.192538321e-01   -7.310603559e-02
     2509250000    3.265677989e-01   -4.551324993e-02
     2510000000    3.293107748e-01   -1.514473092e-02
     2510750000    3.311299384e-01    1.508033648e-02
     2511500000    3.286999166e-01    4.599082470e-02
     2512250000    3.243974149e-01    7.524181157e-02
     2513000000    3.190282285e-01    1.033158153e-01
     2513750000    3.083251119e-01    1.331391335e-01
     2514500000    2.963549495e-01    1.608152241e-01
     2515250000    2.818210125e-01    1.874065697e-01
     2516000000    2.639671564e-01    2.132316828e-01
     2516750000    2.444744259e-01    2.362380922e-01
     2517500000    2.233702093e-01    2.580870390e-01
     2518250000    2.000058889e-01    2.778453529e-01
     2519000000    1.734569073e-01    2.959545553e-01
     2519750000    1.465124339e-01    3.113143742e-01
     2520500000    1.189465225e-01    3.242571354e-01
     2521250000    8.941728622e-02    3.344155550e-01
     2522000000    5.778269097e-02    3.426825404e-01
     2522750000    2.753294818e-02    3.469855189e-01
     2523500000   -4.412948154e-03    3.491612077e-01
     2524250000   -3.691010922e-02    3.481331468e-01
     2525000000   -6.900169700e-02    3.442294300e-01
     2525750000   -1.002120599e-01    3.384391963e-01
     2526500000   -1.319241524e-01    3.289326131e-01
     2527250000   -1.616116762e-01    3.173241019e-01
     2528000000   -1.902490705e-01    3.025948405e-01
     2528750000   -2.178461105e-01    2.853594422e-01
     2529500000   -2.439889014e-01    2.648990154e-01
     2530250000   -2.673403919e-01    2.434824854e-01
     2531000000   -2.887811959e-01    2.186550051e-01
     2531750000   -3.089447021e-01    1.934718788e-01
     2532500000   -3.258640468e-01    1.653383523e-01
     2533250000   -3.402190804e-01    1.350968629e-01
     2534000000   -3.521252871e-01    1.045717672e-01
     2534750000   -3.611594737e-01    7.265558094e-02
     2535500000   -3.674240112e-01    4.008621722e-02
     2536250000   -3.704734743e-01    6.467356812e-03
     2537000000   -3.699940145e-01   -2.713410184e-02
     2537750000   -3.667944372e-01   -6.015583500e-02
     2538500000   -3.611374199e-01   -9.309665859e-02
     2539250000   -3.515067101e-01   -1.258964688e-01
     2540000000   -3.399002850e-01   -1.581658274e-01
     2540750000   -3.249686956e-01   -1.886970699e-01
     2541500000   -3.067965508e-01   -2.185691893e-01
     2542250000   -2.870133817e-01   -2.458766252e-01
     2543000000   -2.635721266e-01   -2.718350589e-01
     2543750000   -2.385806739e-01   -2.957727015e-01
     2544500000   -2.120223939e-01   -3.167113960e-01
     2545250000   -1.820333898e-01   -3.362793028e-01
     2546000000   -1.519894749e-01   -3.525258005e-01
     2546750000   -1.199664995e-01   -3.662552238e-01
     2547500000   -8.654031903e-02   -3.768681586e-01
     2548250000   -5.183914676e-02   -3.849118352e-01
     2549000000   -1.762358658e-02   -3.895978332e-01
     2549750000    1.940840669e-02   -3.906622529e-01
     2550500000    5.264951289e-02   -3.886497021e-01
     2551250000    8.930849284e-02   -3.831326962e-01
     2552000000    1.235933378e-01   -3.755989075e-01
     2552750000    1.575333029e-01   -3.636423945e-01
     2553500000    1.899075359e-01   -3.498692214e-01
     2554250000    2.216372937e-01   -3.317310512e-01
     2555000000    2.497626245e-01   -3.132812083e-01
     2555750000    2.794719338e-01   -2.878352106e-01
     2556500000    3.044041991e-01   -2.631073892e-01
     2557250000    3.274682760e-01   -2.353309095e-01
     2558000000    3.485060632e-01   -2.064037472e-01
     2558750000    3.666643202e-01   -1.728650928e-01
     2559500000    3.820406199e-01   -1.408725828e-01
     2560250000    3.942360878e-01   -1.042836607e-01
     2561000000    4.032424092e-01   -6.944383681e-02
     2561750000    4.093695581e-01   -3.177944198e-02
     2562500000    4.118383527e-01    4.323217086e-03
     2563250000    4.105447531e-01    4.215661436e-02
     2564000000    4.067153037e-01    7.885009050e-02
     2564750000    3.992243707e-01    1.155122817e-01
     2565500000    3.874841332e-01    1.527877301e-01
     2566250000    3.746965826e-01    1.852893978e-01
     2567000000    3.566492796e-01    2.209404558e-01
     2567750000    3.372721374e-01    2.514352798e-01
     2568500000    3.138018847e-01    2.812481225e-01
     2569250000    2.877811491e-01    3.096027076e-01
     2570000000    2.590054274e-01    3.348636925e-01
     2570750000    2.285462171e-01    3.572688699e-01
     2571500000    1.977411062e-01    3.764987588e-01
     2572250000    1.641600728e-01    3.928924501e-01
     2573000000    1.279600114e-01    4.067197740e-01
     2573750000    9.211879969e-02    4.160001576e-01
     2574500000    5.414796248e-02    4.226081371e-01
     2575250000    1.646891795e-02    4.256617129e-01
     2576000000   -2.285821177e-02    4.257013798e-01
     2576750000   -6.027492508e-02    4.214088321e-01
     2577500000   -9.796157479e-02    4.140588939e-01
     2578250000   -1.358086318e-01    4.031682014e-01
     2579000000   -1.718193740e-01    3.884153068e-01
     2579750000   -2.071563601e-01    3.705620468e-01
     2580500000   -2.395672351e-01    3.506554067e-01
     2581250000   -2.718201876e-01    3.271887004e-01
     2582000000   -3.010802269e-01    3.005149066e-01
     2582750000   -3.272877932e-01    2.721775174e-01
     2583500000   -3.531322181e-01    2.404457927e-01
     2584250000   -3.741683364e-01    2.071470916e-01
     2585000000   -3.918056786e-01    1.723321080e-01
     2585750000   -4.071961343e-01    1.355085969e-01
     2586500000   -4.189178348e-01    9.890761971e-02
     2587250000   -4.275076985e-01    5.899485573e-02
     2588000000   -4.320498705e-01    2.042611875e-02
     2588750000   -4.326342046e-01   -1.998854615e-02
     2589500000   -4.308682978e-01   -5.791160464e-02
     2590250000   -4.236707687e-01   -9.922376275e-02
     2591000000   -4.145614803e-01   -1.374174505e-01
     2591750000   -4.016952217e-01   -1.734358966e-01
     2592500000   -3.854050040e-01   -2.109638602e-01
     2593250000   -3.655993640e-01   -2.443845570e-01
     2594000000   -3.412266374e-01   -2.792606950e-01
     2594750000   -3.156258166e-01   -3.091718853e-01
     2595500000   -2.871241271e-01   -3.374552429e-01
     2596250000   -2.559630573e-01   -3.627429307e-01
     2597000000   -2.214836478e-01   -3.859580755e-01
     2597750000   -1.872697026e-01   -4.049628675e-01
     2598500000   -1.495134681e-01   -4.221707582e-01
     2599250000   -1.126591861e-01   -4.344532788e-01
     2600000000   -7.184827328e-02   -4.443904161e-01
