! NanoVNA-App
! Date: 2026-05-22 17:10:16
! Start: 2.3GHz Stop: 0Hz Points: 401
! S-Parameter data: F S11
# Hz S RI R 50
!     Frequency           S11_Real           S11_Imag
     2300000000   -1.488573402e-01    6.471727788e-02
     2300750000   -1.522828192e-01    5.227299407e-02
     2301500000   -1.531224400e-01    3.987402841e-02
     2302250000   -1.555034369e-01    2.782131359e-02
     2303000000   -1.536772400e-01    1.481151767e-02
     2303750000   -1.534747332e-01    3.014977556e-03
     2304500000   -1.514502615e-01   -9.116473608e-03
     2305250000   -1.491080821e-01   -2.055745386e-02
     2306000000   -1.441797018e-01   -3.164104745e-02
     2306750000   -1.403825879e-01   -4.309932142e-02
     2307500000   -1.350643039e-01   -5.383046716e-02
     2308250000   -1.288795173e-01   -6.291896850e-02
     2309000000   -1.215201765e-01   -7.272130251e-02
     2309750000   -1.143287793e-01   -8.154875785e-02
     2310500000   -1.068286300e-01   -8.954670280e-02
     2311250000   -9.708812833e-02   -9.614060819e-02
     2312000000   -8.869139105e-02   -1.031663120e-01
     2312750000   -7.967626303e-02   -1.089434475e-01
     2313500000   -6.922076643e-02   -1.143119559e-01
     2314250000   -5.978886783e-02   -1.190047339e-01
     2315000000   -4.938692600e-02   -1.224642545e-01
     2315750000   -3.945960104e-02   -1.243251562e-01
     2316500000   -2.894773893e-02   -1.277236193e-01
     2317250000   -1.912355050e-02   -1.277069002e-01
     2318000000   -8.496565744e-03   -1.278940141e-01
     2318750000    1.417606487e-03   -1.268121600e-01
     2319500000    1.152613852e-02   -1.277186871e-01
     2320250000    2.106973343e-02   -1.248642430e-01
     2321000000    3.022502922e-02   -1.208627224e-01
     2321750000    3.878789395e-02   -1.180206612e-01
     2322500000    4.854339734e-02   -1.150130108e-01
     2323250000    5.761346593e-02   -1.122185588e-01
     2324000000    6.436202675e-02   -1.058703363e-01
     2324750000    7.115239650e-02   -1.001435965e-01
     2325500000    7.935234159e-02   -9.508775175e-02
     2326250000    8.479813486e-02   -8.791301399e-02
     2327000000    8.998592943e-02   -8.150085807e-02
     2327750000    9.677814692e-02   -7.429158688e-02
     2328500000    1.017324552e-01   -6.746182591e-02
     2329250000    1.046229154e-01   -5.968368426e-02
     2330000000    1.073690876e-01   -5.230505392e-02
     2330750000    1.108212024e-01   -4.433124140e-02
     2331500000    1.134772152e-01   -3.636725992e-02
     2332250000    1.167977080e-01   -2.810196392e-02
     2333000000    1.170717552e-01   -2.013240196e-02
     2333750000    1.173265204e-01   -1.267468464e-02
     2334500000    1.180340126e-01   -3.989251330e-03
     2335250000    1.171715036e-01    3.244676162e-03
     2336000000    1.163668558e-01    1.112057175e-02
     2336750000    1.147920936e-01    1.906175353e-02
     2337500000    1.135884374e-01    2.646890841e-02
     2338250000    1.109997034e-01    3.460779786e-02
     2339000000    1.081110984e-01    4.089643806e-02
     2339750000    1.046483666e-01    4.724567756e-02
     2340500000    1.007662341e-01    5.412215367e-02
     2341250000    9.762734175e-02    6.182947755e-02
     2342000000    9.306023270e-02    6.626678258e-02
     2342750000    8.764126152e-02    7.089383900e-02
     2343500000    8.307902515e-02    7.800882310e-02
     2344250000    7.745070010e-02    8.159745485e-02
     2345000000    7.169866562e-02    8.691524714e-02
     2345750000    6.564538926e-02    9.128385037e-02
     2346500000    5.922532082e-02    9.504367411e-02
     2347250000    5.343920365e-02    9.748849273e-02
     2348000000    4.659355432e-02    1.003932059e-01
     2348750000    4.001478851e-02    1.036835089e-01
     2349500000    3.408458829e-02    1.045623943e-01
     2350250000    2.428397536e-02    1.083962321e-01
     2351000000    2.003194205e-02    1.072607338e-01
     2351750000    1.125478745e-02    1.096021906e-01
     2352500000    2.886584029e-03    1.109680980e-01
     2353250000   -1.347420039e-03    1.090779305e-01
     2354000000   -1.336997375e-02    1.098718345e-01
     2354750000   -1.905388944e-02    1.083300337e-01
     2355500000   -2.396058477e-02    1.069359183e-01
     2356250000   -3.334200755e-02    1.050597802e-01
     2357000000   -3.935088590e-02    1.027073264e-01
     2357750000   -4.970668629e-02    9.973928332e-02
     2358500000   -5.196983740e-02    9.697522223e-02
     2359250000   -6.112122908e-02    9.340274334e-02
     2360000000   -6.922379136e-02    8.915132284e-02
     2360750000   -7.434389740e-02    8.470615000e-02
     2361500000   -8.103356510e-02    7.964777201e-02
     2362250000   -8.598316461e-02    7.485815883e-02
     2363000000   -9.291623533e-02    6.826265901e-02
     2363750000   -9.717940539e-02    6.229242682e-02
     2364500000   -1.022246182e-01    5.486588553e-02
     2365250000   -1.057331711e-01    4.978343844e-02
     2366000000   -1.098901853e-01    4.193501174e-02
     2366750000   -1.127625257e-01    3.462994471e-02
     2367500000   -1.156250611e-01    2.710351534e-02
     2368250000   -1.180932000e-01    1.793557405e-02
     2369000000   -1.204872206e-01    9.482526220e-03
     2369750000   -1.215825155e-01    1.955277752e-03
     2370500000   -1.220089942e-01   -7.199900225e-03
     2371250000   -1.214467362e-01   -1.660128869e-02
     2372000000   -1.211285740e-01   -2.668801323e-02
     2372750000   -1.206860915e-01   -3.289403394e-02
     2373500000   -1.182266772e-01   -4.278124124e-02
     2374250000   -1.150140241e-01   -5.272812024e-02
     2375000000   -1.123163030e-01   -6.032167748e-02
     2375750000   -1.078477204e-01   -6.946436316e-02
     2376500000   -1.035085171e-01   -7.791487128e-02
     2377250000   -9.647762030e-02   -8.778885007e-02
     2378000000   -9.241421521e-02   -9.381827712e-02
     2378750000   -8.646219224e-02   -1.012771428e-01
     2379500000   -7.747181505e-02   -1.094027013e-01
     2380250000   -6.971216947e-02   -1.154455915e-01
     2381000000   -6.309298426e-02   -1.207779869e-01
     2381750000   -5.304964259e-02   -1.264762729e-01
     2382500000   -4.552317783e-02   -1.308542937e-01
     2383250000   -3.546488658e-02   -1.350631565e-01
     2384000000   -2.288609371e-02   -1.382465959e-01
     2384750000   -1.326054335e-02   -1.401242018e-01
     2385500000   -3.948895726e-03   -1.422647685e-01
     2386250000    8.156854659e-03   -1.425236315e-01
     2387000000    1.943104900e-02   -1.421881616e-01
     2387750000    3.189067543e-02   -1.414854378e-01
     2388500000    4.314956814e-02   -1.395082623e-01
     2389250000    5.490371212e-02   -1.362412423e-01
     2390000000    6.552152336e-02   -1.325528324e-01
     2390750000    7.721026987e-02   -1.282120049e-01
     2391500000    8.725763857e-02   -1.223412007e-01
     2392250000    9.831446409e-02   -1.156321466e-01
     2393000000    1.094534472e-01   -1.066501588e-01
     2393750000    1.176843196e-01   -9.990609437e-02
     2394500000    1.268205047e-01   -9.000277519e-02
     2395250000    1.354773492e-01   -7.954018563e-02
     2396000000    1.435122341e-01   -6.741859019e-02
     2396750000    1.496607661e-01   -5.784503743e-02
     2397500000    1.553031802e-01   -4.468105733e-02
     2398250000    1.606350988e-01   -3.390966728e-02
     2399000000    1.644456536e-01   -1.996208727e-02
     2399750000    1.674594730e-01   -5.782729480e-03
     2400500000    1.694272757e-01    6.257822271e-03
     2401250000    1.698806435e-01    2.174851298e-02
     2402000000    1.691392362e-01    3.568217903e-02
     2402750000    1.676422060e-01    4.945458099e-02
     2403500000    1.644592881e-01    6.302166730e-02
     2404250000    1.605615616e-01    7.666140050e-02
     2405000000    1.554625332e-01    9.064470232e-02
     2405750000    1.474657059e-01    1.044895649e-01
     2406500000    1.390527636e-01    1.177499220e-01
     2407250000    1.307824254e-01    1.291057020e-01
     2408000000    1.210239232e-01    1.407212913e-01
     2408750000    1.096646264e-01    1.516290158e-01
     2409500000    9.722293913e-02    1.612486243e-01
     2410250000    8.351661265e-02    1.706032157e-01
     2411000000    6.960289925e-02    1.785396338e-01
     2411750000    5.589736253e-02    1.855361015e-01
     2412500000    4.094528779e-02    1.915518045e-01
     2413250000    2.336852066e-02    1.954348385e-01
     2414000000    8.364114910e-03    1.994318068e-01
     2414750000   -1.072746143e-02    2.000810206e-01
     2415500000   -2.469198033e-02    2.028159350e-01
     2416250000   -4.220863804e-02    2.008140087e-01
     2417000000   -5.926104635e-02    1.988170147e-01
     2417750000   -7.616611570e-02    1.946715564e-01
     2418500000   -9.191477299e-02    1.895513982e-01
     2419250000   -1.075180247e-01    1.838931292e-01
     2420000000   -1.243909076e-01    1.742980182e-01
     2420750000   -1.389259696e-01    1.639085561e-01
     2421500000   -1.526074260e-01    1.549854577e-01
     2422250000   -1.661336869e-01    1.422672272e-01
     2423000000   -1.785804033e-01    1.283465475e-01
     2423750000   -1.897549778e-01    1.139929742e-01
     2424500000   -2.000471950e-01    9.849111736e-02
     2425250000   -2.083640993e-01    8.220954984e-02
     2426000000   -2.162529975e-01    6.502485275e-02
     2426750000   -2.214786112e-01    4.721482471e-02
     2427500000   -2.263403833e-01    2.893168107e-02
     2428250000   -2.282470912e-01    9.166952223e-03
     2429000000   -2.300530374e-01   -8.630081080e-03
     2429750000   -2.303674072e-01   -2.743734978e-02
     2430500000   -2.270567417e-01   -4.732589051e-02
     2431250000   -2.228706330e-01   -6.610549241e-02
     2432000000   -2.176411748e-01   -8.482991159e-02
     2432750000   -2.087044120e-01   -1.045962349e-01
     2433500000   -2.014944553e-01   -1.215913221e-01
     2434250000   -1.877693534e-01   -1.396225691e-01
     2435000000   -1.787834913e-01   -1.550223231e-01
     2435750000   -1.630352885e-01   -1.713380814e-01
     2436500000   -1.488028169e-01   -1.852846742e-01
     2437250000   -1.308590621e-01   -1.988496631e-01
     2438000000   -1.159386262e-01   -2.106277496e-01
     2438750000   -9.429775923e-02   -2.208168656e-01
     2439500000   -7.849695534e-02   -2.302792370e-01
     2440250000   -5.528786406e-02   -2.367539853e-01
     2441000000   -3.456862643e-02   -2.416990697e-01
     2441750000   -1.397282723e-02   -2.455754876e-01
     2442500000    7.383279502e-03   -2.475009710e-01
     2443250000    2.826193161e-02   -2.484624386e-01
     2444000000    5.176777393e-02   -2.443810701e-01
     2444750000    7.241567224e-02   -2.417383343e-01
     2445500000    9.373994172e-02   -2.361799181e-01
     2446250000    1.150220037e-01   -2.268512249e-01
     2447000000    1.341435462e-01   -2.184372395e-01
     2447750000    1.546746790e-01   -2.043503076e-01
     2448500000    1.724038720e-01   -1.929685920e-01
     2449250000    1.895277947e-01   -1.777600646e-01
     2450000000    2.055861354e-01   -1.600512266e-01
     2450750000    2.200173587e-01   -1.428106725e-01
     2451500000    2.332886457e-01   -1.235441789e-01
     2452250000    2.454874665e-01   -1.030337289e-01
     2453000000    2.547008395e-01   -8.054398745e-02
     2453750000    2.625669539e-01   -5.913465098e-02
     2454500000    2.680987418e-01   -3.572512046e-02
     2455250000    2.730984986e-01   -1.286171190e-02
     2456000000    2.746419907e-01    1.213875506e-02
     2456750000    2.748420835e-01    3.679290786e-02
     2457500000    2.717242837e-01    6.144730747e-02
     2458250000    2.686752975e-01    8.391838521e-02
     2459000000    2.607652545e-01    1.091815606e-01
     2459750000    2.523438931e-01    1.319177896e-01
     2460500000    2.429538518e-01    1.534008831e-01
     2461250000    2.286024690e-01    1.757775247e-01
     2462000000    2.148843110e-01    1.955936402e-01
     2462750000    1.990343481e-01    2.142000198e-01
     2463500000    1.814015508e-01    2.311554849e-01
     2464250000    1.614245474e-01    2.474401444e-01
     2465000000    1.409195811e-01    2.611257136e-01
     2465750000    1.188577861e-01    2.737973630e-01
     2466500000    9.313432127e-02    2.832953334e-01
     2467250000    7.022185624e-02    2.912771702e-01
     2468000000    4.764299095e-02    2.981339097e-01
     2468750000    1.989522576e-02    3.010824025e-01
     2469500000   -6.909580901e-03    3.021582663e-01
     2470250000   -3.166411072e-02    3.019630015e-01
     2471000000   -5.856592208e-02    2.980362773e-01
     2471750000   -8.420623839e-02    2.926944792e-01
     2472500000   -1.085820198e-01    2.860866487e-01
     2473250000   -1.345763654e-01    2.745226920e-01
     2474000000   -1.587183177e-01    2.616998255e-01
     2474750000   -1.815981120e-01    2.474776953e-01
     2475500000   -2.028473169e-01    2.316255271e-01
     2476250000   -2.234923244e-01    2.103991061e-01
     2477000000   -2.419821173e-01    1.924837977e-01
     2477750000   -2.589518726e-01    1.700342894e-01
     2478500000   -2.735975385e-01    1.480133832e-01
     2479250000   -2.858265042e-01    1.205123663e-01
     2480000000   -2.965065241e-01    9.577648342e-02
     2480750000   -3.047557473e-01    6.792865694e-02
     2481500000   -3.116550744e-01    4.250352085e-02
     2482250000   -3.145373166e-01    1.338090375e-02
     2483000000   -3.150810897e-01   -1.473206654e-02
     2483750000   -3.134122491e-01   -4.340978339e-02
     2484500000   -3.092148304e-01   -7.255882770e-02
     2485250000   -3.022980690e-01   -1.013597921e-01
     2486000000   -2.929252684e-01   -1.288494021e-01
     2486750000   -2.820562720e-01   -1.560397595e-01
     2487500000   -2.679287195e-01   -1.818258017e-01
     2488250000   -2.515444160e-01   -2.067348063e-01
     2489000000   -2.329360396e-01   -2.306832522e-01
     2489750000   -2.144359350e-01   -2.526903450e-01
     2490500000   -1.921541691e-01   -2.723021805e-01
     2491250000   -1.677369028e-01   -2.904030979e-01
     2492000000   -1.421319246e-01   -3.064662218e-01
     2492750000   -1.171682402e-01   -3.197501302e-01
     2493500000   -8.972904831e-02   -3.305050731e-01
     2494250000   -6.161091849e-02   -3.392118514e-01
     2495000000   -3.112653457e-02   -3.444446027e-01
     2495750000   -2.767435042e-03   -3.485013545e-01
     2496500000    2.756814472e-02   -3.490045071e-01
     2497250000    5.871757120e-02   -3.448688686e-01
     2498000000    8.653305471e-02   -3.409464359e-01
     2498750000    1.177428290e-01   -3.326266408e-01
     2499500000    1.452400982e-01   -3.232746422e-01
     2500250000    1.742904186e-01   -3.079368174e-01
     2501000000    1.999726295e-01   -2.932459414e-01
     2501750000    2.251618952e-01   -2.749629617e-01
     2502500000    2.489195615e-01   -2.558248341e-01
     2503250000    2.709530294e-01   -2.328593582e-01
     2504000000    2.910019755e-01   -2.079972625e-01
     2504750000    3.085752130e-01   -1.847876012e-01
     2505500000    3.235370815e-01   -1.544251144e-01
     2506250000    3.370067477e-01   -1.294062436e-01
     2507000000    3.470732570e-01   -9.435071051e-02
     2507750000    3.555136621e-01   -6.662692875e-02
     2508500000    3.599679470e-01   -3.505065292e-02
     2509250000    3.629311919e-01   -3.280139063e-03
     2510000000    3.609107435e-01    2.938243002e-02
     2510750000    3.572297990e-01    6.248963252e-02
     2511500000    3.510738313e-01    9.257666767e-02
     2512250000    3.418518901e-01    1.236098185e-01
     2513000000    3.285875618e-01    1.537591964e-01
     2513750000    3.150741160e-01    1.819843650e-01
     2514500000    2.961848378e-01    2.102749348e-01
     2515250000    2.769012749e-01    2.362120897e-01
     2516000000    2.526991367e-01    2.609959543e-01
     2516750000    2.296335995e-01    2.826102972e-01
     2517500000    2.037452608e-01    3.032901883e-01
     2518250000    1.733013391e-01    3.208467662e-01
     2519000000    1.441824585e-01    3.363754153e-01
     2519750000    1.114873439e-01    3.488309085e-01
     2520500000    8.118642867e-02    3.595191836e-01
     2521250000    4.855578765e-02    3.663113117e-01
     2522000000    1.379302423e-02    3.700125515e-01
     2522750000   -1.988324337e-02    3.707744777e-01
     2523500000   -5.380968004e-02    3.688156903e-01
     2524250000   -8.673385531e-02    3.638129532e-01
     2525000000   -1.204746738e-01    3.558359146e-01
     2525750000   -1.528110057e-01    3.451142907e-01
     2526500000   -1.841163635e-01    3.303097785e-01
     2527250000   -2.131001204e-01    3.156707883e-01
     2528000000   -2.427387685e-01    2.942483127e-01
     2528750000   -2.686164379e-01    2.745118141e-01
     2529500000   -2.943310142e-01    2.491835952e-01
     2530250000   -3.165975511e-01    2.228812426e-01
     2531000000   -3.361012340e-01    1.943775117e-01
     2531750000   -3.539241552e-01    1.647812426e-01
     2532500000   -3.684378266e-01    1.338584423e-01
     2533250000   -3.800831139e-01    1.014126241e-01
     2534000000   -3.887182176e-01    6.700573862e-02
     2534750000   -3.941680193e-01    3.330185264e-02
     2535500000   -3.970349133e-01   -2.223060932e-03
     2536250000   -3.958249688e-01   -3.703450412e-02
     2537000000   -3.908111751e-01   -7.284168899e-02
     2537750000   -3.841574192e-01   -1.060927957e-01
     2538500000   -3.744909763e-01   -1.405623555e-01
     2539250000   -3.613443971e-01   -1.729393303e-01
     2540000000   -3.442345560e-01   -2.047075629e-01
     2540750000   -3.247009516e-01   -2.352437377e-01
     2541500000   -3.041192889e-01   -2.628459036e-01
     2542250000   -2.787315547e-01   -2.899328470e-01
     2543000000   -2.517104149e-01   -3.148619235e-01
     2543750000   -2.227093577e-01   -3.365363479e-01
     2544500000   -1.921036839e-01   -3.553946316e-01
     2545250000   -1.593244374e-01   -3.723596036e-01
     2546000000   -1.259091496e-01   -3.859621286e-01
     2546750000   -8.993462473e-02   -3.968128562e-01
     2547500000   -5.450167879e-02   -4.036601484e-01
     2548250000   -1.859619096e-02   -4.082919061e-01
     2549000000    1.889389195e-02   -4.088260531e-01
     2549750000    5.691038445e-02   -4.064997733e-01
     2550500000    9.143885225e-02   -4.009650350e-01
     2551250000    1.284275204e-01   -3.913111687e-01
     2552000000    1.618139148e-01   -3.792133331e-01
     2552750000    1.972915530e-01   -3.624928296e-01
     2553500000    2.277408540e-01   -3.454915881e-01
     2554250000    2.597977221e-01   -3.219706416e-01
     2555000000    2.862180173e-01   -3.010708392e-01
     2555750000    3.159603179e-01   -2.697135508e-01
     2556500000    3.379658759e-01   -2.426885813e-01
     2557250000    3.582762182e-01   -2.130396515e-01
     2558000000    3.776044250e-01   -1.791579276e-01
     2558750000    3.926580846e-01   -1.445770860e-01
     2559500000    4.048277140e-01   -1.065076739e-01
     2560250000    4.140063226e-01   -7.118674368e-02
     2561000000    4.197707474e-01   -3.323300555e-02
     2561750000    4.222261906e-01    7.476178464e-03
     2562500000    4.207617044e-01    4.451491684e-02
     2563250000    4.158846736e-01    8.306116611e-02
     2564000000    4.075523615e-01    1.206354946e-01
     2564750000    3.976443708e-01    1.563626677e-01
     2565500000    3.815192580e-01    1.946170330e-01
     2566250000    3.655665219e-01    2.274935246e-01
     2567000000    3.427292407e-01    2.618207932e-01
     2567750000    3.205155134e-01    2.908801138e-01
     2568500000    2.922249734e-01    3.208853006e-01
     2569250000    2.647179067e-01    3.457930684e-01
     2570000000    2.305914611e-01    3.709895909e-01
     2570750000    2.007600367e-01    3.901475370e-01
     2571500000    1.646990180e-01    4.077576101e-01
     2572250000    1.275737435e-01    4.219182134e-01
     2573000000    9.082597494e-02    4.327493310e-01
     2573750000    5.159966275e-02    4.404446483e-01
     2574500000    1.229572296e-02    4.445325732e-01
     2575250000   -2.695844695e-02    4.442809522e-01
     2576000000   -6.741701812e-02    4.412299991e-01
     2576750000   -1.057423428e-01    4.344977140e-01
     2577500000   -1.433002055e-01    4.244298339e-01
     2578250000   -1.808416843e-01    4.106521606e-01
     2579000000   -2.169283032e-01    3.935406506e-01
     2579750000   -2.518650293e-01    3.724913299e-01
     2580500000   -2.832479477e-01    3.490793407e-01
     2581250000   -3.145289123e-01    3.224073648e-01
     2582000000   -3.424133062e-01    2.931036055e-01
     2582750000   -3.674117923e-01    2.617877126e-01
     2583500000   -3.903476298e-01    2.285155952e-01
     2584250000   -4.091648757e-01    1.929955930e-01
     2585000000   -4.251818657e-01    1.556672752e-01
     2585750000   -4.387937188e-01    1.159207150e-01
     2586500000   -4.478911161e-01    7.771767676e-02
     2587250000   -4.532373846e-01    3.601936623e-02
     2588000000   -4.554068148e-01   -3.117146436e-03
     2588750000   -4.533210099e-01   -4.599631205e-02
     2589500000   -4.478958845e-01   -8.508862555e-02
     2590250000   -4.394247830e-01   -1.243193969e-01
     2591000000   -4.256111085e-01   -1.650171727e-01
     2591750000   -4.108516872e-01   -2.002157420e-01
     2592500000   -3.891143501e-01   -2.379475832e-01
     2593250000   -3.682003915e-01   -2.698808908e-01
              0    4.663107917e-02    1.917865127e-01
              0    4.652456939e-02    1.918290555e-01
              0    4.599079490e-02    1.918368340e-01
              0    4.567349330e-02    1.919942349e-01
              0    4.581525922e-02    1.919689775e-01
              0    4.508886859e-02    1.919558197e-01
              0    4.441249371e-02    1.922230721e-01
              0    4.443092272e-02    1.922362745e-01
              0    4.443095252e-02    1.922363043e-01
