! NanoVNA-App
! Date: 2026-05-22 22:05:45
! Start: 1GHz Stop: 1.2GHz Points: 401
! S-Parameter data: F S11
# Hz S RI R 50
!     Frequency           S11_Real           S11_Imag
     1000000000   -3.266777396e-01   -2.716861367e-01
     1000500000   -3.328653574e-01   -2.648345530e-01
     1001000000   -3.391832113e-01   -2.586682737e-01
     1001500000   -3.446691632e-01   -2.525578439e-01
     1002000000   -3.504953086e-01   -2.467245758e-01
     1002500000   -3.563906848e-01   -2.405588627e-01
     1003000000   -3.615492582e-01   -2.353446633e-01
     1003500000   -3.672677875e-01   -2.291431129e-01
     1004000000   -3.721053302e-01   -2.260791063e-01
     1004500000   -3.773458600e-01   -2.195068002e-01
     1005000000   -3.821012676e-01   -2.151814401e-01
     1005500000   -3.865366876e-01   -2.099637389e-01
     1006000000   -3.907180130e-01   -2.061980516e-01
     1006500000   -3.945238292e-01   -2.025763690e-01
     1007000000   -3.979991078e-01   -1.977299154e-01
     1007500000   -4.018295109e-01   -1.932572871e-01
     1008000000   -4.050002694e-01   -1.899477392e-01
     1008500000   -4.069477916e-01   -1.880191863e-01
     1009000000   -4.095698595e-01   -1.843751669e-01
     1009500000   -4.113849401e-01   -1.812801957e-01
     1010000000   -4.126797616e-01   -1.776482165e-01
     1010500000   -4.138820767e-01   -1.751065701e-01
     1011000000   -4.147188365e-01   -1.722466201e-01
     1011500000   -4.150789678e-01   -1.707912385e-01
     1012000000   -4.150981009e-01   -1.678548604e-01
     1012500000   -4.148295224e-01   -1.660746038e-01
     1013000000   -4.138291776e-01   -1.638458073e-01
     1013500000   -4.128596783e-01   -1.620401442e-01
     1014000000   -4.108988345e-01   -1.601720303e-01
     1014500000   -4.090939462e-01   -1.584918797e-01
     1015000000   -4.065439999e-01   -1.564032435e-01
     1015500000   -4.035759866e-01   -1.555461586e-01
     1016000000   -3.998714983e-01   -1.542395502e-01
     1016500000   -3.961744905e-01   -1.524141431e-01
     1017000000   -3.920453191e-01   -1.506610960e-01
     1017500000   -3.873760104e-01   -1.492968202e-01
     1018000000   -3.821697831e-01   -1.481925994e-01
     1018500000   -3.767449260e-01   -1.459709853e-01
     1019000000   -3.706258535e-01   -1.453181654e-01
     1019500000   -3.647314906e-01   -1.426132619e-01
     1020000000   -3.574336171e-01   -1.423915476e-01
     1020500000   -3.503070474e-01   -1.402920485e-01
     1021000000   -3.422212899e-01   -1.382422745e-01
     1021500000   -3.340757191e-01   -1.367956996e-01
     1022000000   -3.252865970e-01   -1.345457584e-01
     1022500000   -3.157910705e-01   -1.331905425e-01
     1023000000   -3.058855534e-01   -1.324475408e-01
     1023500000   -2.958784401e-01   -1.299393773e-01
     1024000000   -2.856397629e-01   -1.274504960e-01
     1024500000   -2.738464773e-01   -1.273586154e-01
     1025000000   -2.626382113e-01   -1.251129359e-01
     1025500000   -2.510109842e-01   -1.233399883e-01
     1026000000   -2.390304357e-01   -1.221851632e-01
     1026500000   -2.260868698e-01   -1.221995428e-01
     1027000000   -2.133088410e-01   -1.202221513e-01
     1027500000   -2.002816796e-01   -1.201100126e-01
     1028000000   -1.865395457e-01   -1.193179339e-01
     1028500000   -1.733942479e-01   -1.191324219e-01
     1029000000   -1.595064700e-01   -1.196729168e-01
     1029500000   -1.458790302e-01   -1.198663041e-01
     1030000000   -1.320639551e-01   -1.204245538e-01
     1030500000   -1.187174618e-01   -1.211322173e-01
     1031000000   -1.046942025e-01   -1.226501390e-01
     1031500000   -9.163691849e-02   -1.236392036e-01
     1032000000   -7.785341889e-02   -1.253363490e-01
     1032500000   -6.407801062e-02   -1.274653077e-01
     1033000000   -5.124241114e-02   -1.295470595e-01
     1033500000   -3.905232251e-02   -1.315628886e-01
     1034000000   -2.594139054e-02   -1.338982731e-01
     1034500000   -1.395548973e-02   -1.370324194e-01
     1035000000   -1.931277686e-03   -1.400121450e-01
     1035500000    1.002699602e-02   -1.427339613e-01
     1036000000    2.082991414e-02   -1.454572678e-01
     1036500000    3.114444576e-02   -1.491482705e-01
     1037000000    4.168078676e-02   -1.523491740e-01
     1037500000    5.183677375e-02   -1.558828652e-01
     1038000000    6.090943888e-02   -1.596691906e-01
     1038500000    7.039171457e-02   -1.625871211e-01
     1039000000    7.863806933e-02   -1.668142825e-01
     1039500000    8.677819371e-02   -1.706165522e-01
     1040000000    9.434689581e-02   -1.741994172e-01
     1040500000    1.018325165e-01   -1.781012267e-01
     1041000000    1.086736992e-01   -1.825815439e-01
     1041500000    1.149278730e-01   -1.865686029e-01
     1042000000    1.210551634e-01   -1.902285963e-01
     1042500000    1.263369173e-01   -1.946482658e-01
     1043000000    1.312268227e-01   -1.986684054e-01
     1043500000    1.362536848e-01   -2.028501481e-01
     1044000000    1.403382123e-01   -2.073459476e-01
     1044500000    1.439791769e-01   -2.113043368e-01
     1045000000    1.472193301e-01   -2.160253972e-01
     1045500000    1.506206989e-01   -2.200556844e-01
     1046000000    1.533173621e-01   -2.242225260e-01
     1046500000    1.555248648e-01   -2.290447205e-01
     1047000000    1.574835926e-01   -2.338355035e-01
     1047500000    1.587874591e-01   -2.386415601e-01
     1048000000    1.603511423e-01   -2.432426214e-01
     1048500000    1.619015634e-01   -2.479005307e-01
     1049000000    1.624946892e-01   -2.528386414e-01
     1049500000    1.631450057e-01   -2.572873235e-01
     1050000000    1.623544991e-01   -2.634877563e-01
     1050500000    1.629079133e-01   -2.677634060e-01
     1051000000    1.623100191e-01   -2.735444903e-01
     1051500000    1.617164016e-01   -2.785815001e-01
     1052000000    1.599522680e-01   -2.846940458e-01
     1052500000    1.591409743e-01   -2.898353040e-01
     1053000000    1.583765745e-01   -2.943772972e-01
     1053500000    1.566230059e-01   -3.002681732e-01
     1054000000    1.550684273e-01   -3.056961894e-01
     1054500000    1.529796124e-01   -3.111903369e-01
     1055000000    1.520486325e-01   -3.164791763e-01
     1055500000    1.491984278e-01   -3.220759034e-01
     1056000000    1.471586376e-01   -3.271937072e-01
     1056500000    1.452257335e-01   -3.330431879e-01
     1057000000    1.426591426e-01   -3.387885988e-01
     1057500000    1.408557296e-01   -3.443779349e-01
     1058000000    1.385671347e-01   -3.499556184e-01
     1058500000    1.361228675e-01   -3.553695679e-01
     1059000000    1.332526803e-01   -3.612701893e-01
     1059500000    1.310115159e-01   -3.661173284e-01
     1060000000    1.285469830e-01   -3.721871674e-01
     1060500000    1.254073530e-01   -3.781695366e-01
     1061000000    1.248420477e-01   -3.830287158e-01
     1061500000    1.218319088e-01   -3.888902366e-01
     1062000000    1.203979999e-01   -3.945162594e-01
     1062500000    1.177245826e-01   -3.992969096e-01
     1063000000    1.160069630e-01   -4.045389593e-01
     1063500000    1.149662435e-01   -4.095644951e-01
     1064000000    1.126705930e-01   -4.150100350e-01
     1064500000    1.110039651e-01   -4.203780890e-01
     1065000000    1.116692126e-01   -4.253506958e-01
     1065500000    1.093174964e-01   -4.303092659e-01
     1066000000    1.083510816e-01   -4.353808463e-01
     1066500000    1.073856130e-01   -4.400656223e-01
     1067000000    1.057283804e-01   -4.445915222e-01
     1067500000    1.059527174e-01   -4.491168559e-01
     1068000000    1.061290652e-01   -4.539663494e-01
     1068500000    1.058863178e-01   -4.579883814e-01
     1069000000    1.046998128e-01   -4.626616240e-01
     1069500000    1.047179997e-01   -4.671906531e-01
     1070000000    1.047523469e-01   -4.712838233e-01
     1070500000    1.046281755e-01   -4.752157927e-01
     1071000000    1.048334092e-01   -4.791935384e-01
     1071500000    1.050054878e-01   -4.831191003e-01
     1072000000    1.049480215e-01   -4.869038761e-01
     1072500000    1.051418334e-01   -4.905081987e-01
     1073000000    1.045671329e-01   -4.934726655e-01
     1073500000    1.058013141e-01   -4.966724813e-01
     1074000000    1.062349081e-01   -4.998932183e-01
     1074500000    1.068879440e-01   -5.021631122e-01
     1075000000    1.068820655e-01   -5.053303242e-01
     1075500000    1.071307063e-01   -5.075167418e-01
     1076000000    1.079521924e-01   -5.098508000e-01
     1076500000    1.084952056e-01   -5.116434097e-01
     1077000000    1.087371111e-01   -5.135771036e-01
     1077500000    1.091601029e-01   -5.148987770e-01
     1078000000    1.097671390e-01   -5.168059468e-01
     1078500000    1.113199368e-01   -5.177116394e-01
     1079000000    1.116068885e-01   -5.185585022e-01
     1079500000    1.129305661e-01   -5.195637345e-01
     1080000000    1.126621887e-01   -5.206598043e-01
     1080500000    1.139519215e-01   -5.207225084e-01
     1081000000    1.142828092e-01   -5.215547085e-01
     1081500000    1.142885834e-01   -5.218508244e-01
     1082000000    1.170587838e-01   -5.219253898e-01
     1082500000    1.152196750e-01   -5.221797824e-01
     1083000000    1.151968986e-01   -5.219444633e-01
     1083500000    1.169760600e-01   -5.215570927e-01
     1084000000    1.166044325e-01   -5.215130448e-01
     1084500000    1.177593768e-01   -5.205439925e-01
     1085000000    1.152735576e-01   -5.213169456e-01
     1085500000    1.157326400e-01   -5.203513503e-01
     1086000000    1.170397624e-01   -5.192254186e-01
     1086500000    1.161696166e-01   -5.183858275e-01
     1087000000    1.149585843e-01   -5.180932283e-01
     1087500000    1.152268574e-01   -5.175818801e-01
     1088000000    1.127587557e-01   -5.171943307e-01
     1088500000    1.125337631e-01   -5.161269307e-01
     1089000000    1.121480837e-01   -5.147778988e-01
     1089500000    1.102125049e-01   -5.146938562e-01
     1090000000    1.076220647e-01   -5.136076212e-01
     1090500000    1.063804701e-01   -5.130152106e-01
     1091000000    1.050696522e-01   -5.119206309e-01
     1091500000    1.025699675e-01   -5.111209750e-01
     1092000000    1.002460197e-01   -5.104696155e-01
     1092500000    9.641715139e-02   -5.097714067e-01
     1093000000    9.471502900e-02   -5.089688301e-01
     1093500000    9.100661427e-02   -5.081936717e-01
     1094000000    8.787842840e-02   -5.075617433e-01
     1094500000    8.473506570e-02   -5.067964196e-01
     1095000000    7.968539000e-02   -5.065796375e-01
     1095500000    7.654561102e-02   -5.057156086e-01
     1096000000    7.310154289e-02   -5.050301552e-01
     1096500000    6.924987584e-02   -5.037791729e-01
     1097000000    6.494486332e-02   -5.029971004e-01
     1097500000    6.021987274e-02   -5.025668740e-01
     1098000000    5.637216568e-02   -5.011826158e-01
     1098500000    5.086803809e-02   -5.007272363e-01
     1099000000    4.663721845e-02   -5.001242757e-01
     1099500000    4.038881510e-02   -4.997112751e-01
     1100000000    3.667569533e-02   -4.979727566e-01
     1100500000    3.221496567e-02   -4.975402951e-01
     1101000000    2.723739669e-02   -4.969469309e-01
     1101500000    2.288442664e-02   -4.956773221e-01
     1102000000    1.761441305e-02   -4.951771200e-01
     1102500000    1.285165083e-02   -4.946348667e-01
     1103000000    7.596404757e-03   -4.934614599e-01
     1103500000    3.925030120e-03   -4.935742021e-01
     1104000000   -1.625749865e-03   -4.925658107e-01
     1104500000   -4.651935771e-03   -4.924043119e-01
     1105000000   -1.116534043e-02   -4.920215607e-01
     1105500000   -1.503330749e-02   -4.920568764e-01
     1106000000   -1.942658983e-02   -4.918686748e-01
     1106500000   -2.344275638e-02   -4.917941093e-01
     1107000000   -2.868694998e-02   -4.913843274e-01
     1107500000   -3.367456421e-02   -4.913242459e-01
     1108000000   -3.663320467e-02   -4.920920730e-01
     1108500000   -4.050634429e-02   -4.918505549e-01
     1109000000   -4.433001578e-02   -4.921564758e-01
     1109500000   -4.808297008e-02   -4.923096001e-01
     1110000000   -5.340780690e-02   -4.923956096e-01
     1110500000   -5.650638044e-02   -4.928796887e-01
     1111000000   -5.902716145e-02   -4.931782782e-01
     1111500000   -6.468282640e-02   -4.928445816e-01
     1112000000   -6.572609395e-02   -4.938631952e-01
     1112500000   -7.038979232e-02   -4.935461581e-01
     1113000000   -7.420353591e-02   -4.936437011e-01
     1113500000   -7.704438269e-02   -4.940488338e-01
     1114000000   -7.877883315e-02   -4.944803119e-01
     1114500000   -8.314977586e-02   -4.940131903e-01
     1115000000   -8.633469790e-02   -4.941969812e-01
     1115500000   -8.871271461e-02   -4.941353202e-01
     1116000000   -9.072810411e-02   -4.941962659e-01
     1116500000   -9.444522858e-02   -4.934504330e-01
     1117000000   -9.498926997e-02   -4.935541451e-01
     1117500000   -9.924062341e-02   -4.926233590e-01
     1118000000   -1.014337391e-01   -4.919801354e-01
     1118500000   -1.019069105e-01   -4.916942120e-01
     1119000000   -1.054151654e-01   -4.903850853e-01
     1119500000   -1.061967760e-01   -4.895620346e-01
     1120000000   -1.091763973e-01   -4.881250560e-01
     1120500000   -1.104204804e-01   -4.868502319e-01
     1121000000   -1.125558391e-01   -4.852831662e-01
     1121500000   -1.123069003e-01   -4.839067161e-01
     1122000000   -1.159614772e-01   -4.816476703e-01
     1122500000   -1.163704619e-01   -4.795349836e-01
     1123000000   -1.167712733e-01   -4.778960943e-01
     1123500000   -1.184966341e-01   -4.754558504e-01
     1124000000   -1.199801266e-01   -4.728794694e-01
     1124500000   -1.218030006e-01   -4.699016213e-01
     1125000000   -1.219777092e-01   -4.672043025e-01
     1125500000   -1.222167388e-01   -4.643787742e-01
     1126000000   -1.248266697e-01   -4.611392021e-01
     1126500000   -1.228242293e-01   -4.583612978e-01
     1127000000   -1.271771938e-01   -4.537846148e-01
     1127500000   -1.270391494e-01   -4.502428770e-01
     1128000000   -1.269031167e-01   -4.464887083e-01
     1128500000   -1.289742142e-01   -4.419137239e-01
     1129000000   -1.299943924e-01   -4.373610020e-01
     1129500000   -1.332981139e-01   -4.321490526e-01
     1130000000   -1.314755380e-01   -4.277058244e-01
     1130500000   -1.327769905e-01   -4.219813943e-01
     1131000000   -1.371089667e-01   -4.152939022e-01
     1131500000   -1.349943876e-01   -4.104122519e-01
     1132000000   -1.366632879e-01   -4.035836756e-01
     1132500000   -1.386784613e-01   -3.967632651e-01
     1133000000   -1.389814615e-01   -3.904885352e-01
     1133500000   -1.400912106e-01   -3.831646442e-01
     1134000000   -1.405249834e-01   -3.757643700e-01
     1134500000   -1.412371844e-01   -3.677100837e-01
     1135000000   -1.436795145e-01   -3.592932522e-01
     1135500000   -1.437821984e-01   -3.516634703e-01
     1136000000   -1.428502649e-01   -3.430969417e-01
     1136500000   -1.447623670e-01   -3.341917098e-01
     1137000000   -1.445094049e-01   -3.253439367e-01
     1137500000   -1.458732188e-01   -3.162845075e-01
     1138000000   -1.445166171e-01   -3.066937327e-01
     1138500000   -1.444432884e-01   -2.974351943e-01
     1139000000   -1.453454792e-01   -2.875664830e-01
     1139500000   -1.431586444e-01   -2.781485915e-01
     1140000000   -1.448080391e-01   -2.677570879e-01
     1140500000   -1.426159143e-01   -2.577576339e-01
     1141000000   -1.406076252e-01   -2.478001863e-01
     1141500000   -1.397643983e-01   -2.370080799e-01
     1142000000   -1.385992169e-01   -2.267962992e-01
     1142500000   -1.365257651e-01   -2.160736471e-01
     1143000000   -1.331592202e-01   -2.059841156e-01
     1143500000   -1.307030767e-01   -1.954371929e-01
     1144000000   -1.278712004e-01   -1.852221638e-01
     1144500000   -1.235923469e-01   -1.751657277e-01
     1145000000   -1.197461337e-01   -1.650155932e-01
     1145500000   -1.155257225e-01   -1.552762091e-01
     1146000000   -1.105569154e-01   -1.459079087e-01
     1146500000   -1.053819060e-01   -1.368565857e-01
     1147000000   -1.004281044e-01   -1.276275814e-01
     1147500000   -9.468379617e-02   -1.192170754e-01
     1148000000   -8.864443749e-02   -1.112302765e-01
     1148500000   -8.218509704e-02   -1.036341265e-01
     1149000000   -7.574436814e-02   -9.642171860e-02
     1149500000   -6.884772331e-02   -8.957238495e-02
     1150000000   -6.217831001e-02   -8.375910670e-02
     1150500000   -5.506421998e-02   -7.778185606e-02
     1151000000   -4.761945456e-02   -7.267728448e-02
     1151500000   -4.015481472e-02   -6.778944284e-02
     1152000000   -3.315633908e-02   -6.333152950e-02
     1152500000   -2.562414296e-02   -5.916374549e-02
     1153000000   -1.780595444e-02   -5.554791167e-02
     1153500000   -9.881236590e-03   -5.278024822e-02
     1154000000   -2.270310652e-03   -4.981110245e-02
     1154500000    5.475254729e-03   -4.792348295e-02
     1155000000    1.350649633e-02   -4.633073136e-02
     1155500000    2.126890980e-02   -4.492691159e-02
     1156000000    2.913263999e-02   -4.418759421e-02
     1156500000    3.723824769e-02   -4.330971465e-02
     1157000000    4.509877786e-02   -4.358474165e-02
     1157500000    5.298205838e-02   -4.397906736e-02
     1158000000    6.085405126e-02   -4.481941462e-02
     1158500000    6.881783903e-02   -4.575700685e-02
     1159000000    7.656531036e-02   -4.717078805e-02
     1159500000    8.494825661e-02   -4.953480512e-02
     1160000000    9.232944995e-02   -5.134799331e-02
     1160500000    1.000882387e-01   -5.452082679e-02
     1161000000    1.079190150e-01   -5.744880810e-02
     1161500000    1.155248433e-01   -6.106211990e-02
     1162000000    1.232025847e-01   -6.448492408e-02
     1162500000    1.308276057e-01   -6.880380958e-02
     1163000000    1.377006471e-01   -7.323419303e-02
     1163500000    1.455762982e-01   -7.784449309e-02
     1164000000    1.523188651e-01   -8.282319456e-02
     1164500000    1.588358283e-01   -8.829566091e-02
     1165000000    1.659686863e-01   -9.337596595e-02
     1165500000    1.723365188e-01   -9.958815575e-02
     1166000000    1.788176596e-01   -1.052101403e-01
     1166500000    1.843829453e-01   -1.115504280e-01
     1167000000    1.900177151e-01   -1.179038808e-01
     1167500000    1.960886419e-01   -1.239286810e-01
     1168000000    2.010889947e-01   -1.304913461e-01
     1168500000    2.063308805e-01   -1.369946897e-01
     1169000000    2.109699994e-01   -1.432908475e-01
     1169500000    2.159546763e-01   -1.497373134e-01
     1170000000    2.200844288e-01   -1.564532965e-01
     1170500000    2.246586531e-01   -1.627307832e-01
     1171000000    2.291076630e-01   -1.689657718e-01
     1171500000    2.321993709e-01   -1.761613190e-01
     1172000000    2.363540977e-01   -1.820189208e-01
     1172500000    2.398337722e-01   -1.884982884e-01
     1173000000    2.429982871e-01   -1.947807670e-01
     1173500000    2.457904816e-01   -2.013774216e-01
     1174000000    2.493117601e-01   -2.067554891e-01
     1174500000    2.524394989e-01   -2.123394907e-01
     1175000000    2.538069487e-01   -2.197081447e-01
     1175500000    2.578587830e-01   -2.240229845e-01
     1176000000    2.586959600e-01   -2.308047712e-01
     1176500000    2.614537179e-01   -2.360025346e-01
     1177000000    2.628585100e-01   -2.416490018e-01
     1177500000    2.642427385e-01   -2.480907440e-01
     1178000000    2.673912644e-01   -2.520913780e-01
     1178500000    2.689098716e-01   -2.569357753e-01
     1179000000    2.697122395e-01   -2.631007135e-01
     1179500000    2.730857432e-01   -2.667762935e-01
     1180000000    2.733144462e-01   -2.724622488e-01
     1180500000    2.729471028e-01   -2.788064182e-01
     1181000000    2.762603760e-01   -2.814724147e-01
     1181500000    2.765121162e-01   -2.872092426e-01
     1182000000    2.780364156e-01   -2.911707163e-01
     1182500000    2.776606977e-01   -2.966414392e-01
     1183000000    2.788670957e-01   -3.013635576e-01
     1183500000    2.792884409e-01   -3.052996695e-01
     1184000000    2.798895836e-01   -3.097411096e-01
     1184500000    2.805164158e-01   -3.138667941e-01
     1185000000    2.808986008e-01   -3.182551265e-01
     1185500000    2.812517285e-01   -3.222254515e-01
     1186000000    2.824690044e-01   -3.258179128e-01
     1186500000    2.813025117e-01   -3.315274119e-01
     1187000000    2.820849121e-01   -3.344606161e-01
     1187500000    2.808670700e-01   -3.397590220e-01
     1188000000    2.823278904e-01   -3.427636325e-01
     1188500000    2.812243998e-01   -3.475032151e-01
     1189000000    2.805953920e-01   -3.517278135e-01
     1189500000    2.808149159e-01   -3.552047014e-01
     1190000000    2.807986140e-01   -3.589270413e-01
     1190500000    2.804614007e-01   -3.630912304e-01
     1191000000    2.801453769e-01   -3.662662804e-01
     1191500000    2.805170417e-01   -3.694300056e-01
     1192000000    2.793572545e-01   -3.730365336e-01
     1192500000    2.773361206e-01   -3.780539334e-01
     1193000000    2.787074745e-01   -3.802015483e-01
     1193500000    2.775337100e-01   -3.847843707e-01
     1194000000    2.774769366e-01   -3.875330687e-01
     1194500000    2.764351368e-01   -3.917855322e-01
     1195000000    2.773722708e-01   -3.942697346e-01
     1195500000    2.764514983e-01   -3.976141214e-01
     1196000000    2.778110802e-01   -3.999290168e-01
     1196500000    2.756357193e-01   -4.048588872e-01
     1197000000    2.759674191e-01   -4.078187346e-01
     1197500000    2.768028975e-01   -4.104506373e-01
     1198000000    2.762354314e-01   -4.141142666e-01
     1198500000    2.766679525e-01   -4.164217412e-01
     1199000000    2.760172486e-01   -4.202328622e-01
     1199500000    2.772122324e-01   -4.220651686e-01
     1200000000    2.774686217e-01   -4.250970185e-01
