! NanoVNA-App
! Date: 2026-05-22 19:39:37
! Start: 400MHz Stop: 1GHz Points: 401
! S-Parameter data: F S11
# Hz S RI R 50
!     Frequency           S11_Real           S11_Imag
      400000000    5.104917884e-01    6.867982149e-01
      401500000    4.997586608e-01    6.955125332e-01
      403000000    4.883539379e-01    7.040472627e-01
      404500000    4.773983657e-01    7.117378712e-01
      406000000    4.662722945e-01    7.184183598e-01
      407500000    4.539220035e-01    7.254472375e-01
      409000000    4.434707463e-01    7.304255366e-01
      410500000    4.335244894e-01    7.348069549e-01
      412000000    4.241203964e-01    7.384275794e-01
      413500000    4.181072414e-01    7.395419478e-01
      415000000    4.119404256e-01    7.407097816e-01
      416500000    4.091467261e-01    7.385193110e-01
      418000000    4.076543152e-01    7.360852361e-01
      419500000    4.079823494e-01    7.323013544e-01
      421000000    4.095990956e-01    7.275173664e-01
      422500000    4.126115143e-01    7.209532857e-01
      424000000    4.180274606e-01    7.149190903e-01
      425500000    4.238158762e-01    7.070676088e-01
      427000000    4.311923981e-01    6.998513341e-01
      428500000    4.385331273e-01    6.918332577e-01
      430000000    4.469839633e-01    6.843615174e-01
      431500000    4.553422928e-01    6.769277453e-01
      433000000    4.622688293e-01    6.711981893e-01
      434500000    4.694560468e-01    6.646058559e-01
      436000000    4.755464196e-01    6.605044603e-01
      437500000    4.797589183e-01    6.575658917e-01
      439000000    4.832980931e-01    6.548565626e-01
      440500000    4.843498468e-01    6.545041203e-01
      442000000    4.852846861e-01    6.543070078e-01
      443500000    4.844576418e-01    6.562169790e-01
      445000000    4.827990234e-01    6.582448483e-01
      446500000    4.787323475e-01    6.608226299e-01
      448000000    4.751825929e-01    6.638070941e-01
      449500000    4.699242413e-01    6.669080257e-01
      451000000    4.639119804e-01    6.703134179e-01
      452500000    4.574759603e-01    6.740093827e-01
      454000000    4.514833987e-01    6.758923531e-01
      455500000    4.449843764e-01    6.782968640e-01
      457000000    4.391156733e-01    6.785356402e-01
      458500000    4.336394668e-01    6.779000759e-01
      460000000    4.275595546e-01    6.776822805e-01
      461500000    4.245360792e-01    6.743161678e-01
      463000000    4.218710959e-01    6.709531546e-01
      464500000    4.200302958e-01    6.666957140e-01
      466000000    4.202440381e-01    6.608349681e-01
      467500000    4.216854274e-01    6.548458934e-01
      469000000    4.247850478e-01    6.474571824e-01
      470500000    4.287938476e-01    6.390833855e-01
      472000000    4.348711967e-01    6.305963993e-01
      473500000    4.412195385e-01    6.209571958e-01
      475000000    4.477005005e-01    6.116189361e-01
      476500000    4.543883801e-01    6.014658809e-01
      478000000    4.612702429e-01    5.925992727e-01
      479500000    4.686178267e-01    5.847083330e-01
      481000000    4.738942683e-01    5.774511695e-01
      482500000    4.794031382e-01    5.711003542e-01
      484000000    4.840316474e-01    5.664492249e-01
      485500000    4.863546491e-01    5.638418794e-01
      487000000    4.881747961e-01    5.621187091e-01
      488500000    4.889625013e-01    5.611772537e-01
      490000000    4.886244237e-01    5.619738698e-01
      491500000    4.859216809e-01    5.646719933e-01
      493000000    4.840679467e-01    5.661593080e-01
      494500000    4.796158373e-01    5.690363646e-01
      496000000    4.740674496e-01    5.723014474e-01
      497500000    4.674590528e-01    5.761582255e-01
      499000000    4.598760903e-01    5.795704126e-01
      500500000    4.517654777e-01    5.821688175e-01
      502000000    4.428256154e-01    5.838539600e-01
      503500000    4.333349466e-01    5.848892927e-01
      505000000    4.238918126e-01    5.854020715e-01
      506500000    4.144992530e-01    5.842334628e-01
      508000000    4.055345356e-01    5.830583572e-01
      509500000    3.974621594e-01    5.803819895e-01
      511000000    3.907131553e-01    5.775547028e-01
      512500000    3.853449821e-01    5.738827586e-01
      514000000    3.818842471e-01    5.695585608e-01
      515500000    3.817442656e-01    5.622637272e-01
      517000000    3.822742403e-01    5.551141500e-01
      518500000    3.851025999e-01    5.460768342e-01
      520000000    3.888283968e-01    5.362761617e-01
      521500000    3.953695595e-01    5.247550011e-01
      523000000    4.013861418e-01    5.133326054e-01
      524500000    4.094676673e-01    5.003634691e-01
      526000000    4.171752930e-01    4.877719879e-01
      527500000    4.238783419e-01    4.755847156e-01
      529000000    4.301544130e-01    4.647064507e-01
      530500000    4.365647733e-01    4.552290440e-01
      532000000    4.423659742e-01    4.476433396e-01
      533500000    4.479340315e-01    4.401465058e-01
      535000000    4.519926906e-01    4.350952804e-01
      536500000    4.551819861e-01    4.305826724e-01
      538000000    4.578083456e-01    4.282281995e-01
      539500000    4.591550529e-01    4.271343648e-01
      541000000    4.597314596e-01    4.266904891e-01
      542500000    4.602750540e-01    4.260111153e-01
      544000000    4.591431320e-01    4.261203110e-01
      545500000    4.562222958e-01    4.266595244e-01
      547000000    4.526599646e-01    4.259102643e-01
      548500000    4.479424655e-01    4.250744879e-01
      550000000    4.411526918e-01    4.249654412e-01
      551500000    4.353855848e-01    4.237419963e-01
      553000000    4.290492833e-01    4.218456447e-01
      554500000    4.223857224e-01    4.189934731e-01
      556000000    4.152098000e-01    4.168147743e-01
      557500000    4.103231728e-01    4.121769965e-01
      559000000    4.056417644e-01    4.067083597e-01
      560500000    4.022818506e-01    4.011617899e-01
      562000000    4.002236724e-01    3.929298222e-01
      563500000    3.985929489e-01    3.848590851e-01
      565000000    3.985561430e-01    3.743800521e-01
      566500000    3.987491131e-01    3.631104231e-01
      568000000    4.003089666e-01    3.519809246e-01
      569500000    4.019263089e-01    3.403892517e-01
      571000000    4.050066769e-01    3.280294240e-01
      572500000    4.073862135e-01    3.171677589e-01
      574000000    4.108278453e-01    3.060525060e-01
      575500000    4.140965641e-01    2.965514064e-01
      577000000    4.183581471e-01    2.878057063e-01
      578500000    4.213437140e-01    2.802185416e-01
      580000000    4.245214164e-01    2.733907402e-01
      581500000    4.272222221e-01    2.681300640e-01
      583000000    4.289920330e-01    2.632812560e-01
      584500000    4.295056164e-01    2.597104013e-01
      586000000    4.291812479e-01    2.566751540e-01
      587500000    4.280714393e-01    2.550262213e-01
      589000000    4.253050089e-01    2.532232106e-01
      590500000    4.224948883e-01    2.511965632e-01
      592000000    4.174856246e-01    2.509686053e-01
      593500000    4.114338160e-01    2.493289560e-01
      595000000    4.054377079e-01    2.475350201e-01
      596500000    3.982148767e-01    2.449951321e-01
      598000000    3.906838298e-01    2.395844162e-01
      599500000    3.822958767e-01    2.337798774e-01
      601000000    3.729342818e-01    2.251587659e-01
      602500000    3.630883098e-01    2.164266557e-01
      604000000    3.534355164e-01    2.049449682e-01
      605500000    3.437414765e-01    1.924788207e-01
      607000000    3.346236944e-01    1.782034487e-01
      608500000    3.261499703e-01    1.624047011e-01
      610000000    3.189088702e-01    1.449476928e-01
      611500000    3.120465577e-01    1.275017858e-01
      613000000    3.066211939e-01    1.085327268e-01
      614500000    3.026258647e-01    8.859326690e-02
      616000000    2.994690835e-01    6.865181029e-02
      617500000    2.972700596e-01    4.918910563e-02
      619000000    2.962206006e-01    2.922790498e-02
      620500000    2.959493399e-01    1.086861268e-02
      622000000    2.959440649e-01   -6.076119840e-03
      623500000    2.966046929e-01   -2.114180103e-02
      625000000    2.971985936e-01   -3.346741945e-02
      626500000    2.988599241e-01   -4.395413771e-02
      628000000    3.006252050e-01   -5.094149336e-02
      629500000    3.031769097e-01   -5.594794452e-02
      631000000    3.061800897e-01   -5.843291059e-02
      632500000    3.089087605e-01   -5.987229943e-02
      634000000    3.109314144e-01   -5.964740738e-02
      635500000    3.113212883e-01   -5.871988088e-02
      637000000    3.105791211e-01   -5.563240871e-02
      638500000    3.083549440e-01   -5.173925310e-02
      640000000    3.045585752e-01   -4.665683955e-02
      641500000    2.981133759e-01   -4.232702777e-02
      643000000    2.903729975e-01   -3.732716292e-02
      644500000    2.804967463e-01   -3.227594867e-02
      646000000    2.688535750e-01   -2.795507014e-02
      647500000    2.552828789e-01   -2.393606491e-02
      649000000    2.400909811e-01   -2.145117149e-02
      650500000    2.232158035e-01   -1.975941658e-02
      652000000    2.057910115e-01   -1.951053739e-02
      653500000    1.868077964e-01   -2.029183879e-02
      655000000    1.682987660e-01   -2.230353281e-02
      656500000    1.496560574e-01   -2.622683719e-02
      658000000    1.312832385e-01   -3.116089292e-02
      659500000    1.129071563e-01   -3.670652956e-02
      661000000    9.545534104e-02   -4.374779016e-02
      662500000    7.904989272e-02   -5.127424374e-02
      664000000    6.469256431e-02   -5.900812522e-02
      665500000    5.193931237e-02   -6.663148105e-02
      667000000    4.155278206e-02   -7.476859540e-02
      668500000    3.263162822e-02   -8.253497630e-02
      670000000    2.585119754e-02   -9.012760967e-02
      671500000    2.052006684e-02   -9.668383002e-02
      673000000    1.718543097e-02   -1.022405475e-01
      674500000    1.566832885e-02   -1.061891168e-01
      676000000    1.641820930e-02   -1.088017225e-01
      677500000    1.891265623e-02   -1.101684496e-01
      679000000    2.269557491e-02   -1.108230725e-01
      680500000    2.736621536e-02   -1.101040021e-01
      682000000    3.217721730e-02   -1.081464440e-01
      683500000    3.746564686e-02   -1.056558192e-01
      685000000    4.249199480e-02   -1.016675755e-01
      686500000    4.723517224e-02   -9.709300101e-02
      688000000    5.062606931e-02   -9.164809436e-02
      689500000    5.379723758e-02   -8.603292704e-02
      691000000    5.569192022e-02   -7.978127152e-02
      692500000    5.645359308e-02   -7.337512076e-02
      694000000    5.613529310e-02   -6.696646661e-02
      695500000    5.560393631e-02   -6.155776232e-02
      697000000    5.384869501e-02   -5.621169508e-02
      698500000    5.182205141e-02   -5.275521055e-02
      700000000    4.952849448e-02   -5.014983565e-02
      701500000    4.765649885e-02   -4.918595403e-02
      703000000    4.514362291e-02   -5.052062497e-02
      704500000    4.494354874e-02   -5.921003968e-02
      706000000    4.267980158e-02   -6.355966628e-02
      707500000    4.104599357e-02   -7.056728005e-02
      709000000    4.029343650e-02   -7.831129432e-02
      710500000    4.037971422e-02   -8.745999634e-02
      712000000    4.192714393e-02   -9.791304916e-02
      713500000    4.477422312e-02   -1.098280400e-01
      715000000    4.924741760e-02   -1.223231554e-01
      716500000    5.515441671e-02   -1.352909356e-01
      718000000    6.261245161e-02   -1.484355330e-01
      719500000    7.120063156e-02   -1.609833688e-01
      721000000    8.141208440e-02   -1.732971668e-01
      722500000    9.260284901e-02   -1.843726039e-01
      724000000    1.048860922e-01   -1.946796924e-01
      725500000    1.181096956e-01   -2.034017891e-01
      727000000    1.316469461e-01   -2.104824632e-01
      728500000    1.450169832e-01   -2.155846208e-01
      730000000    1.589118540e-01   -2.190854847e-01
      731500000    1.732649207e-01   -2.202720642e-01
      733000000    1.858246177e-01   -2.200504094e-01
      734500000    1.974664330e-01   -2.183662802e-01
      736000000    2.079994380e-01   -2.144056112e-01
      737500000    2.173913270e-01   -2.093031704e-01
      739000000    2.245454043e-01   -2.028677016e-01
      740500000    2.292581797e-01   -1.959187239e-01
      742000000    2.333416939e-01   -1.876040101e-01
      743500000    2.357832193e-01   -1.795163751e-01
      745000000    2.373965532e-01   -1.713356674e-01
      746500000    2.361728549e-01   -1.652052104e-01
      748000000    2.343416214e-01   -1.597173065e-01
      749500000    2.305505872e-01   -1.571442336e-01
      751000000    2.245780975e-01   -1.564915031e-01
      752500000    2.166655958e-01   -1.593362987e-01
      754000000    2.073259950e-01   -1.624658257e-01
      755500000    1.953941435e-01   -1.686421037e-01
      757000000    1.826339215e-01   -1.758226603e-01
      758500000    1.702556312e-01   -1.844725609e-01
      760000000    1.570612341e-01   -1.944413930e-01
      761500000    1.444891244e-01   -2.056727111e-01
      763000000    1.314159036e-01   -2.183169872e-01
      764500000    1.206538156e-01   -2.309883088e-01
      766000000    1.106672511e-01   -2.446161062e-01
      767500000    1.021074355e-01   -2.593609393e-01
      769000000    9.485700727e-02   -2.740445435e-01
      770500000    8.932396770e-02   -2.888695300e-01
      772000000    8.508410305e-02   -3.033716083e-01
      773500000    8.247546852e-02   -3.172286451e-01
      775000000    8.109545708e-02   -3.299780190e-01
      776500000    8.126822114e-02   -3.415218294e-01
      778000000    8.247438818e-02   -3.514137268e-01
      779500000    8.561687917e-02   -3.603881896e-01
      781000000    8.982311934e-02   -3.672454655e-01
      782500000    9.446378052e-02   -3.732962608e-01
      784000000    9.992019087e-02   -3.783573508e-01
      785500000    1.058637053e-01   -3.822615445e-01
      787000000    1.110289022e-01   -3.854092956e-01
      788500000    1.158698648e-01   -3.879152834e-01
      790000000    1.207039654e-01   -3.888420165e-01
      791500000    1.241613328e-01   -3.901817501e-01
      793000000    1.266756356e-01   -3.908369243e-01
      794500000    1.266564429e-01   -3.916376233e-01
      796000000    1.271004528e-01   -3.929291964e-01
      797500000    1.262822896e-01   -3.938586116e-01
      799000000    1.229159012e-01   -3.952030838e-01
      800500000    1.188510954e-01   -3.973958790e-01
      802000000    1.140638962e-01   -3.998966515e-01
      803500000    1.075278074e-01   -4.032112658e-01
      805000000    1.003370360e-01   -4.065912068e-01
      806500000    9.201460332e-02   -4.107638299e-01
      808000000    8.380970359e-02   -4.141364694e-01
      809500000    7.561184466e-02   -4.188253284e-01
      811000000    6.712996960e-02   -4.238613546e-01
      812500000    5.942936987e-02   -4.283980429e-01
      814000000    5.216600001e-02   -4.338856041e-01
      815500000    4.504061118e-02   -4.395961463e-01
      817000000    3.884452954e-02   -4.447896183e-01
      818500000    3.373380005e-02   -4.496198893e-01
      820000000    2.917076275e-02   -4.545415640e-01
      821500000    2.558731288e-02   -4.586915076e-01
      823000000    2.164503001e-02   -4.624227583e-01
      824500000    2.072025277e-02   -4.661227167e-01
      826000000    1.828580908e-02   -4.690927565e-01
      827500000    1.658364199e-02   -4.716314673e-01
      829000000    1.503884699e-02   -4.741477370e-01
      830500000    1.345730294e-02   -4.757916331e-01
      832000000    1.207411289e-02   -4.772493839e-01
      833500000    8.870486170e-03   -4.782854617e-01
      835000000    5.701233633e-03   -4.784271419e-01
      836500000    2.527302830e-03   -4.787933826e-01
      838000000   -1.566829393e-03   -4.780340195e-01
      839500000   -6.778507959e-03   -4.777232111e-01
      841000000   -1.321908832e-02   -4.774502516e-01
      842500000   -1.889873110e-02   -4.771163762e-01
      844000000   -2.560674399e-02   -4.774913192e-01
      845500000   -3.106101789e-02   -4.783266783e-01
      847000000   -3.961052746e-02   -4.803242087e-01
      848500000   -4.612311721e-02   -4.823762476e-01
      850000000   -5.325247720e-02   -4.853250682e-01
      851500000   -5.960572138e-02   -4.892695844e-01
      853000000   -6.559669971e-02   -4.938799739e-01
      854500000   -7.090763748e-02   -4.989883304e-01
      856000000   -7.531018555e-02   -5.053976774e-01
      857500000   -7.919096202e-02   -5.116620064e-01
      859000000   -8.181066066e-02   -5.192364454e-01
      860500000   -8.398274332e-02   -5.258792043e-01
      862000000   -8.376213163e-02   -5.323150158e-01
      863500000   -8.137101680e-02   -5.389512181e-01
      865000000   -7.974528521e-02   -5.443437696e-01
      866500000   -7.404388487e-02   -5.499127507e-01
      868000000   -6.835702807e-02   -5.543458462e-01
      869500000   -6.094106287e-02   -5.591890216e-01
      871000000   -5.288306996e-02   -5.620277524e-01
      872500000   -4.470366985e-02   -5.641819239e-01
      874000000   -3.484052047e-02   -5.663929582e-01
      875500000   -2.582570538e-02   -5.668811202e-01
      877000000   -1.722989418e-02   -5.668922663e-01
      878500000   -9.235992096e-03   -5.660026073e-01
      880000000   -1.297537470e-03   -5.643960834e-01
      881500000    4.594980739e-03   -5.618168116e-01
      883000000    1.172624994e-02   -5.589776635e-01
      884500000    1.316740643e-02   -5.551100969e-01
      886000000    1.456742827e-02   -5.512539744e-01
      887500000    1.413564943e-02   -5.473247170e-01
      889000000    1.344940159e-02   -5.422964692e-01
      890500000    9.637733921e-03   -5.388247371e-01
      892000000    4.153137095e-03   -5.353300571e-01
      893500000   -1.970519777e-03   -5.322893262e-01
      895000000   -9.889808483e-03   -5.304245949e-01
      896500000   -1.932410710e-02   -5.289091468e-01
      898000000   -2.843700722e-02   -5.278669596e-01
      899500000   -3.733666241e-02   -5.280415416e-01
      901000000   -4.862406850e-02   -5.296924710e-01
      902500000   -5.696586147e-02   -5.312240124e-01
      904000000   -6.541966647e-02   -5.342006087e-01
      905500000   -7.191608101e-02   -5.376881361e-01
      907000000   -7.791905850e-02   -5.422311425e-01
      908500000   -8.160649985e-02   -5.469993949e-01
      910000000   -8.349059522e-02   -5.522472262e-01
      911500000   -8.227115124e-02   -5.581771135e-01
      913000000   -8.126410097e-02   -5.640035868e-01
      914500000   -7.539015263e-02   -5.712717175e-01
      916000000   -6.930095702e-02   -5.771339536e-01
      917500000   -6.116078049e-02   -5.836086273e-01
      919000000   -5.306097493e-02   -5.890123844e-01
      920500000   -4.310089350e-02   -5.931715369e-01
      922000000   -3.165311739e-02   -5.966644883e-01
      923500000   -2.063129097e-02   -5.989670753e-01
      925000000   -9.766970761e-03   -6.001982689e-01
      926500000    1.291371533e-03   -5.998746753e-01
      928000000    1.225833315e-02   -5.990415215e-01
      929500000    2.123461477e-02   -5.962880254e-01
      931000000    2.881435491e-02   -5.929236412e-01
      932500000    3.754711151e-02   -5.890501738e-01
      934000000    4.085132480e-02   -5.834680796e-01
      935500000    4.457787797e-02   -5.783708096e-01
      937000000    4.465428367e-02   -5.730368495e-01
      938500000    4.323135689e-02   -5.678904057e-01
      940000000    4.117088765e-02   -5.632897019e-01
      941500000    3.530111536e-02   -5.585592389e-01
      943000000    2.697960846e-02   -5.555150509e-01
      944500000    1.747431606e-02   -5.526987314e-01
      946000000    6.223951932e-03   -5.508514643e-01
      947500000   -4.614651203e-03   -5.497531891e-01
      949000000   -1.668413170e-02   -5.492550731e-01
      950500000   -2.853688784e-02   -5.499381423e-01
      952000000   -4.040635750e-02   -5.521723628e-01
      953500000   -5.034508929e-02   -5.551062226e-01
      955000000   -5.971980095e-02   -5.593985915e-01
      956500000   -6.781484187e-02   -5.642661452e-01
      958000000   -7.344003022e-02   -5.698918104e-01
      959500000   -7.564386725e-02   -5.768852234e-01
      961000000   -7.708045095e-02   -5.836228728e-01
      962500000   -7.390857488e-02   -5.913959742e-01
      964000000   -6.909062713e-02   -5.986368060e-01
      965500000   -6.123159453e-02   -6.063368320e-01
      967000000   -5.077720433e-02   -6.134274602e-01
      968500000   -4.137923568e-02   -6.186289787e-01
      970000000   -2.644400671e-02   -6.237561107e-01
      971500000   -1.077025197e-02   -6.276176572e-01
      973000000    3.640752984e-03   -6.295375228e-01
      974500000    2.053214423e-02   -6.303029060e-01
      976000000    3.663657233e-02   -6.291951537e-01
      977500000    5.528102815e-02   -6.269103289e-01
      979000000    7.023154944e-02   -6.226024032e-01
      980500000    8.578806370e-02   -6.176559329e-01
      982000000    9.953451157e-02   -6.113857031e-01
      983500000    1.105354279e-01   -6.040764451e-01
      985000000    1.180565432e-01   -5.957040191e-01
      986500000    1.246749759e-01   -5.866540670e-01
      988000000    1.258967966e-01   -5.778254867e-01
      989500000    1.254024059e-01   -5.688291788e-01
      991000000    1.224754900e-01   -5.594447851e-01
      992500000    1.148910373e-01   -5.514461994e-01
      994000000    1.054814085e-01   -5.436650515e-01
      995500000    9.476391971e-02   -5.368422270e-01
      997000000    8.036200702e-02   -5.324268341e-01
      998500000    6.311741471e-02   -5.288416147e-01
     1000000000    4.406390712e-02   -5.259076357e-01
