! NanoVNA-App
! Date: 2026-05-22 22:06:26
! Start: 1GHz Stop: 1.2GHz Points: 401
! S-Parameter data: F S11
# Hz S RI R 50
!     Frequency           S11_Real           S11_Imag
     1000000000   -1.535860449e-01   -4.260657430e-01
     1000500000   -1.618122905e-01   -4.234310389e-01
     1001000000   -1.690193266e-01   -4.218580127e-01
     1001500000   -1.763095558e-01   -4.201973975e-01
     1002000000   -1.827040911e-01   -4.188978374e-01
     1002500000   -1.904853582e-01   -4.174294174e-01
     1003000000   -1.978821307e-01   -4.166029692e-01
     1003500000   -2.052871734e-01   -4.154387414e-01
     1004000000   -2.111244351e-01   -4.159328341e-01
     1004500000   -2.189677656e-01   -4.153413773e-01
     1005000000   -2.263674736e-01   -4.149213135e-01
     1005500000   -2.317768931e-01   -4.161909521e-01
     1006000000   -2.396730483e-01   -4.159297347e-01
     1006500000   -2.463788092e-01   -4.156408906e-01
     1007000000   -2.512467504e-01   -4.172291458e-01
     1007500000   -2.583825290e-01   -4.176658094e-01
     1008000000   -2.647196054e-01   -4.181309044e-01
     1008500000   -2.700231671e-01   -4.202300310e-01
     1009000000   -2.748086452e-01   -4.218060374e-01
     1009500000   -2.796601057e-01   -4.237123132e-01
     1010000000   -2.850858867e-01   -4.249330759e-01
     1010500000   -2.900893390e-01   -4.262007177e-01
     1011000000   -2.941023111e-01   -4.289785028e-01
     1011500000   -2.975648940e-01   -4.315202832e-01
     1012000000   -3.020663559e-01   -4.333258271e-01
     1012500000   -3.047497571e-01   -4.366012812e-01
     1013000000   -3.077867329e-01   -4.390680194e-01
     1013500000   -3.109565973e-01   -4.414428174e-01
     1014000000   -3.133437932e-01   -4.445140958e-01
     1014500000   -3.160242140e-01   -4.477031529e-01
     1015000000   -3.177799582e-01   -4.506599307e-01
     1015500000   -3.194042146e-01   -4.538929164e-01
     1016000000   -3.207464516e-01   -4.566957951e-01
     1016500000   -3.215949535e-01   -4.600238204e-01
     1017000000   -3.229098916e-01   -4.628987610e-01
     1017500000   -3.235797286e-01   -4.660182893e-01
     1018000000   -3.237582147e-01   -4.690113664e-01
     1018500000   -3.237091899e-01   -4.720697999e-01
     1019000000   -3.227456212e-01   -4.756660163e-01
     1019500000   -3.236449361e-01   -4.772485495e-01
     1020000000   -3.223246336e-01   -4.807391167e-01
     1020500000   -3.211053312e-01   -4.842423499e-01
     1021000000   -3.204822242e-01   -4.867638648e-01
     1021500000   -3.195308745e-01   -4.888446331e-01
     1022000000   -3.179659545e-01   -4.910526574e-01
     1022500000   -3.157656193e-01   -4.940318465e-01
     1023000000   -3.140240014e-01   -4.961763918e-01
     1023500000   -3.128010035e-01   -4.971387386e-01
     1024000000   -3.100461662e-01   -4.998590946e-01
     1024500000   -3.084713221e-01   -5.010516047e-01
     1025000000   -3.043044508e-01   -5.039385557e-01
     1025500000   -3.035271764e-01   -5.042217374e-01
     1026000000   -3.008993864e-01   -5.054188967e-01
     1026500000   -2.957100868e-01   -5.081960559e-01
     1027000000   -2.959465981e-01   -5.073223114e-01
     1027500000   -2.915561795e-01   -5.093587637e-01
     1028000000   -2.893466353e-01   -5.092194080e-01
     1028500000   -2.859291136e-01   -5.095609426e-01
     1029000000   -2.838722765e-01   -5.094292164e-01
     1029500000   -2.798186541e-01   -5.100811124e-01
     1030000000   -2.780781388e-01   -5.089679360e-01
     1030500000   -2.756297588e-01   -5.088573694e-01
     1031000000   -2.730970085e-01   -5.077614784e-01
     1031500000   -2.705820799e-01   -5.065755248e-01
     1032000000   -2.682278752e-01   -5.051900148e-01
     1032500000   -2.644783854e-01   -5.041095018e-01
     1033000000   -2.637273073e-01   -5.020947456e-01
     1033500000   -2.607498169e-01   -4.998327494e-01
     1034000000   -2.586116195e-01   -4.975925684e-01
     1034500000   -2.580667138e-01   -4.945948422e-01
     1035000000   -2.548939586e-01   -4.926683009e-01
     1035500000   -2.534193993e-01   -4.895167053e-01
     1036000000   -2.529563010e-01   -4.857008755e-01
     1036500000   -2.511200011e-01   -4.829031229e-01
     1037000000   -2.478456348e-01   -4.801742136e-01
     1037500000   -2.477308661e-01   -4.762082696e-01
     1038000000   -2.469642609e-01   -4.729563892e-01
     1038500000   -2.458926439e-01   -4.690016806e-01
     1039000000   -2.449787706e-01   -4.653200507e-01
     1039500000   -2.435035259e-01   -4.617032111e-01
     1040000000   -2.436238080e-01   -4.576121569e-01
     1040500000   -2.436003238e-01   -4.535987973e-01
     1041000000   -2.430718094e-01   -4.493588209e-01
     1041500000   -2.425891757e-01   -4.451987743e-01
     1042000000   -2.424961776e-01   -4.414997697e-01
     1042500000   -2.430891544e-01   -4.374009967e-01
     1043000000   -2.431960404e-01   -4.337449074e-01
     1043500000   -2.444902062e-01   -4.296071231e-01
     1044000000   -2.447272539e-01   -4.256415963e-01
     1044500000   -2.458979934e-01   -4.214760959e-01
     1045000000   -2.469635159e-01   -4.175515473e-01
     1045500000   -2.490177602e-01   -4.134730995e-01
     1046000000   -2.500717938e-01   -4.094868302e-01
     1046500000   -2.522298396e-01   -4.057187438e-01
     1047000000   -2.538184822e-01   -4.024428427e-01
     1047500000   -2.564015985e-01   -3.980339170e-01
     1048000000   -2.581661046e-01   -3.949737549e-01
     1048500000   -2.611496449e-01   -3.905324042e-01
     1049000000   -2.637790143e-01   -3.869684637e-01
     1049500000   -2.659249306e-01   -3.836016953e-01
     1050000000   -2.696697712e-01   -3.795587718e-01
     1050500000   -2.728287578e-01   -3.760540485e-01
     1051000000   -2.755742073e-01   -3.721448481e-01
     1051500000   -2.784844339e-01   -3.689658642e-01
     1052000000   -2.822969258e-01   -3.651538491e-01
     1052500000   -2.856194377e-01   -3.610312939e-01
     1053000000   -2.893000245e-01   -3.571505249e-01
     1053500000   -2.917638421e-01   -3.547451198e-01
     1054000000   -2.957632244e-01   -3.501224220e-01
     1054500000   -2.986360788e-01   -3.467444479e-01
     1055000000   -3.012115955e-01   -3.434479833e-01
     1055500000   -3.042122722e-01   -3.395596445e-01
     1056000000   -3.072790205e-01   -3.364569843e-01
     1056500000   -3.101312518e-01   -3.319072127e-01
     1057000000   -3.122204840e-01   -3.289850056e-01
     1057500000   -3.154615462e-01   -3.246520162e-01
     1058000000   -3.168891668e-01   -3.215589523e-01
     1058500000   -3.190389574e-01   -3.180967867e-01
     1059000000   -3.209839761e-01   -3.141535521e-01
     1059500000   -3.222413659e-01   -3.110309541e-01
     1060000000   -3.236295879e-01   -3.072760403e-01
     1060500000   -3.251115680e-01   -3.033923209e-01
     1061000000   -3.259597719e-01   -3.002822101e-01
     1061500000   -3.266250491e-01   -2.966431081e-01
     1062000000   -3.267041445e-01   -2.943437099e-01
     1062500000   -3.263441026e-01   -2.908933461e-01
     1063000000   -3.269482255e-01   -2.858644128e-01
     1063500000   -3.251972795e-01   -2.843025923e-01
     1064000000   -3.254327774e-01   -2.795216143e-01
     1064500000   -3.239170909e-01   -2.771823406e-01
     1065000000   -3.222799301e-01   -2.737205029e-01
     1065500000   -3.212302923e-01   -2.695498168e-01
     1066000000   -3.192113936e-01   -2.671932280e-01
     1066500000   -3.171959221e-01   -2.636957765e-01
     1067000000   -3.143283427e-01   -2.603423595e-01
     1067500000   -3.116279542e-01   -2.568241060e-01
     1068000000   -3.078559935e-01   -2.544551790e-01
     1068500000   -3.050945103e-01   -2.499440908e-01
     1069000000   -3.013833463e-01   -2.479868680e-01
     1069500000   -2.978452742e-01   -2.445382625e-01
     1070000000   -2.941780090e-01   -2.410562336e-01
     1070500000   -2.889098227e-01   -2.388668954e-01
     1071000000   -2.845144272e-01   -2.354990095e-01
     1071500000   -2.801526785e-01   -2.320196927e-01
     1072000000   -2.751568854e-01   -2.294247001e-01
     1072500000   -2.699007690e-01   -2.266232818e-01
     1073000000   -2.650620341e-01   -2.232688516e-01
     1073500000   -2.593715787e-01   -2.199914604e-01
     1074000000   -2.543566823e-01   -2.165027261e-01
     1074500000   -2.489512861e-01   -2.141760141e-01
     1075000000   -2.437148243e-01   -2.105769068e-01
     1075500000   -2.378750294e-01   -2.070379406e-01
     1076000000   -2.324917316e-01   -2.036280632e-01
     1076500000   -2.263806760e-01   -2.005208880e-01
     1077000000   -2.206721753e-01   -1.970372200e-01
     1077500000   -2.154923081e-01   -1.930234730e-01
     1078000000   -2.096960843e-01   -1.892050207e-01
     1078500000   -2.038071305e-01   -1.854364723e-01
     1079000000   -1.987161338e-01   -1.816963106e-01
     1079500000   -1.923440844e-01   -1.774205416e-01
     1080000000   -1.869479120e-01   -1.727053523e-01
     1080500000   -1.819343716e-01   -1.684185863e-01
     1081000000   -1.763204336e-01   -1.633631736e-01
     1081500000   -1.705192924e-01   -1.586036980e-01
     1082000000   -1.647644341e-01   -1.535530239e-01
     1082500000   -1.593135744e-01   -1.483997107e-01
     1083000000   -1.535904109e-01   -1.432089806e-01
     1083500000   -1.479424685e-01   -1.379544735e-01
     1084000000   -1.420098245e-01   -1.319170445e-01
     1084500000   -1.356898844e-01   -1.265412420e-01
     1085000000   -1.308311075e-01   -1.207885295e-01
     1085500000   -1.245175600e-01   -1.148472726e-01
     1086000000   -1.183252633e-01   -1.087724641e-01
     1086500000   -1.127918065e-01   -1.025175899e-01
     1087000000   -1.065751389e-01   -9.650377184e-02
     1087500000   -9.987687320e-02   -9.049496800e-02
     1088000000   -9.377112240e-02   -8.430579305e-02
     1088500000   -8.717393875e-02   -7.831446826e-02
     1089000000   -8.008120954e-02   -7.227720320e-02
     1089500000   -7.356569916e-02   -6.669292599e-02
     1090000000   -6.714578718e-02   -6.159002334e-02
     1090500000   -6.028335914e-02   -5.624849722e-02
     1091000000   -5.338839814e-02   -5.123741925e-02
     1091500000   -4.666049406e-02   -4.633776098e-02
     1092000000   -3.989256173e-02   -4.155997559e-02
     1092500000   -3.307477757e-02   -3.746617213e-02
     1093000000   -2.626924217e-02   -3.356472403e-02
     1093500000   -2.000784129e-02   -2.993917279e-02
     1094000000   -1.328740176e-02   -2.631005459e-02
     1094500000   -7.218258455e-03   -2.352788113e-02
     1095000000   -1.299894182e-03   -2.061280608e-02
     1095500000    4.899684340e-03   -1.823497936e-02
     1096000000    1.070740074e-02   -1.582759805e-02
     1096500000    1.618021727e-02   -1.365955081e-02
     1097000000    2.132214047e-02   -1.210961677e-02
     1097500000    2.645760216e-02   -1.029471122e-02
     1098000000    3.159573302e-02   -9.373731911e-03
     1098500000    3.604613245e-02   -7.868517190e-03
     1099000000    4.134722799e-02   -7.040486205e-03
     1099500000    4.605313018e-02   -6.825643126e-03
     1100000000    5.032125115e-02   -5.802636966e-03
     1100500000    5.499084294e-02   -5.640575662e-03
     1101000000    5.942004174e-02   -5.607806146e-03
     1101500000    6.373327225e-02   -5.561694503e-03
     1102000000    6.853406131e-02   -6.461619399e-03
     1102500000    7.260518521e-02   -7.210237905e-03
     1103000000    7.682655007e-02   -7.945104502e-03
     1103500000    8.081252128e-02   -9.377644397e-03
     1104000000    8.518109471e-02   -1.070305612e-02
     1104500000    8.948934823e-02   -1.271197386e-02
     1105000000    9.275674075e-02   -1.457136590e-02
     1105500000    9.692267329e-02   -1.680029184e-02
     1106000000    1.008853614e-01   -1.907091215e-02
     1106500000    1.045180783e-01   -2.154956944e-02
     1107000000    1.084782034e-01   -2.469968237e-02
     1107500000    1.124558151e-01   -2.768008038e-02
     1108000000    1.160015613e-01   -3.071647510e-02
     1108500000    1.198885664e-01   -3.405014798e-02
     1109000000    1.236157715e-01   -3.757423908e-02
     1109500000    1.274230182e-01   -4.139328375e-02
     1110000000    1.316712052e-01   -4.538681731e-02
     1110500000    1.350851506e-01   -4.928473383e-02
     1111000000    1.392372102e-01   -5.355240777e-02
     1111500000    1.430248767e-01   -5.804738402e-02
     1112000000    1.468165666e-01   -6.243295223e-02
     1112500000    1.506227851e-01   -6.679169834e-02
     1113000000    1.542214155e-01   -7.149229944e-02
     1113500000    1.577988714e-01   -7.663399726e-02
     1114000000    1.616336703e-01   -8.133722097e-02
     1114500000    1.655563265e-01   -8.605390787e-02
     1115000000    1.688466817e-01   -9.109031409e-02
     1115500000    1.728899330e-01   -9.594214708e-02
     1116000000    1.767987311e-01   -1.005471721e-01
     1116500000    1.802224219e-01   -1.056859419e-01
     1117000000    1.835483611e-01   -1.112414598e-01
     1117500000    1.882931292e-01   -1.153953969e-01
     1118000000    1.922123879e-01   -1.201468706e-01
     1118500000    1.958321482e-01   -1.253224760e-01
     1119000000    1.997658908e-01   -1.299099326e-01
     1119500000    2.034986466e-01   -1.345382482e-01
     1120000000    2.072557956e-01   -1.388346553e-01
     1120500000    2.110676914e-01   -1.433381289e-01
     1121000000    2.150691003e-01   -1.472956091e-01
     1121500000    2.188570499e-01   -1.521069556e-01
     1122000000    2.229892910e-01   -1.563215405e-01
     1122500000    2.269534171e-01   -1.600253284e-01
     1123000000    2.311327904e-01   -1.638151407e-01
     1123500000    2.350310832e-01   -1.674927473e-01
     1124000000    2.394901812e-01   -1.707728356e-01
     1124500000    2.420357615e-01   -1.756967902e-01
     1125000000    2.468782216e-01   -1.783887744e-01
     1125500000    2.519690096e-01   -1.804951727e-01
     1126000000    2.543093860e-01   -1.852741092e-01
     1126500000    2.600356340e-01   -1.871004105e-01
     1127000000    2.620293796e-01   -1.915547550e-01
     1127500000    2.676886916e-01   -1.933467686e-01
     1128000000    2.719837129e-01   -1.952492595e-01
     1128500000    2.743453383e-01   -1.997253001e-01
     1129000000    2.802248895e-01   -2.003689110e-01
     1129500000    2.816102505e-01   -2.056249082e-01
     1130000000    2.872814834e-01   -2.068048418e-01
     1130500000    2.913520336e-01   -2.088111341e-01
     1131000000    2.940186560e-01   -2.122541666e-01
     1131500000    2.981332839e-01   -2.136218101e-01
     1132000000    3.013980389e-01   -2.161339521e-01
     1132500000    3.049904108e-01   -2.184112668e-01
     1133000000    3.083953559e-01   -2.200156152e-01
     1133500000    3.114850521e-01   -2.222086042e-01
     1134000000    3.146268129e-01   -2.247717530e-01
     1134500000    3.173217773e-01   -2.266060859e-01
     1135000000    3.202432096e-01   -2.289097905e-01
     1135500000    3.227990270e-01   -2.310424745e-01
     1136000000    3.243592680e-01   -2.338097841e-01
     1136500000    3.272952139e-01   -2.352661639e-01
     1137000000    3.294416070e-01   -2.368364036e-01
     1137500000    3.301235735e-01   -2.393885255e-01
     1138000000    3.316894472e-01   -2.414132953e-01
     1138500000    3.340519071e-01   -2.414777875e-01
     1139000000    3.340570331e-01   -2.458376139e-01
     1139500000    3.339366019e-01   -2.482858598e-01
     1140000000    3.357611597e-01   -2.482160479e-01
     1140500000    3.350704610e-01   -2.517334819e-01
     1141000000    3.354781270e-01   -2.521450222e-01
     1141500000    3.355451822e-01   -2.534398139e-01
     1142000000    3.344002962e-01   -2.563312948e-01
     1142500000    3.342334330e-01   -2.571122944e-01
     1143000000    3.332878649e-01   -2.587631643e-01
     1143500000    3.328523338e-01   -2.597205341e-01
     1144000000    3.313767016e-01   -2.610971630e-01
     1144500000    3.300188184e-01   -2.627551854e-01
     1145000000    3.293582797e-01   -2.634050548e-01
     1145500000    3.268960118e-01   -2.665543258e-01
     1146000000    3.262139857e-01   -2.666725814e-01
     1146500000    3.246489763e-01   -2.679877877e-01
     1147000000    3.234802783e-01   -2.683557570e-01
     1147500000    3.213098049e-01   -2.705588043e-01
     1148000000    3.195703030e-01   -2.713641226e-01
     1148500000    3.177672625e-01   -2.734826803e-01
     1149000000    3.163770139e-01   -2.737091184e-01
     1149500000    3.147355318e-01   -2.754537463e-01
     1150000000    3.132662773e-01   -2.762125134e-01
     1150500000    3.109977841e-01   -2.781210542e-01
     1151000000    3.103232086e-01   -2.789034843e-01
     1151500000    3.077897429e-01   -2.810624242e-01
     1152000000    3.060634434e-01   -2.821044624e-01
     1152500000    3.047140539e-01   -2.844434083e-01
     1153000000    3.033776283e-01   -2.855117619e-01
     1153500000    3.014254868e-01   -2.876398265e-01
     1154000000    3.007275164e-01   -2.883798778e-01
     1154500000    2.982752025e-01   -2.913402617e-01
     1155000000    2.977184057e-01   -2.925934196e-01
     1155500000    2.964308858e-01   -2.947708666e-01
     1156000000    2.937515974e-01   -2.979471087e-01
     1156500000    2.931460738e-01   -2.997871935e-01
     1157000000    2.920129597e-01   -3.024535477e-01
     1157500000    2.901735902e-01   -3.052067757e-01
     1158000000    2.886492908e-01   -3.074489832e-01
     1158500000    2.881313562e-01   -3.099797070e-01
     1159000000    2.862412333e-01   -3.126716018e-01
     1159500000    2.859654129e-01   -3.153272271e-01
     1160000000    2.844975293e-01   -3.189841211e-01
     1160500000    2.836018503e-01   -3.216953576e-01
     1161000000    2.830685079e-01   -3.242369592e-01
     1161500000    2.822624445e-01   -3.273320794e-01
     1162000000    2.810364962e-01   -3.304926157e-01
     1162500000    2.792751789e-01   -3.341650963e-01
     1163000000    2.790128291e-01   -3.370904028e-01
     1163500000    2.795529962e-01   -3.396939039e-01
     1164000000    2.773694992e-01   -3.439757526e-01
     1164500000    2.784834802e-01   -3.457782865e-01
     1165000000    2.765860856e-01   -3.496844769e-01
     1165500000    2.759027481e-01   -3.532803655e-01
     1166000000    2.758144438e-01   -3.559705317e-01
     1166500000    2.762292624e-01   -3.588896692e-01
     1167000000    2.758557200e-01   -3.622418642e-01
     1167500000    2.746058106e-01   -3.658235669e-01
     1168000000    2.747178376e-01   -3.689406812e-01
     1168500000    2.755539715e-01   -3.713722825e-01
     1169000000    2.733749151e-01   -3.753235936e-01
     1169500000    2.736364007e-01   -3.778624535e-01
     1170000000    2.733744383e-01   -3.810414672e-01
     1170500000    2.729728520e-01   -3.837995827e-01
     1171000000    2.725936770e-01   -3.871434331e-01
     1171500000    2.720163763e-01   -3.904117644e-01
     1172000000    2.726750672e-01   -3.928764164e-01
     1172500000    2.731196284e-01   -3.953429759e-01
     1173000000    2.711223960e-01   -3.988558650e-01
     1173500000    2.705433369e-01   -4.014942646e-01
     1174000000    2.714564800e-01   -4.032818079e-01
     1174500000    2.695784569e-01   -4.062503278e-01
     1175000000    2.713650763e-01   -4.082082510e-01
     1175500000    2.687807679e-01   -4.113845825e-01
     1176000000    2.699591517e-01   -4.126797616e-01
     1176500000    2.695542574e-01   -4.145409763e-01
     1177000000    2.693111598e-01   -4.166153967e-01
     1177500000    2.673246264e-01   -4.194153547e-01
     1178000000    2.692385018e-01   -4.197628498e-01
     1178500000    2.656970620e-01   -4.236217737e-01
     1179000000    2.687258124e-01   -4.232516289e-01
     1179500000    2.662949264e-01   -4.260937274e-01
     1180000000    2.649089396e-01   -4.280869365e-01
     1180500000    2.665111423e-01   -4.287710488e-01
     1181000000    2.641030848e-01   -4.313215315e-01
     1181500000    2.634336054e-01   -4.330765903e-01
     1182000000    2.644161880e-01   -4.329084158e-01
     1182500000    2.618188262e-01   -4.358436465e-01
     1183000000    2.624073327e-01   -4.368600249e-01
     1183500000    2.615313232e-01   -4.380836785e-01
     1184000000    2.610667646e-01   -4.393770099e-01
     1184500000    2.605215311e-01   -4.405832887e-01
     1185000000    2.596940994e-01   -4.416840672e-01
     1185500000    2.591467202e-01   -4.430216253e-01
     1186000000    2.585093677e-01   -4.443996549e-01
     1186500000    2.573671937e-01   -4.463086426e-01
     1187000000    2.581425905e-01   -4.464028776e-01
     1187500000    2.556815743e-01   -4.486048222e-01
     1188000000    2.557287812e-01   -4.491524696e-01
     1188500000    2.539380491e-01   -4.518963993e-01
     1189000000    2.535174489e-01   -4.523032010e-01
     1189500000    2.529279292e-01   -4.537152946e-01
     1190000000    2.531710267e-01   -4.545002282e-01
     1190500000    2.507033050e-01   -4.572727382e-01
     1191000000    2.499368936e-01   -4.581079185e-01
     1191500000    2.514675558e-01   -4.575936496e-01
     1192000000    2.477156818e-01   -4.615604877e-01
     1192500000    2.477270961e-01   -4.620326757e-01
     1193000000    2.478008270e-01   -4.625199437e-01
     1193500000    2.465580404e-01   -4.645490050e-01
     1194000000    2.470822483e-01   -4.645546377e-01
     1194500000    2.457945347e-01   -4.668562412e-01
     1195000000    2.450247109e-01   -4.680728018e-01
     1195500000    2.431156337e-01   -4.709284902e-01
     1196000000    2.466203868e-01   -4.692403376e-01
     1196500000    2.449738979e-01   -4.715556800e-01
     1197000000    2.441848367e-01   -4.733867645e-01
     1197500000    2.450689375e-01   -4.739410579e-01
     1198000000    2.456060499e-01   -4.755383134e-01
     1198500000    2.459261268e-01   -4.767093062e-01
     1199000000    2.454369962e-01   -4.783852100e-01
     1199500000    2.467348576e-01   -4.792511463e-01
     1200000000    2.470261306e-01   -4.803197384e-01
