! NanoVNA-App
! Date: 2026-05-22 18:32:58
! Start: 2.3GHz Stop: 2.6GHz Points: 401
! S-Parameter data: F S11
# Hz S RI R 50
!     Frequency           S11_Real           S11_Imag
     2300000000    7.016319036e-02   -6.440625340e-02
     2300750000    7.240060717e-02   -5.751807988e-02
     2301500000    7.473748922e-02   -5.096803606e-02
     2302250000    7.597620785e-02   -4.406110570e-02
     2303000000    7.735186070e-02   -3.879296780e-02
     2303750000    7.644111663e-02   -3.100387566e-02
     2304500000    7.577694952e-02   -2.406585217e-02
     2305250000    7.550242543e-02   -1.881752163e-02
     2306000000    7.435090095e-02   -1.274064369e-02
     2306750000    7.237605751e-02   -7.391429041e-03
     2307500000    7.181797922e-02   -2.639820566e-03
     2308250000    6.825619936e-02    2.196509391e-03
     2309000000    6.630982459e-02    7.057940122e-03
     2309750000    6.422346830e-02    1.070846058e-02
     2310500000    6.085894629e-02    1.452232059e-02
     2311250000    5.907568336e-02    1.780049689e-02
     2312000000    5.596364290e-02    2.058856189e-02
     2312750000    5.260696635e-02    2.311209589e-02
     2313500000    5.078704655e-02    2.525426634e-02
     2314250000    4.718144611e-02    2.676636167e-02
     2315000000    4.445567727e-02    2.844622545e-02
     2315750000    4.280205071e-02    2.980034240e-02
     2316500000    4.104379937e-02    3.165492043e-02
     2317250000    3.782059997e-02    3.147498518e-02
     2318000000    3.667652234e-02    3.359509259e-02
     2318750000    3.439319506e-02    3.405765444e-02
     2319500000    3.175274655e-02    3.400911763e-02
     2320250000    3.093242832e-02    3.579590097e-02
     2321000000    2.760732733e-02    3.654743731e-02
     2321750000    2.609765343e-02    3.625614196e-02
     2322500000    2.512735315e-02    3.690453991e-02
     2323250000    2.483019419e-02    3.820958734e-02
     2324000000    2.411214821e-02    3.775860742e-02
     2324750000    2.362435684e-02    3.909748420e-02
     2325500000    2.265273780e-02    4.022658989e-02
     2326250000    2.218593657e-02    4.077286646e-02
     2327000000    2.084503695e-02    4.250989482e-02
     2327750000    2.108256519e-02    4.203421623e-02
     2328500000    2.065569907e-02    4.293293878e-02
     2329250000    1.887596026e-02    4.504085705e-02
     2330000000    1.759010367e-02    4.630535841e-02
     2330750000    1.631977968e-02    4.748599976e-02
     2331500000    1.525898091e-02    4.865989462e-02
     2332250000    1.322143991e-02    5.029285699e-02
     2333000000    1.138996147e-02    5.147745088e-02
     2333750000    9.386700578e-03    5.255300552e-02
     2334500000    6.434576120e-03    5.420637131e-02
     2335250000    3.483050270e-03    5.547029153e-02
     2336000000   -3.261337988e-04    5.584099516e-02
     2336750000   -3.306981176e-03    5.725595355e-02
     2337500000   -6.924039219e-03    5.839401856e-02
     2338250000   -1.134675648e-02    5.865442753e-02
     2339000000   -1.600098424e-02    5.905696377e-02
     2339750000   -2.027823962e-02    5.985013396e-02
     2340500000   -2.580140904e-02    5.887999758e-02
     2341250000   -3.072488680e-02    5.825614557e-02
     2342000000   -3.546333313e-02    5.822834000e-02
     2342750000   -4.107001051e-02    5.677478015e-02
     2343500000   -4.635991156e-02    5.502512306e-02
     2344250000   -5.202777684e-02    5.233152583e-02
     2345000000   -5.744281039e-02    5.191130936e-02
     2345750000   -6.290303916e-02    4.818977043e-02
     2346500000   -6.723104417e-02    4.384483024e-02
     2347250000   -7.302191854e-02    4.059232026e-02
     2348000000   -7.752095163e-02    3.584471717e-02
     2348750000   -8.168055862e-02    3.011731990e-02
     2349500000   -8.591407537e-02    2.546516433e-02
     2350250000   -8.927177638e-02    1.881197654e-02
     2351000000   -9.370264411e-02    1.349870395e-02
     2351750000   -9.625525773e-02    6.165534724e-03
     2352500000   -9.737347066e-02   -9.148867684e-04
     2353250000   -9.957811981e-02   -8.382636122e-03
     2354000000   -1.024669036e-01   -1.627238654e-02
     2354750000   -1.008659750e-01   -2.383036166e-02
     2355500000   -1.004361510e-01   -3.215986118e-02
     2356250000   -9.872412682e-02   -4.020795971e-02
     2357000000   -9.919602424e-02   -4.908388108e-02
     2357750000   -9.553608298e-02   -5.676881224e-02
     2358500000   -8.985422552e-02   -6.413755566e-02
     2359250000   -8.827677369e-02   -7.396918535e-02
     2360000000   -8.197937906e-02   -8.035838604e-02
     2360750000   -7.644274831e-02   -8.856949210e-02
     2361500000   -7.010425627e-02   -9.511673450e-02
     2362250000   -6.357995421e-02   -1.034770757e-01
     2363000000   -5.493062735e-02   -1.082470864e-01
     2363750000   -4.655682668e-02   -1.144634560e-01
     2364500000   -3.777741641e-02   -1.204613969e-01
     2365250000   -2.818842232e-02   -1.242931411e-01
     2366000000   -1.879263110e-02   -1.279845983e-01
     2366750000   -8.331811987e-03   -1.305434406e-01
     2367500000    2.338400111e-03   -1.324820668e-01
     2368250000    1.337202918e-02   -1.340252906e-01
     2369000000    2.336037531e-02   -1.330600381e-01
     2369750000    3.497472778e-02   -1.325339824e-01
     2370500000    4.619946331e-02   -1.304842085e-01
     2371250000    5.635095388e-02   -1.272249073e-01
     2372000000    6.675302237e-02   -1.233969927e-01
     2372750000    7.794243842e-02   -1.180991456e-01
     2373500000    8.701785654e-02   -1.110453233e-01
     2374250000    9.784980118e-02   -1.050223336e-01
     2375000000    1.057431772e-01   -9.628342837e-02
     2375750000    1.144497767e-01   -8.707331866e-02
     2376500000    1.240899339e-01   -7.793693244e-02
     2377250000    1.295005977e-01   -6.713443249e-02
     2378000000    1.350678504e-01   -5.574805662e-02
     2378750000    1.417956352e-01   -4.391368106e-02
     2379500000    1.468286514e-01   -3.086889908e-02
     2380250000    1.487549841e-01   -1.918501779e-02
     2381000000    1.510540992e-01   -5.604677368e-03
     2381750000    1.523523778e-01    8.199173026e-03
     2382500000    1.511931717e-01    2.003807575e-02
     2383250000    1.517134160e-01    3.592182323e-02
     2384000000    1.491038352e-01    4.970183969e-02
     2384750000    1.453511566e-01    6.178312749e-02
     2385500000    1.389127672e-01    7.278069109e-02
     2386250000    1.331488192e-01    8.675405383e-02
     2387000000    1.263156682e-01    1.008497924e-01
     2387750000    1.178147197e-01    1.106715798e-01
     2388500000    1.085483804e-01    1.215207726e-01
     2389250000    9.802754223e-02    1.324387640e-01
     2390000000    8.682315052e-02    1.421344578e-01
     2390750000    7.387097925e-02    1.491542161e-01
     2391500000    6.098813564e-02    1.563123614e-01
     2392250000    4.674021527e-02    1.638789922e-01
     2393000000    3.333488107e-02    1.672383994e-01
     2393750000    1.734225824e-02    1.723467708e-01
     2394500000    2.917061327e-03    1.734697521e-01
     2395250000   -1.301044226e-02    1.750660241e-01
     2396000000   -2.814546041e-02    1.746197343e-01
     2396750000   -4.418216273e-02    1.738466024e-01
     2397500000   -5.909330770e-02    1.707365513e-01
     2398250000   -7.449166477e-02    1.660990715e-01
     2399000000   -8.880629390e-02    1.605431139e-01
     2399750000   -1.028084382e-01    1.529898196e-01
     2400500000   -1.164373308e-01    1.444112062e-01
     2401250000   -1.289111078e-01    1.352513283e-01
     2402000000   -1.402398944e-01    1.255460382e-01
     2402750000   -1.513705254e-01    1.118214354e-01
     2403500000   -1.613174975e-01    9.967965633e-02
     2404250000   -1.701221913e-01    8.543013036e-02
     2405000000   -1.777974516e-01    7.032389939e-02
     2405750000   -1.839431822e-01    5.543272197e-02
     2406500000   -1.887640357e-01    3.797836602e-02
     2407250000   -1.923384070e-01    2.208662033e-02
     2408000000   -1.946415603e-01    4.679560661e-03
     2408750000   -1.950728297e-01   -1.192465425e-02
     2409500000   -1.951409131e-01   -3.031824902e-02
     2410250000   -1.917855889e-01   -4.717405885e-02
     2411000000   -1.872441322e-01   -6.282202899e-02
     2411750000   -1.824292839e-01   -8.214868605e-02
     2412500000   -1.747430116e-01   -9.617781639e-02
     2413250000   -1.669393033e-01   -1.129911840e-01
     2414000000   -1.572253555e-01   -1.276312321e-01
     2414750000   -1.457142532e-01   -1.409500539e-01
     2415500000   -1.339638382e-01   -1.540979445e-01
     2416250000   -1.197082922e-01   -1.664511710e-01
     2417000000   -1.056192070e-01   -1.752891243e-01
     2417750000   -9.006483108e-02   -1.854204237e-01
     2418500000   -7.345644385e-02   -1.935281754e-01
     2419250000   -5.634815991e-02   -1.996084452e-01
     2420000000   -3.888944164e-02   -2.046553493e-01
     2420750000   -2.073207684e-02   -2.077139467e-01
     2421500000   -1.071994426e-03   -2.097345591e-01
     2422250000    1.786834560e-02   -2.095699459e-01
     2423000000    3.612332419e-02   -2.075890154e-01
     2423750000    5.566655099e-02   -2.048130482e-01
     2424500000    7.154404372e-02   -1.992657930e-01
     2425250000    9.076995403e-02   -1.926389635e-01
     2426000000    1.098495573e-01   -1.839819998e-01
     2426750000    1.250805706e-01   -1.741785556e-01
     2427500000    1.417323053e-01   -1.624616981e-01
     2428250000    1.562068909e-01   -1.497492492e-01
     2429000000    1.694073379e-01   -1.361653954e-01
     2429750000    1.823983639e-01   -1.201541871e-01
     2430500000    1.958799362e-01   -1.027129292e-01
     2431250000    2.041099221e-01   -8.705028892e-02
     2432000000    2.098354846e-01   -7.081421465e-02
     2432750000    2.191642225e-01   -4.945956916e-02
     2433500000    2.233771831e-01   -2.967219800e-02
     2434250000    2.274309993e-01   -9.329985827e-03
     2435000000    2.270477116e-01    8.089312352e-03
     2435750000    2.270492315e-01    3.091429733e-02
     2436500000    2.249010205e-01    5.126731843e-02
     2437250000    2.203988582e-01    6.749483198e-02
     2438000000    2.138617784e-01    9.102395177e-02
     2438750000    2.070796341e-01    1.074506566e-01
     2439500000    1.967505217e-01    1.283651143e-01
     2440250000    1.857306659e-01    1.412187666e-01
     2441000000    1.717405766e-01    1.639173776e-01
     2441750000    1.585837156e-01    1.764135510e-01
     2442500000    1.427766383e-01    1.902225763e-01
     2443250000    1.256786734e-01    2.030287385e-01
     2444000000    1.075878590e-01    2.147954106e-01
     2444750000    8.770071715e-02    2.239193320e-01
     2445500000    7.001257688e-02    2.299634665e-01
     2446250000    4.739975929e-02    2.382706404e-01
     2447000000    2.570316195e-02    2.427583635e-01
     2447750000    4.866345786e-03    2.439066768e-01
     2448500000   -1.637887396e-02    2.445892841e-01
     2449250000   -3.938259184e-02    2.434057444e-01
     2450000000   -5.919088796e-02    2.384326905e-01
     2450750000   -8.111596853e-02    2.338712960e-01
     2451500000   -1.021009535e-01    2.269077599e-01
     2452250000   -1.215448454e-01    2.173471749e-01
     2453000000   -1.399592310e-01    2.066231668e-01
     2453750000   -1.574277878e-01    1.943518966e-01
     2454500000   -1.758495718e-01    1.798983961e-01
     2455250000   -1.911258399e-01    1.638151407e-01
     2456000000   -2.044931203e-01    1.469873190e-01
     2456750000   -2.182169855e-01    1.271693856e-01
     2457500000   -2.304096669e-01    1.079590544e-01
     2458250000   -2.373083979e-01    8.882328868e-02
     2459000000   -2.458534092e-01    6.637600064e-02
     2459750000   -2.525906265e-01    4.370291531e-02
     2460500000   -2.546363771e-01    2.255407348e-02
     2461250000   -2.572920918e-01   -2.096673707e-03
     2462000000   -2.569239736e-01   -2.567455731e-02
     2462750000   -2.540425360e-01   -4.713891819e-02
     2463500000   -2.490866482e-01   -6.680647284e-02
     2464250000   -2.429885864e-01   -9.083227813e-02
     2465000000   -2.347037792e-01   -1.156206951e-01
     2465750000   -2.240981162e-01   -1.356093287e-01
     2466500000   -2.123035938e-01   -1.558115780e-01
     2467250000   -1.987713724e-01   -1.726087928e-01
     2468000000   -1.837538034e-01   -1.894167364e-01
     2468750000   -1.639068872e-01   -2.100156993e-01
     2469500000   -1.471041292e-01   -2.214390635e-01
     2470250000   -1.303417385e-01   -2.315558791e-01
     2471000000   -1.063063592e-01   -2.450924963e-01
     2471750000   -8.355665952e-02   -2.544742823e-01
     2472500000   -6.314405054e-02   -2.614731491e-01
     2473250000   -3.789283708e-02   -2.675917447e-01
     2474000000   -1.186309010e-02   -2.716862261e-01
     2474750000    1.127370633e-02   -2.716478407e-01
     2475500000    3.285606205e-02   -2.700322866e-01
     2476250000    5.745059252e-02   -2.682785392e-01
     2477000000    8.322677761e-02   -2.629269063e-01
     2477750000    1.023710072e-01   -2.549391985e-01
     2478500000    1.271754056e-01   -2.460892946e-01
     2479250000    1.496638358e-01   -2.357804924e-01
     2480000000    1.713502854e-01   -2.214801908e-01
     2480750000    1.908245981e-01   -2.071187198e-01
     2481500000    2.078866065e-01   -1.911665052e-01
     2482250000    2.262616903e-01   -1.720759571e-01
     2483000000    2.394419163e-01   -1.537574232e-01
     2483750000    2.537950575e-01   -1.315403879e-01
     2484500000    2.657859623e-01   -1.095783710e-01
     2485250000    2.752135098e-01   -8.671849221e-02
     2486000000    2.822434008e-01   -6.393537670e-02
     2486750000    2.875595391e-01   -3.878700733e-02
     2487500000    2.908086479e-01   -1.523985062e-02
     2488250000    2.927999794e-01    1.030196901e-02
     2489000000    2.909656465e-01    3.571021184e-02
     2489750000    2.872207165e-01    5.991100892e-02
     2490500000    2.828378379e-01    8.517274261e-02
     2491250000    2.743058503e-01    1.051590517e-01
     2492000000    2.647134662e-01    1.291262805e-01
     2492750000    2.537871599e-01    1.501744092e-01
     2493500000    2.386773676e-01    1.731826067e-01
     2494250000    2.219137102e-01    1.939633191e-01
     2495000000    2.062989026e-01    2.114440203e-01
     2495750000    1.856329739e-01    2.294432670e-01
     2496500000    1.631134748e-01    2.461821288e-01
     2497250000    1.427360922e-01    2.578994632e-01
     2498000000    1.196659878e-01    2.692528665e-01
     2498750000    9.791521728e-02    2.779369652e-01
     2499500000    6.945101917e-02    2.879363894e-01
     2500250000    4.545437172e-02    2.922484279e-01
     2501000000    1.599913090e-02    2.962967157e-01
     2501750000   -7.998914458e-03    2.958722413e-01
     2502500000   -3.569305316e-02    2.938435376e-01
     2503250000   -5.922148377e-02    2.913843095e-01
     2504000000   -8.102265000e-02    2.866873443e-01
     2504750000   -1.084803864e-01    2.777702510e-01
     2505500000   -1.350104511e-01    2.667456567e-01
     2506250000   -1.584723294e-01    2.546374500e-01
     2507000000   -1.796812713e-01    2.400935888e-01
     2507750000   -2.006365806e-01    2.255214602e-01
     2508500000   -2.207098752e-01    2.059131116e-01
     2509250000   -2.385288626e-01    1.863228679e-01
     2510000000   -2.519625425e-01    1.693649739e-01
     2510750000   -2.697174251e-01    1.420567036e-01
     2511500000   -2.805939615e-01    1.185846105e-01
     2512250000   -2.905205190e-01    9.739594162e-02
     2513000000   -2.991969883e-01    7.129744440e-02
     2513750000   -3.046287298e-01    4.300424457e-02
     2514500000   -3.072698712e-01    1.870833151e-02
     2515250000   -3.092348576e-01   -8.796977811e-03
     2516000000   -3.075270951e-01   -3.855589032e-02
     2516750000   -3.045492768e-01   -6.039012596e-02
     2517500000   -2.991730273e-01   -8.565740287e-02
     2518250000   -2.899463177e-01   -1.140106022e-01
     2519000000   -2.804778516e-01   -1.374025196e-01
     2519750000   -2.678023577e-01   -1.627254188e-01
     2520500000   -2.523350716e-01   -1.854512393e-01
     2521250000   -2.370225191e-01   -2.053739876e-01
     2522000000   -2.190636843e-01   -2.250201702e-01
     2522750000   -1.976681501e-01   -2.452358007e-01
     2523500000   -1.760079116e-01   -2.602462173e-01
     2524250000   -1.568002999e-01   -2.731416225e-01
     2525000000   -1.322381347e-01   -2.871776521e-01
     2525750000   -1.059779301e-01   -2.970955372e-01
     2526500000   -7.968841493e-02   -3.057840168e-01
     2527250000   -5.439871550e-02   -3.120414019e-01
     2528000000   -2.870336734e-02   -3.155575395e-01
     2528750000   -3.933090484e-04   -3.169454634e-01
     2529500000    2.844090387e-02   -3.162522018e-01
     2530250000    5.400374159e-02   -3.131414056e-01
     2531000000    7.891345769e-02   -3.069191575e-01
     2531750000    1.067824811e-01   -2.993561029e-01
     2532500000    1.308872849e-01   -2.896503508e-01
     2533250000    1.553027779e-01   -2.773064673e-01
     2534000000    1.809316427e-01   -2.625069022e-01
     2534750000    2.012205422e-01   -2.466572076e-01
     2535500000    2.222518772e-01   -2.280523181e-01
     2536250000    2.402929813e-01   -2.100625634e-01
     2537000000    2.571417987e-01   -1.885741651e-01
     2537750000    2.729151249e-01   -1.654681563e-01
     2538500000    2.847117782e-01   -1.426338404e-01
     2539250000    2.962890565e-01   -1.172839031e-01
     2540000000    3.051711023e-01   -9.267412126e-02
     2540750000    3.125262260e-01   -6.551375985e-02
     2541500000    3.162751496e-01   -3.778497502e-02
     2542250000    3.190022707e-01   -1.130426582e-02
     2543000000    3.184980750e-01    1.437171176e-02
     2543750000    3.160085678e-01    4.215548187e-02
     2544500000    3.103252053e-01    6.996122748e-02
     2545250000    3.032548726e-01    9.623865038e-02
     2546000000    2.941419184e-01    1.218355000e-01
     2546750000    2.822147012e-01    1.458873600e-01
     2547500000    2.693273723e-01    1.704017818e-01
     2548250000    2.527179718e-01    1.922471523e-01
     2549000000    2.357043177e-01    2.118714452e-01
     2549750000    2.168177515e-01    2.319935858e-01
     2550500000    1.967519671e-01    2.508607209e-01
     2551250000    1.709107757e-01    2.669551373e-01
     2552000000    1.479793787e-01    2.808072269e-01
     2552750000    1.251359433e-01    2.919472456e-01
     2553500000    1.004715413e-01    3.017601371e-01
     2554250000    7.233224064e-02    3.097149134e-01
     2555000000    4.856805131e-02    3.144009709e-01
     2555750000    1.799566112e-02    3.181768954e-01
     2556500000   -8.684115484e-03    3.178446889e-01
     2557250000   -3.298599273e-02    3.165453076e-01
     2558000000   -6.035859138e-02    3.135940433e-01
     2558750000   -8.876985312e-02    3.061946332e-01
     2559500000   -1.145582870e-01    2.986579239e-01
     2560250000   -1.400245279e-01    2.872388065e-01
     2561000000   -1.624701172e-01    2.755232155e-01
     2561750000   -1.827313155e-01    2.629749775e-01
     2562500000   -2.093644887e-01    2.420373261e-01
     2563250000   -2.264950424e-01    2.265905887e-01
     2564000000   -2.446376383e-01    2.069846839e-01
     2564750000   -2.624810338e-01    1.834478229e-01
     2565500000   -2.764659524e-01    1.640655547e-01
     2566250000   -2.892929614e-01    1.404359192e-01
     2567000000   -2.987794280e-01    1.149904057e-01
     2567750000   -3.076992631e-01    9.159789979e-02
     2568500000   -3.142697811e-01    6.398301572e-02
     2569250000   -3.186331093e-01    3.839774802e-02
     2570000000   -3.201774359e-01    8.673339151e-03
     2570750000   -3.204110265e-01   -1.367373671e-02
     2571500000   -3.160952330e-01   -4.372356459e-02
     2572250000   -3.120454550e-01   -6.860370934e-02
     2573000000   -3.051139414e-01   -9.347918630e-02
     2573750000   -2.964926660e-01   -1.181844026e-01
     2574500000   -2.843586504e-01   -1.422697306e-01
     2575250000   -2.717615068e-01   -1.658063680e-01
     2576000000   -2.581097782e-01   -1.864847243e-01
     2576750000   -2.401799858e-01   -2.074601501e-01
     2577500000   -2.223098576e-01   -2.261820138e-01
     2578250000   -2.005726397e-01   -2.438950688e-01
     2579000000   -1.803029329e-01   -2.602055967e-01
     2579750000   -1.573517174e-01   -2.735343874e-01
     2580500000   -1.331122518e-01   -2.859386504e-01
     2581250000   -1.079142168e-01   -2.953309417e-01
     2582000000   -8.304211497e-02   -3.028102815e-01
     2582750000   -5.766816810e-02   -3.079626262e-01
     2583500000   -3.045882471e-02   -3.113591969e-01
     2584250000   -4.328028765e-03   -3.121502101e-01
     2585000000    2.126923017e-02   -3.118515015e-01
     2585750000    4.888169840e-02   -3.072998822e-01
     2586500000    7.251767814e-02   -3.027590215e-01
     2587250000    9.775206447e-02   -2.951969802e-01
     2588000000    1.233576611e-01   -2.850188017e-01
     2588750000    1.456427425e-01   -2.744206190e-01
     2589500000    1.668790281e-01   -2.615392804e-01
     2590250000    1.873146296e-01   -2.473837882e-01
     2591000000    2.093888670e-01   -2.280212045e-01
     2591750000    2.265488803e-01   -2.096759826e-01
     2592500000    2.430431247e-01   -1.903328598e-01
     2593250000    2.568976879e-01   -1.720392406e-01
     2594000000    2.705745995e-01   -1.470829099e-01
     2594750000    2.814675868e-01   -1.225949749e-01
     2595500000    2.907130122e-01   -9.788499027e-02
     2596250000    2.982684076e-01   -7.470629364e-02
     2597000000    3.029859960e-01   -5.065098032e-02
     2597750000    3.069120347e-01   -2.737333253e-02
     2598500000    3.058345616e-01    3.004577244e-03
     2599250000    3.062286973e-01    2.430397272e-02
     2600000000    3.003305793e-01    5.261008814e-02
