! NanoVNA-App
! Date: 2026-05-22 18:33:11
! Start: 4.8GHz Stop: 6GHz Points: 401
! S-Parameter data: F S11
# Hz S RI R 50
!     Frequency           S11_Real           S11_Imag
     4800000000    2.696487308e-01    3.586435914e-01
     4803000000    1.177791134e-01    4.235866070e-01
     4806000000   -3.854929283e-02    4.348122180e-01
     4809000000   -1.864682138e-01    3.879503310e-01
     4812000000   -3.121300638e-01    2.917156518e-01
     4815000000   -3.906756639e-01    1.597990096e-01
     4818000000   -4.170242548e-01    1.240207348e-02
     4821000000   -3.866960108e-01   -1.371392310e-01
     4824000000   -3.085291982e-01   -2.602697611e-01
     4827000000   -1.928284615e-01   -3.502348363e-01
     4830000000   -5.133122206e-02   -3.880389929e-01
     4833000000    8.943001926e-02   -3.744663298e-01
     4836000000    2.157584131e-01   -3.121985495e-01
     4839000000    3.108993173e-01   -2.141730040e-01
     4842000000    3.613613546e-01   -8.404444903e-02
     4845000000    3.630940914e-01    5.055632442e-02
     4848000000    3.168557286e-01    1.751794517e-01
     4851000000    2.302787155e-01    2.738085389e-01
     4854000000    1.116537228e-01    3.346876204e-01
     4857000000   -1.638589427e-02    3.440463841e-01
     4860000000   -1.373631358e-01    3.130788803e-01
     4863000000   -2.406501472e-01    2.424382418e-01
     4866000000   -3.023173213e-01    1.330261230e-01
     4869000000   -3.293502927e-01    1.447453722e-02
     4872000000   -3.122082055e-01   -1.021135971e-01
     4875000000   -2.450751960e-01   -2.061890364e-01
     4878000000   -1.547651589e-01   -2.821013331e-01
     4881000000   -3.880538791e-02   -3.093180656e-01
     4884000000    7.410440594e-02   -3.002342284e-01
     4887000000    1.789671034e-01   -2.506268620e-01
     4890000000    2.553457022e-01   -1.687703133e-01
     4893000000    2.949733734e-01   -6.376359612e-02
     4896000000    2.958427072e-01    4.852417111e-02
     4899000000    2.547468841e-01    1.502768695e-01
     4902000000    1.809494197e-01    2.310747355e-01
     4905000000    8.305996656e-02    2.788628042e-01
     4908000000   -2.386666648e-02    2.873778343e-01
     4911000000   -1.271364242e-01    2.572984099e-01
     4914000000   -2.127059847e-01    1.938828230e-01
     4917000000   -2.659446895e-01    1.029371545e-01
     4920000000   -2.876527011e-01   -2.072236966e-04
     4923000000   -2.660375834e-01   -1.008767113e-01
     4926000000   -2.128782421e-01   -1.892092526e-01
     4929000000   -1.303236336e-01   -2.471980304e-01
     4932000000   -3.426077589e-02   -2.769425511e-01
     4935000000    6.480386108e-02   -2.652553320e-01
     4938000000    1.554863155e-01   -2.226520479e-01
     4941000000    2.253208756e-01   -1.501581818e-01
     4944000000    2.599259019e-01   -5.813682079e-02
     4947000000    2.594771683e-01    3.676848486e-02
     4950000000    2.309257388e-01    1.345915496e-01
     4953000000    1.659980714e-01    2.018468380e-01
     4956000000    8.298515528e-02    2.464531809e-01
     4959000000   -1.045690756e-02    2.590444684e-01
     4962000000   -1.007246822e-01    2.375713736e-01
     4965000000   -1.785647422e-01    1.849036366e-01
     4968000000   -2.290606946e-01    1.089239940e-01
     4971000000   -2.511255443e-01    1.895658113e-02
     4974000000   -2.407877147e-01   -7.011518627e-02
     4977000000   -1.994385570e-01   -1.511225700e-01
     4980000000   -1.336738616e-01   -2.100848556e-01
     4983000000   -5.117320269e-02   -2.414844632e-01
     4986000000    3.603452444e-02   -2.430099547e-01
     4989000000    1.187357381e-01   -2.141382247e-01
     4992000000    1.849522293e-01   -1.579032242e-01
     4995000000    2.236324102e-01   -8.703602850e-02
     4998000000    2.382505834e-01   -1.435634680e-03
     5001000000    2.212081403e-01    8.364683390e-02
     5004000000    1.782623231e-01    1.527348310e-01
     5007000000    1.164644808e-01    2.001214623e-01
     5010000000    3.811790794e-02    2.262374610e-01
     5013000000   -4.159421474e-02    2.228607833e-01
     5016000000   -1.153477058e-01    1.907254755e-01
     5019000000   -1.722871959e-01    1.417525560e-01
     5022000000   -2.078419477e-01    7.089576125e-02
     5025000000   -2.175677568e-01   -3.519213293e-03
     5028000000   -2.029573768e-01   -7.639034837e-02
     5031000000   -1.666244417e-01   -1.384132653e-01
     5034000000   -1.075412259e-01   -1.834780723e-01
     5037000000   -4.178566113e-02   -2.065273523e-01
     5040000000    2.878868952e-02   -2.076008022e-01
     5043000000    9.372247010e-02   -1.819782406e-01
     5046000000    1.471026838e-01   -1.397188455e-01
     5049000000    1.820036918e-01   -8.382106572e-02
     5052000000    1.957829893e-01   -1.949821413e-02
     5055000000    1.876001507e-01    4.524416849e-02
     5058000000    1.608237028e-01    1.028636470e-01
     5061000000    1.164591089e-01    1.463366300e-01
     5064000000    6.387972087e-02    1.784810275e-01
     5067000000    3.269776236e-03    1.839286238e-01
     5070000000   -5.525922030e-02    1.733690649e-01
     5073000000   -1.032246724e-01    1.417296529e-01
     5076000000   -1.432598829e-01    1.024373695e-01
     5079000000   -1.648402363e-01    5.158768222e-02
     5082000000   -1.683021337e-01   -1.560082077e-03
     5085000000   -1.616270691e-01   -5.452392623e-02
     5088000000   -1.339714378e-01   -1.002722755e-01
     5091000000   -9.593877196e-02   -1.354592741e-01
     5094000000   -4.756413028e-02   -1.555102468e-01
     5097000000    4.205829464e-03   -1.626936197e-01
     5100000000    5.376316607e-02   -1.520643681e-01
     5103000000    9.294198453e-02   -1.247360632e-01
     5106000000    1.388991624e-01   -9.032373875e-02
     5109000000    1.533590257e-01   -4.612317681e-02
     5112000000    1.633011699e-01    5.615153350e-03
     5115000000    1.497964859e-01    4.817434028e-02
     5118000000    1.309086531e-01    1.027477458e-01
     5121000000    9.411928803e-02    1.351353973e-01
     5124000000    4.309397191e-02    1.646240056e-01
     5127000000   -1.646753284e-03    1.672970057e-01
     5130000000   -6.071435288e-02    1.605626047e-01
     5133000000   -1.108127758e-01    1.371257454e-01
     5136000000   -1.497099847e-01    9.679899365e-02
     5139000000   -1.780277044e-01    3.994156048e-02
     5142000000   -1.840383857e-01   -9.452707134e-03
     5145000000   -1.741818339e-01   -7.342255861e-02
     5148000000   -1.451885998e-01   -1.240227968e-01
     5151000000   -9.778092057e-02   -1.694338024e-01
     5154000000   -3.781261668e-02   -1.966137439e-01
     5157000000    2.169365622e-02   -2.011266798e-01
     5160000000    9.359433502e-02   -1.869525015e-01
     5163000000    1.534156203e-01   -1.463220865e-01
     5166000000    1.958057284e-01   -8.766361326e-02
     5169000000    2.205234021e-01   -2.275160141e-02
     5172000000    2.158930302e-01    5.903901905e-02
     5175000000    1.877343059e-01    1.290995181e-01
     5178000000    1.471537501e-01    1.829043776e-01
     5181000000    6.845971942e-02    2.280551046e-01
     5184000000   -1.554104779e-02    2.433819175e-01
     5187000000   -8.828137070e-02    2.347243130e-01
     5190000000   -1.677694619e-01    1.948077977e-01
     5193000000   -2.255487889e-01    1.363548487e-01
     5196000000   -2.613808215e-01    3.670603409e-02
     5199000000   -2.654716074e-01   -4.597279057e-02
     5202000000   -2.326873392e-01   -1.401239187e-01
     5205000000   -1.787037700e-01   -2.130907178e-01
     5208000000   -9.172533453e-02   -2.652029395e-01
     5211000000    9.567376692e-04   -2.878939211e-01
     5214000000    9.936759621e-02   -2.787548304e-01
     5217000000    1.943877190e-01   -2.259630263e-01
     5220000000    2.632136941e-01   -1.463499814e-01
     5223000000    3.061620593e-01   -5.047714338e-02
     5226000000    3.083998561e-01    6.031670421e-02
     5229000000    2.703565359e-01    1.641687453e-01
     5232000000    2.024092227e-01    2.502921224e-01
     5235000000    1.040795445e-01    3.095348179e-01
     5238000000   -1.617820747e-02    3.290513456e-01
     5241000000   -1.276917607e-01    3.111497760e-01
     5244000000   -2.318765223e-01    2.511318028e-01
     5247000000   -3.076358140e-01    1.539439708e-01
     5250000000   -3.505994081e-01    4.594176635e-02
     5253000000   -3.421515524e-01   -8.539406210e-02
     5256000000   -3.004675210e-01   -1.990399808e-01
     5259000000   -2.055365890e-01   -2.965545952e-01
     5262000000   -9.653834254e-02   -3.578170240e-01
     5265000000    3.925824538e-02   -3.709779680e-01
     5268000000    1.628006846e-01   -3.451310396e-01
     5271000000    2.774969041e-01   -2.573322058e-01
     5274000000    3.559955955e-01   -1.491319984e-01
     5277000000    3.912821710e-01   -2.164184302e-02
     5280000000    3.825834394e-01    1.143022552e-01
     5283000000    3.226602674e-01    2.438817471e-01
     5286000000    2.064874321e-01    3.412762582e-01
     5289000000    8.793884516e-02    4.031382799e-01
     5292000000   -6.103063375e-02    4.075504541e-01
     5295000000   -2.038830072e-01    3.620041609e-01
     5298000000   -3.207578063e-01    2.708937526e-01
     5301000000   -3.981788754e-01    1.431263089e-01
     5304000000   -4.242746830e-01   -5.094723310e-03
     5307000000   -4.008280337e-01   -1.547322124e-01
     5310000000   -3.201980889e-01   -2.862925529e-01
     5313000000   -2.017905265e-01   -3.826062679e-01
     5316000000   -5.667008460e-02   -4.337873459e-01
     5319000000    1.017341316e-01   -4.264967144e-01
     5322000000    2.455078661e-01   -3.669630289e-01
     5325000000    3.592627048e-01   -2.584902048e-01
     5328000000    4.286612272e-01   -1.142043173e-01
     5331000000    4.451077282e-01    4.424283281e-02
     5334000000    4.026489556e-01    2.000892013e-01
     5337000000    3.081842065e-01    3.295313716e-01
     5340000000    1.727462858e-01    4.194098115e-01
     5343000000    1.482797880e-02    4.576368928e-01
     5346000000   -1.487893164e-01    4.367008507e-01
     5349000000   -2.934250832e-01    3.562647104e-01
     5352000000   -4.018955231e-01    2.308065295e-01
     5355000000   -4.540942907e-01    7.302834094e-02
     5358000000   -4.632258713e-01   -9.266738594e-02
     5361000000   -3.940168917e-01   -2.514111102e-01
     5364000000   -2.848827839e-01   -3.764032722e-01
     5367000000   -1.316746175e-01   -4.527780414e-01
     5370000000    3.562309965e-02   -4.733487368e-01
     5373000000    2.040099353e-01   -4.378418624e-01
     5376000000    3.422088623e-01   -3.315313160e-01
     5379000000    4.429902136e-01   -1.889834851e-01
     5382000000    4.849419892e-01   -2.345888689e-02
     5385000000    4.530135393e-01    1.439246386e-01
     5388000000    3.780167997e-01    3.063206077e-01
     5391000000    2.487656325e-01    4.184100330e-01
     5394000000    8.596330881e-02    4.762232900e-01
     5397000000   -9.537855536e-02    4.818260670e-01
     5400000000   -2.606484592e-01    4.174070060e-01
     5403000000   -3.867571652e-01    2.969756126e-01
     5406000000   -4.691379070e-01    1.413710713e-01
     5409000000   -4.910686612e-01   -3.453503922e-02
     5412000000   -4.502507746e-01   -2.084167600e-01
     5415000000   -3.466748893e-01   -3.538175821e-01
     5418000000   -1.994290650e-01   -4.565852284e-01
     5421000000   -2.653524093e-02   -4.985317290e-01
     5424000000    1.494643688e-01   -4.756616652e-01
     5427000000    3.080717325e-01   -3.921273053e-01
     5430000000    4.299740791e-01   -2.557864785e-01
     5433000000    4.907343388e-01   -8.605808765e-02
     5436000000    4.920647144e-01    9.464684874e-02
     5439000000    4.231148064e-01    2.618091106e-01
     5442000000    3.038331568e-01    3.954767585e-01
     5445000000    1.440555006e-01    4.782821238e-01
     5448000000   -3.253930435e-02    4.971749783e-01
     5451000000   -2.056830823e-01    4.537352324e-01
     5454000000   -3.554359078e-01    3.493807316e-01
     5457000000   -4.551633000e-01    2.010168284e-01
     5460000000   -4.961962700e-01    2.638694271e-02
     5463000000   -4.725431502e-01   -1.498198062e-01
     5466000000   -3.878199160e-01   -3.070344031e-01
     5469000000   -2.517872453e-01   -4.251194596e-01
     5472000000   -8.242526650e-02   -4.843826592e-01
     5475000000    9.458875656e-02   -4.827675223e-01
     5478000000    2.581644356e-01   -4.156577587e-01
     5481000000    3.895504773e-01   -2.967964709e-01
     5484000000    4.671984911e-01   -1.339448392e-01
     5487000000    4.858795106e-01    3.687008470e-02
     5490000000    4.368409216e-01    2.096656263e-01
     5493000000    3.324799240e-01    3.500042558e-01
     5496000000    1.913895756e-01    4.457851946e-01
     5499000000    1.722395793e-02    4.836771786e-01
     5502000000   -1.543016583e-01    4.538309276e-01
     5505000000   -3.076422215e-01    3.725868165e-01
     5508000000   -4.178490043e-01    2.357269228e-01
     5511000000   -4.713628590e-01    7.120718062e-02
     5514000000   -4.657199085e-01   -1.002497450e-01
     5517000000   -3.937510848e-01   -2.603375912e-01
     5520000000   -2.734690011e-01   -3.845126331e-01
     5523000000   -1.195296645e-01   -4.568426907e-01
     5526000000    5.041536316e-02   -4.663383961e-01
     5529000000    2.159525305e-01   -4.202479720e-01
     5532000000    3.456415832e-01   -3.079660237e-01
     5535000000    4.379862249e-01   -1.684226990e-01
     5538000000    4.693104029e-01   -3.471828299e-03
     5541000000    4.327687919e-01    1.646279246e-01
     5544000000    3.423821032e-01    3.006547689e-01
     5547000000    2.129720747e-01    4.079612792e-01
     5550000000    5.151280761e-02    4.587146044e-01
     5553000000   -1.088273078e-01    4.335295558e-01
     5556000000   -2.648702860e-01    3.743545711e-01
     5559000000   -3.726940751e-01    2.525208294e-01
     5562000000   -4.382762909e-01    1.000553668e-01
     5565000000   -4.421992004e-01   -6.255356967e-02
     5568000000   -3.926407695e-01   -2.181712389e-01
     5571000000   -2.831019759e-01   -3.380438983e-01
     5574000000   -1.454937309e-01   -4.163778126e-01
     5577000000    1.438675262e-02   -4.380508363e-01
     5580000000    1.738187224e-01   -4.089308679e-01
     5583000000    2.972122729e-01   -3.130071461e-01
     5586000000    3.920838535e-01   -1.864676327e-01
     5589000000    4.302084148e-01   -3.309995309e-02
     5592000000    4.091643989e-01    1.225573495e-01
     5595000000    3.410681784e-01    2.650479376e-01
     5598000000    2.223097235e-01    3.600692153e-01
     5601000000    7.599382848e-02    4.101247489e-01
     5604000000   -7.759745419e-02    4.120261967e-01
     5607000000   -2.118734717e-01    3.529987037e-01
     5610000000   -3.371070027e-01    2.562661469e-01
     5613000000   -3.965417445e-01    1.157715917e-01
     5616000000   -4.100899398e-01   -3.458289430e-02
     5619000000   -3.649891913e-01   -1.778724492e-01
     5622000000   -2.793154120e-01   -2.998995185e-01
     5625000000   -1.522247493e-01   -3.715716898e-01
     5628000000   -8.783661760e-03   -3.954758346e-01
     5631000000    1.390234530e-01   -3.822387159e-01
     5634000000    2.648229003e-01   -3.039618731e-01
     5637000000    3.439417183e-01   -1.854515076e-01
     5640000000    4.001598060e-01   -4.360901937e-02
     5643000000    3.717225194e-01    8.424979448e-02
     5646000000    3.223264217e-01    2.289565802e-01
     5649000000    2.196947634e-01    3.207115531e-01
     5652000000    9.241665155e-02    3.706241846e-01
     5655000000   -5.339384079e-02    3.798669279e-01
     5658000000   -1.902951896e-01    3.356649280e-01
     5661000000   -2.859008014e-01    2.447179109e-01
     5664000000   -3.524428010e-01    1.244125590e-01
     5667000000   -3.828736544e-01   -1.802508719e-02
     5670000000   -3.477051854e-01   -1.499823630e-01
     5673000000   -2.669959366e-01   -2.450755090e-01
     5676000000   -1.597977579e-01   -3.257856071e-01
     5679000000   -2.911425196e-02   -3.665280342e-01
     5682000000    1.048551351e-01   -3.474439383e-01
     5685000000    2.225933224e-01   -2.866068482e-01
     5688000000    2.993657589e-01   -1.886580735e-01
     5691000000    3.436959386e-01   -6.472123414e-02
     5694000000    3.421143889e-01    6.276554614e-02
     5697000000    2.952462733e-01    1.781819314e-01
     5700000000    2.074371874e-01    2.787585855e-01
     5703000000    1.014784649e-01    3.190931380e-01
     5706000000   -3.249686211e-02    3.417919874e-01
     5709000000   -1.487541199e-01    3.051555753e-01
     5712000000   -2.282680720e-01    2.301497310e-01
     5715000000   -3.125475645e-01    1.230868697e-01
     5718000000   -3.260991573e-01    9.572271258e-03
     5721000000   -3.070927560e-01   -1.092906073e-01
     5724000000   -2.449553162e-01   -2.075163126e-01
     5727000000   -1.526225656e-01   -2.790528834e-01
     5730000000   -4.074203596e-02   -3.106673658e-01
     5733000000    7.131852955e-02   -3.013999462e-01
     5736000000    1.757788062e-01   -2.511461079e-01
     5739000000    2.474339008e-01   -1.726838201e-01
     5742000000    3.073907495e-01   -5.461017042e-02
     5745000000    2.914020419e-01    3.715854883e-02
     5748000000    2.586436272e-01    1.569005549e-01
     5751000000    1.891966611e-01    2.098978311e-01
     5754000000    8.850186318e-02    2.779427767e-01
     5757000000   -1.469867304e-02    2.866084278e-01
     5760000000   -9.158283472e-02    2.565576136e-01
     5763000000   -1.985300928e-01    1.996221691e-01
     5766000000   -2.521824241e-01    1.144669428e-01
     5769000000   -2.713459730e-01    1.643193327e-02
     5772000000   -2.529750466e-01   -7.359884679e-02
     5775000000   -2.047690302e-01   -1.704575866e-01
     5778000000   -1.321651042e-01   -2.279509753e-01
     5781000000   -3.121145628e-02   -2.629698217e-01
     5784000000    4.751887918e-02   -2.474229634e-01
     5787000000    1.508354396e-01   -2.097715735e-01
     5790000000    2.084593326e-01   -1.428545862e-01
     5793000000    2.378917634e-01   -6.673651934e-02
     5796000000    2.462583035e-01    2.938901260e-02
     5799000000    2.174738497e-01    1.134356111e-01
     5802000000    1.590303779e-01    1.831803322e-01
     5805000000    8.538258821e-02    2.222341597e-01
     5808000000   -3.772164055e-04    2.369733155e-01
     5811000000   -7.771944255e-02    2.157537788e-01
     5814000000   -1.623066664e-01    1.657425463e-01
     5817000000   -2.137859762e-01    8.911945671e-02
     5820000000   -2.210805416e-01    2.480998822e-02
     5823000000   -2.140784115e-01   -6.018259004e-02
     5826000000   -1.789578348e-01   -1.221597344e-01
     5829000000   -1.121939197e-01   -1.850560009e-01
     5832000000   -5.052667856e-02   -2.078379691e-01
     5835000000    9.469537996e-03   -2.081089616e-01
     5838000000    9.940706939e-02   -1.814811975e-01
     5841000000    1.596311033e-01   -1.292688400e-01
     5844000000    1.818090379e-01   -7.887836546e-02
     5847000000    1.960956752e-01    5.835326388e-03
     5850000000    1.795628816e-01    5.491274595e-02
     5853000000    1.370290667e-01    1.196155697e-01
     5856000000    8.712738007e-02    1.531684101e-01
     5859000000    2.656458877e-02    1.688933820e-01
     5862000000   -3.395426646e-02    1.639598608e-01
     5865000000   -8.576069027e-02    1.388911158e-01
     5868000000   -1.230168194e-01    1.029190049e-01
     5871000000   -1.491094232e-01    4.212727398e-02
     5874000000   -1.506243348e-01   -4.701339174e-03
     5877000000   -1.355621964e-01   -5.215545744e-02
     5880000000   -9.273759276e-02   -1.011397168e-01
     5883000000   -6.046691537e-02   -1.192391738e-01
     5886000000   -1.454968750e-02   -1.254324913e-01
     5889000000    3.431708366e-02   -1.125086620e-01
     5892000000    5.123458803e-02   -1.088948771e-01
     5895000000    8.627115190e-02   -6.462804228e-02
     5898000000    9.863492846e-02   -4.031605646e-02
     5901000000    9.783679247e-02    2.671686700e-03
     5904000000    8.486475796e-02    3.730644658e-02
     5907000000    6.658813357e-02    5.854360014e-02
     5910000000    4.033992440e-02    7.272809744e-02
     5913000000    2.409391664e-02    8.278984576e-02
     5916000000   -1.822243631e-02    6.606475264e-02
     5919000000   -3.156362474e-02    6.493971497e-02
     5922000000   -4.433679208e-02    4.694174603e-02
     5925000000   -5.199472979e-02    2.635876648e-02
     5928000000   -4.866227508e-02    1.036309358e-02
     5931000000   -4.463919997e-02   -2.825282048e-03
     5934000000   -3.896752000e-02   -1.396884862e-02
     5937000000   -3.367520496e-02   -2.220387757e-02
     5940000000   -2.385837212e-02   -2.501638792e-02
     5943000000   -1.752971299e-02   -2.978533879e-02
     5946000000   -1.388531737e-02   -2.045238391e-02
     5949000000   -6.636694074e-03   -3.124727122e-02
     5952000000    6.870803190e-04   -3.618149087e-02
     5955000000   -1.410857867e-02   -2.869210765e-02
     5958000000    1.418128237e-02   -3.599203005e-02
     5961000000    2.438459173e-02   -3.530996665e-02
     5964000000    3.665457666e-02   -3.134681284e-02
     5967000000    4.758935049e-02   -2.073604055e-02
     5970000000    5.507279932e-02   -1.074634492e-02
     5973000000    6.814026088e-02   -1.080781594e-02
     5976000000    5.194985867e-02    3.082225472e-02
     5979000000    5.888179317e-02    4.247860238e-02
     5982000000    3.891237825e-02    6.406384706e-02
     5985000000    1.992325671e-02    7.812269777e-02
     5988000000   -6.195962895e-03    9.000838548e-02
     5991000000   -3.849980980e-02    8.575170487e-02
     5994000000   -6.900857389e-02    7.236540318e-02
     5997000000   -9.438526630e-02    4.630522430e-02
     6000000000   -1.100694984e-01    1.235130243e-02
