! NanoVNA-App
! Date: 2026-05-22 18:31:45
! Start: 4.8GHz Stop: 6GHz Points: 401
! S-Parameter data: F S11
# Hz S RI R 50
!     Frequency           S11_Real           S11_Imag
     4800000000   -2.286357731e-01    5.285657048e-01
     4803000000   -3.992977440e-01    4.176003337e-01
     4806000000   -5.239508748e-01    2.480011135e-01
     4809000000   -5.787912607e-01    4.951862991e-02
     4812000000   -5.639412999e-01   -1.587294638e-01
     4815000000   -4.712576568e-01   -3.491371274e-01
     4818000000   -3.143088520e-01   -4.954765439e-01
     4821000000   -1.295664012e-01   -5.743197203e-01
     4824000000    8.650937676e-02   -5.834029913e-01
     4827000000    2.875399888e-01   -5.167875886e-01
     4830000000    4.530303776e-01   -3.831360042e-01
     4833000000    5.593762398e-01   -1.978340298e-01
     4836000000    5.941293240e-01    1.566184126e-02
     4839000000    5.513911843e-01    2.249404341e-01
     4842000000    4.387868643e-01    4.046969712e-01
     4845000000    2.696191669e-01    5.351571441e-01
     4848000000    6.315157562e-02    5.964379907e-01
     4851000000   -1.593955755e-01    5.758600235e-01
     4854000000   -3.480558693e-01    4.920695424e-01
     4857000000   -5.042136908e-01    3.291670978e-01
     4860000000   -5.877907276e-01    1.354562491e-01
     4863000000   -6.009146571e-01   -8.212926984e-02
     4866000000   -5.298938155e-01   -2.912059426e-01
     4869000000   -3.982578218e-01   -4.620270431e-01
     4872000000   -2.230110019e-01   -5.707281232e-01
     4875000000    1.005430520e-02   -6.081861258e-01
     4878000000    2.187228054e-01   -5.720379949e-01
     4881000000    4.064870477e-01   -4.513536692e-01
     4884000000    5.379535556e-01   -2.837572396e-01
     4887000000    6.064733267e-01   -8.004047722e-02
     4890000000    5.912035704e-01    1.442916989e-01
     4893000000    5.013301373e-01    3.425730765e-01
     4896000000    3.469853401e-01    4.979370236e-01
     4899000000    1.459255219e-01    5.865261555e-01
     4902000000   -7.083597034e-02    6.024113297e-01
     4905000000   -2.802387178e-01    5.385931134e-01
     4908000000   -4.516503811e-01    4.028955996e-01
     4911000000   -5.636718273e-01    2.199983448e-01
     4914000000   -6.060630083e-01    7.285376545e-03
     4917000000   -5.649927258e-01   -2.082341760e-01
     4920000000   -4.568668604e-01   -3.943447173e-01
     4923000000   -2.846021652e-01   -5.292492509e-01
     4926000000   -7.748899609e-02   -5.943434834e-01
     4929000000    1.331835836e-01   -5.867246985e-01
     4932000000    3.290506303e-01   -5.005145669e-01
     4935000000    4.842646122e-01   -3.487890959e-01
     4938000000    5.776899457e-01   -1.566308141e-01
     4941000000    5.935193896e-01    6.201458722e-02
     4944000000    5.407062173e-01    2.617939413e-01
     4947000000    4.016368091e-01    4.308885634e-01
     4950000000    2.299421579e-01    5.508279800e-01
     4953000000    1.289241202e-02    5.897039771e-01
     4956000000   -1.891316921e-01    5.571638346e-01
     4959000000   -3.728007674e-01    4.507650733e-01
     4962000000   -5.071515441e-01    2.909685671e-01
     4965000000   -5.757179856e-01    9.053774923e-02
     4968000000   -5.696309805e-01   -1.155046523e-01
     4971000000   -4.906509221e-01   -3.080046177e-01
     4974000000   -3.460364938e-01   -4.583246112e-01
     4977000000   -1.629963815e-01   -5.519402027e-01
     4980000000    4.188916087e-02   -5.705809593e-01
     4983000000    2.413241118e-01   -5.134226680e-01
     4986000000    4.052222669e-01   -3.980645835e-01
     4989000000    5.173952579e-01   -2.288879305e-01
     4992000000    5.629283190e-01   -3.352387249e-02
     4995000000    5.327746868e-01    1.668856144e-01
     4998000000    4.357278645e-01    3.418683410e-01
     5001000000    2.918165624e-01    4.762483537e-01
     5004000000    1.028812751e-01    5.448808074e-01
     5007000000   -9.266950935e-02    5.388815999e-01
     5010000000   -2.748876214e-01    4.718030393e-01
     5013000000   -4.236100912e-01    3.412105441e-01
     5016000000   -5.136339664e-01    1.752537042e-01
     5019000000   -5.389609933e-01   -1.893987879e-02
     5022000000   -4.940855801e-01   -2.048919350e-01
     5025000000   -3.868510425e-01   -3.621563017e-01
     5028000000   -2.330817431e-01   -4.728968143e-01
     5031000000   -5.110811070e-02   -5.211853385e-01
     5034000000    1.347590387e-01   -5.030557513e-01
     5037000000    3.012681603e-01   -4.232870638e-01
     5040000000    4.274981320e-01   -2.881737053e-01
     5043000000    4.964576364e-01   -1.190034375e-01
     5046000000    5.045588017e-01    6.107184663e-02
     5049000000    4.467646182e-01    2.314896733e-01
     5052000000    3.360649347e-01    3.713846505e-01
     5055000000    1.815759540e-01    4.617030621e-01
     5058000000    8.666292764e-03    4.934993088e-01
     5061000000   -1.635813266e-01    4.620054066e-01
     5064000000   -3.127650321e-01    3.743470609e-01
     5067000000   -4.209119976e-01    2.404234558e-01
     5070000000   -4.745516479e-01    7.902827859e-02
     5073000000   -4.674637020e-01   -9.024361521e-02
     5076000000   -4.040008187e-01   -2.448180169e-01
     5079000000   -2.909746468e-01   -3.667550683e-01
     5082000000   -1.444094479e-01   -4.401870668e-01
     5085000000    1.634422876e-02   -4.576664567e-01
     5088000000    1.723215133e-01   -4.195483327e-01
     5091000000    3.040728867e-01   -3.300316632e-01
     5094000000    3.951337934e-01   -2.018406093e-01
     5097000000    4.361445606e-01   -5.124474317e-02
     5100000000    4.248371422e-01    1.016864106e-01
     5103000000    3.576317132e-01    2.371584624e-01
     5106000000    2.564438581e-01    3.420301080e-01
     5109000000    1.190757081e-01    4.028508067e-01
     5112000000   -2.591146342e-02    4.179041088e-01
     5115000000   -1.654307991e-01    3.747891784e-01
     5118000000   -2.832772434e-01    2.955849767e-01
     5121000000   -3.605172932e-01    1.752416342e-01
     5124000000   -3.907282948e-01    4.203859344e-02
     5127000000   -3.814784586e-01   -9.618692100e-02
     5130000000   -3.228194416e-01   -2.166454792e-01
     5133000000   -2.244858146e-01   -3.056665659e-01
     5136000000   -1.065863594e-01   -3.571349978e-01
     5139000000    2.380510606e-02   -3.662384748e-01
     5142000000    1.441489458e-01   -3.326430321e-01
     5145000000    2.465043366e-01   -2.581271231e-01
     5148000000    3.126026690e-01   -1.566991955e-01
     5151000000    3.439956009e-01   -4.054674879e-02
     5154000000    3.325611353e-01    7.673697919e-02
     5157000000    2.813867331e-01    1.812837720e-01
     5160000000    2.036740035e-01    2.619390190e-01
     5163000000    1.024344042e-01    3.074647188e-01
     5166000000   -8.056493476e-03    3.180539310e-01
     5169000000   -1.132891178e-01    2.959088683e-01
     5172000000   -1.940104663e-01    2.301525474e-01
     5175000000   -2.645469606e-01    1.488771588e-01
     5178000000   -2.902486324e-01    5.227234587e-02
     5181000000   -2.860860527e-01   -4.681296647e-02
     5184000000   -2.554319501e-01   -1.401882321e-01
     5187000000   -1.887376606e-01   -2.058552057e-01
     5190000000   -1.068436578e-01   -2.570596933e-01
     5193000000   -2.014880069e-02   -2.669037282e-01
     5196000000    7.682295889e-02   -2.660886943e-01
     5199000000    1.395493299e-01   -2.138802856e-01
     5202000000    2.169134915e-01   -1.552425176e-01
     5205000000    2.544387877e-01   -7.448938489e-02
     5208000000    2.594665587e-01    1.222986076e-02
     5211000000    2.366243899e-01    8.709683269e-02
     5214000000    1.917488724e-01    1.569570899e-01
     5217000000    1.332956105e-01    2.086968720e-01
     5220000000    5.402083322e-02    2.368864119e-01
     5223000000   -1.807893254e-02    2.355219722e-01
     5226000000   -9.180201590e-02    2.168429941e-01
     5229000000   -1.562194675e-01    1.739294082e-01
     5232000000   -2.000798285e-01    1.143748686e-01
     5235000000   -2.248594761e-01    4.236111790e-02
     5238000000   -2.274652421e-01   -3.540223092e-02
     5241000000   -2.045172453e-01   -1.009525880e-01
     5244000000   -1.594560295e-01   -1.607289612e-01
     5247000000   -9.857001901e-02   -2.045363933e-01
     5250000000   -3.458543122e-02   -2.219006121e-01
     5253000000    4.036115110e-02   -2.208971679e-01
     5256000000    1.209087670e-01   -1.915299147e-01
     5259000000    1.637874246e-01   -1.522497833e-01
     5262000000    2.084825486e-01   -8.671320975e-02
     5265000000    2.256572396e-01   -2.005932853e-02
     5268000000    2.241582721e-01    4.524859414e-02
     5271000000    1.940236986e-01    1.237155721e-01
     5274000000    1.422670782e-01    1.812894195e-01
     5277000000    8.560714126e-02    2.155018598e-01
     5280000000    5.165582057e-03    2.324242145e-01
     5283000000   -7.884738594e-02    2.184292525e-01
     5286000000   -1.360808760e-01    1.935830712e-01
     5289000000   -1.910428107e-01    1.410620660e-01
     5292000000   -2.285130024e-01    6.465083361e-02
     5295000000   -2.401571572e-01   -1.311680209e-02
     5298000000   -2.275940627e-01   -8.816602081e-02
     5301000000   -1.818586439e-01   -1.629555821e-01
     5304000000   -1.180403754e-01   -2.169055939e-01
     5307000000   -3.988682851e-02   -2.454004586e-01
     5310000000    4.344571754e-02   -2.471710294e-01
     5313000000    1.231609434e-01   -2.244128734e-01
     5316000000    1.924439520e-01   -1.697865427e-01
     5319000000    2.404023260e-01   -9.589236975e-02
     5322000000    2.609634101e-01   -9.705992416e-03
     5325000000    2.526330948e-01    7.766140252e-02
     5328000000    2.144248337e-01    1.605799794e-01
     5331000000    1.442632377e-01    2.249357551e-01
     5334000000    6.087509170e-02    2.628920078e-01
     5337000000   -3.341486678e-02    2.694622576e-01
     5340000000   -1.229573190e-01    2.476532310e-01
     5343000000   -2.050031126e-01    1.922641844e-01
     5346000000   -2.576664984e-01    1.111553162e-01
     5349000000   -2.860780954e-01    1.528396644e-02
     5352000000   -2.777083516e-01   -8.244724572e-02
     5355000000   -2.360474914e-01   -1.764749587e-01
     5358000000   -1.491856277e-01   -2.452505529e-01
     5361000000   -6.941852719e-02   -2.956308424e-01
     5364000000    4.258020595e-02   -2.936774194e-01
     5367000000    1.434171200e-01   -2.595345378e-01
     5370000000    2.330681533e-01   -2.231532633e-01
     5373000000    2.800985277e-01   -1.019526199e-01
     5376000000    3.067900836e-01   -2.264408860e-03
     5379000000    3.053769767e-01    1.032122001e-01
     5382000000    2.530203164e-01    2.034368664e-01
     5385000000    1.575012803e-01    2.704698145e-01
     5388000000    5.316749960e-02    3.140690327e-01
     5391000000   -5.497965962e-02    3.253920972e-01
     5394000000   -1.623267382e-01    2.855722010e-01
     5397000000   -2.574558854e-01    2.128932178e-01
     5400000000   -3.137687743e-01    1.073808819e-01
     5403000000   -3.332055807e-01   -7.381595206e-03
     5406000000   -3.122433424e-01   -1.263499111e-01
     5409000000   -2.495022565e-01   -2.281144112e-01
     5412000000   -1.541734636e-01   -3.043126464e-01
     5415000000   -3.735820204e-02   -3.420341611e-01
     5418000000    8.699082583e-02   -3.365739882e-01
     5421000000    2.021901906e-01   -2.868054509e-01
     5424000000    2.917865813e-01   -2.013275176e-01
     5427000000    3.403838873e-01   -8.411920816e-02
     5430000000    3.571441174e-01    4.132990539e-02
     5433000000    3.182275891e-01    1.652997285e-01
     5436000000    2.492256761e-01    2.738669515e-01
     5439000000    1.344936490e-01    3.384313583e-01
     5442000000    7.683764212e-03    3.623096049e-01
     5445000000   -1.239648908e-01    3.459998369e-01
     5448000000   -2.374003232e-01    2.795216143e-01
     5451000000   -3.248517513e-01    1.795600355e-01
     5454000000   -3.687179685e-01    5.202412605e-02
     5457000000   -3.641010225e-01   -8.223138750e-02
     5460000000   -3.128370941e-01   -2.057146132e-01
     5463000000   -2.222747356e-01   -3.072480857e-01
     5466000000   -9.856367856e-02   -3.635467887e-01
     5469000000    3.985618427e-02   -3.796330094e-01
     5472000000    1.716041714e-01   -3.395000696e-01
     5475000000    2.829275429e-01   -2.570755780e-01
     5478000000    3.617354929e-01   -1.411912292e-01
     5481000000    3.865860701e-01   -6.019304972e-03
     5484000000    3.671354055e-01    1.387651414e-01
     5487000000    2.963533998e-01    2.580348551e-01
     5490000000    1.841958910e-01    3.532034457e-01
     5493000000    5.051833019e-02    3.926319778e-01
     5496000000   -9.191688895e-02    3.902127147e-01
     5499000000   -2.261616588e-01    3.319400549e-01
     5502000000   -3.341220915e-01    2.310123891e-01
     5505000000   -3.949581981e-01    9.900948405e-02
     5508000000   -4.069922566e-01   -4.875712842e-02
     5511000000   -3.639710248e-01   -1.886105835e-01
     5514000000   -2.746899128e-01   -3.106314838e-01
     5517000000   -1.458888948e-01   -3.878236711e-01
     5520000000    4.901881795e-03   -4.172268510e-01
     5523000000    1.478267908e-01   -3.892872632e-01
     5526000000    2.781686485e-01   -3.125321865e-01
     5529000000    3.717052937e-01   -1.919754297e-01
     5532000000    4.185580313e-01   -4.140671715e-02
     5535000000    4.079797864e-01    1.084312052e-01
     5538000000    3.439503908e-01    2.468935251e-01
     5541000000    2.339518219e-01    3.561780751e-01
     5544000000    9.466766566e-02    4.177609384e-01
     5547000000   -6.190489233e-02    4.245382845e-01
     5550000000   -2.099685520e-01    3.767792881e-01
     5553000000   -3.309094012e-01    2.752688825e-01
     5556000000   -4.115733206e-01    1.428291798e-01
     5559000000   -4.350654483e-01   -1.443367451e-02
     5562000000   -4.016619921e-01   -1.713639051e-01
     5565000000   -3.187651336e-01   -3.051035404e-01
     5568000000   -1.889033765e-01   -4.007780850e-01
     5571000000   -3.289862722e-02   -4.435246289e-01
     5574000000    1.242983192e-01   -4.317680597e-01
     5577000000    2.714300156e-01   -3.550255895e-01
     5580000000    3.807264268e-01   -2.382903546e-01
     5583000000    4.418684542e-01   -8.702877164e-02
     5586000000    4.477452040e-01    7.378298044e-02
     5589000000    3.956857920e-01    2.308066487e-01
     5592000000    2.839334011e-01    3.531522155e-01
     5595000000    1.476347893e-01    4.387074411e-01
     5598000000   -1.829500869e-02    4.605284631e-01
     5601000000   -1.808725893e-01    4.187348485e-01
     5604000000   -3.206003606e-01    3.318299055e-01
     5607000000   -4.131621718e-01    1.964162886e-01
     5610000000   -4.570429921e-01    3.738427162e-02
     5613000000   -4.350733161e-01   -1.299782693e-01
     5616000000   -3.680754304e-01   -2.815959752e-01
     5619000000   -2.401815951e-01   -3.910759985e-01
     5622000000   -8.800508082e-02   -4.509069026e-01
     5625000000    7.891503721e-02   -4.526507854e-01
     5628000000    2.349446565e-01   -3.931578398e-01
     5631000000    3.625794351e-01   -2.903116941e-01
     5634000000    4.441963434e-01   -1.410327554e-01
     5637000000    4.500931799e-01    2.606948465e-02
     5640000000    4.267039299e-01    1.962293237e-01
     5643000000    3.196405172e-01    3.149058521e-01
     5646000000    1.883676350e-01    4.229120910e-01
     5649000000    2.491859719e-02    4.648613930e-01
     5652000000   -1.337366700e-01    4.369590580e-01
     5655000000   -2.814109325e-01    3.562224805e-01
     5658000000   -3.837589025e-01    2.310014963e-01
     5661000000   -4.552379549e-01    7.674144953e-02
     5664000000   -4.492950737e-01   -9.188233316e-02
     5667000000   -3.891194463e-01   -2.419064790e-01
     5670000000   -2.761742175e-01   -3.653241396e-01
     5673000000   -1.281747818e-01   -4.335881770e-01
     5676000000    4.085185379e-02   -4.586737454e-01
     5679000000    1.950774938e-01   -4.110508859e-01
     5682000000    3.315632939e-01   -3.113781810e-01
     5685000000    4.258100092e-01   -1.738990396e-01
     5688000000    4.482418597e-01   -2.024676464e-02
     5691000000    4.325520098e-01    1.540750116e-01
     5694000000    3.427252173e-01    2.805998921e-01
     5697000000    2.210164964e-01    3.897365034e-01
     5700000000    6.312983483e-02    4.493815899e-01
     5703000000   -9.563447535e-02    4.341255426e-01
     5706000000   -2.435476482e-01    3.697569072e-01
     5709000000   -3.723555803e-01    2.571324110e-01
     5712000000   -4.292974174e-01    1.083318442e-01
     5715000000   -4.313521087e-01   -4.325631633e-02
     5718000000   -3.872410059e-01   -1.995822489e-01
     5721000000   -2.907041013e-01   -3.338524997e-01
     5724000000   -1.548175663e-01   -4.086298048e-01
     5727000000    3.629775718e-03   -4.364778697e-01
     5730000000    1.592417210e-01   -4.073105454e-01
     5733000000    2.969104946e-01   -3.232454360e-01
     5736000000    3.839728534e-01   -1.967683434e-01
     5739000000    4.310314953e-01   -4.496633261e-02
     5742000000    4.141603112e-01    1.088181958e-01
     5745000000    3.460507095e-01    2.515058815e-01
     5748000000    2.375972271e-01    3.484164476e-01
     5751000000    8.600622416e-02    4.206793904e-01
     5754000000   -6.654707342e-02    4.203104377e-01
     5757000000   -2.115499973e-01    3.657309115e-01
     5760000000   -3.217079043e-01    2.650204301e-01
     5763000000   -4.004769623e-01    1.268704385e-01
     5766000000   -4.041560888e-01   -4.256797489e-03
     5769000000   -3.769823611e-01   -1.646919399e-01
     5772000000   -2.911417484e-01   -2.781889141e-01
     5775000000   -1.670899838e-01   -3.642131686e-01
     5778000000   -2.467015199e-02   -3.989082277e-01
     5781000000    1.101272777e-01   -3.769432008e-01
     5784000000    2.567709684e-01   -3.081231415e-01
     5787000000    3.356418908e-01   -1.991240531e-01
     5790000000    3.819808066e-01   -6.346908957e-02
     5793000000    3.732462227e-01    7.676221430e-02
     5796000000    3.197507560e-01    2.106324434e-01
     5799000000    2.212646157e-01    3.085277677e-01
     5802000000    9.720553458e-02    3.611996770e-01
     5805000000   -3.765324503e-02    3.676039577e-01
     5808000000   -1.753671765e-01    3.292252123e-01
     5811000000   -2.736794949e-01    2.436470091e-01
     5814000000   -3.382969797e-01    1.299307644e-01
     5817000000   -3.578643799e-01   -2.433443908e-03
     5820000000   -3.301026225e-01   -1.359056532e-01
     5823000000   -2.583612204e-01   -2.424809635e-01
     5826000000   -1.554847509e-01   -3.066858649e-01
     5829000000   -1.870928518e-02   -3.504061103e-01
     5832000000    9.872019291e-02   -3.283581138e-01
     5835000000    2.022325248e-01   -2.655796409e-01
     5838000000    2.906884849e-01   -1.694545150e-01
     5841000000    3.306623101e-01   -4.520924389e-02
     5844000000    3.207148015e-01    6.614246219e-02
     5847000000    2.725768983e-01    1.805990636e-01
     5850000000    1.898896247e-01    2.545110583e-01
     5853000000    6.864280999e-02    3.115186989e-01
     5856000000   -5.034057796e-02    3.118000925e-01
     5859000000   -1.674340069e-01    2.678275108e-01
     5862000000   -2.327981889e-01    1.983409077e-01
     5865000000   -2.939085662e-01    9.129013121e-02
     5868000000   -3.047930896e-01   -2.133210935e-02
     5871000000   -2.736828029e-01   -1.425607502e-01
     5874000000   -2.037785351e-01   -2.269665748e-01
     5877000000   -1.055587009e-01   -2.843533754e-01
     5880000000    5.544765154e-04   -3.007538617e-01
     5883000000    1.311976761e-01   -2.778521180e-01
     5886000000    2.196269035e-01   -2.102171630e-01
     5889000000    2.720253170e-01   -1.225593537e-01
     5892000000    2.922762036e-01   -2.889436297e-02
     5895000000    2.808594704e-01    1.010423675e-01
     5898000000    2.278016806e-01    1.859730929e-01
     5901000000    1.402339190e-01    2.604078650e-01
     5904000000    3.624853492e-02    2.915726006e-01
     5907000000   -6.415593624e-02    2.859457731e-01
     5910000000   -1.784549505e-01    2.375134826e-01
     5913000000   -2.503974438e-01    1.556569487e-01
     5916000000   -2.867586911e-01    6.991952658e-02
     5919000000   -2.896253467e-01   -5.025789514e-02
     5922000000   -2.497040331e-01   -1.503257453e-01
     5925000000   -1.802979410e-01   -2.320313901e-01
     5928000000   -8.613096923e-02   -2.812263370e-01
     5931000000    2.481352910e-02   -2.912589014e-01
     5934000000    1.255941540e-01   -2.629243433e-01
     5937000000    2.143114358e-01   -2.026937455e-01
     5940000000    2.825893462e-01   -9.370340407e-02
     5943000000    2.904348373e-01   -1.270610746e-02
     5946000000    2.742431164e-01    1.037861109e-01
     5949000000    2.228749394e-01    1.870518774e-01
     5952000000    1.302346587e-01    2.600210607e-01
     5955000000    3.263270110e-02    2.883757651e-01
     5958000000   -7.316554338e-02    2.798075378e-01
     5961000000   -1.679337472e-01    2.352155596e-01
     5964000000   -2.359808683e-01    1.641976088e-01
     5967000000   -2.773232162e-01    7.185154408e-02
     5970000000   -2.862747908e-01   -1.745840348e-02
     5973000000   -2.424809039e-01   -1.503136605e-01
     5976000000   -2.033260316e-01   -1.990446448e-01
     5979000000   -1.149680689e-01   -2.570800185e-01
     5982000000    1.839490794e-02   -2.758943141e-01
     5985000000    8.223922551e-02   -2.638393641e-01
     5988000000    1.798667461e-01   -2.059257776e-01
     5991000000    2.367126495e-01   -1.335846633e-01
     5994000000    2.644776702e-01   -3.685084730e-02
     5997000000    2.624852955e-01    4.748012871e-02
     6000000000    2.209062278e-01    1.387377083e-01
