! NanoVNA-App
! Date: 2026-05-22 18:32:29
! Start: 4.8GHz Stop: 6GHz Points: 401
! S-Parameter data: F S11
# Hz S RI R 50
!     Frequency           S11_Real           S11_Imag
     4800000000    3.091180027e-01    4.176761806e-01
     4803000000    1.430139542e-01    4.953674972e-01
     4806000000   -4.177013040e-02    5.093115568e-01
     4809000000   -2.119170129e-01    4.602904320e-01
     4812000000   -3.584870696e-01    3.533984423e-01
     4815000000   -4.560648799e-01    2.051343620e-01
     4818000000   -4.920160174e-01    2.717485093e-02
     4821000000   -4.650791585e-01   -1.438595951e-01
     4824000000   -3.834583163e-01   -2.921816409e-01
     4827000000   -2.512932420e-01   -4.051649272e-01
     4830000000   -9.439737350e-02   -4.628285170e-01
     4833000000    7.204530388e-02   -4.609559178e-01
     4836000000    2.276232988e-01   -3.990648389e-01
     4839000000    3.476599455e-01   -2.912448347e-01
     4842000000    4.220961034e-01   -1.478068382e-01
     4845000000    4.421452284e-01    9.118600748e-03
     4848000000    4.032841623e-01    1.613931507e-01
     4851000000    3.170467913e-01    2.876763344e-01
     4854000000    1.921220571e-01    3.747036755e-01
     4857000000    4.833139852e-02    4.096150398e-01
     4860000000   -9.927648306e-02    3.925923109e-01
     4863000000   -2.288294435e-01    3.319444954e-01
     4866000000   -3.228466213e-01    2.202217579e-01
     4869000000   -3.767668903e-01    9.208632261e-02
     4872000000   -3.759720922e-01   -4.547976702e-02
     4875000000   -3.297361135e-01   -1.721206605e-01
     4878000000   -2.420058548e-01   -2.728076577e-01
     4881000000   -1.269146800e-01   -3.325022161e-01
     4884000000   -2.735286485e-03   -3.507915139e-01
     4887000000    1.216768622e-01   -3.226983249e-01
     4890000000    2.227357030e-01   -2.529270053e-01
     4893000000    2.909237146e-01   -1.531829983e-01
     4896000000    3.210063875e-01   -3.725739568e-02
     4899000000    3.040229976e-01    7.756647468e-02
     4902000000    2.518512905e-01    1.777271330e-01
     4905000000    1.673991084e-01    2.509785295e-01
     4908000000    6.428561360e-02    2.884424031e-01
     4911000000   -4.286072031e-02    2.870360315e-01
     4914000000   -1.413906813e-01    2.458596975e-01
     4917000000   -2.162019610e-01    1.744909585e-01
     4920000000   -2.604602575e-01    8.255369216e-02
     4923000000   -2.707172930e-01   -1.651152596e-02
     4926000000   -2.420140207e-01   -1.104142070e-01
     4929000000   -1.824781895e-01   -1.840333790e-01
     4932000000   -1.026906893e-01   -2.330864966e-01
     4935000000   -1.114078797e-02   -2.479727566e-01
     4938000000    7.992519438e-02   -2.311773002e-01
     4941000000    1.539988667e-01   -1.828202158e-01
     4944000000    2.076362073e-01   -1.108336821e-01
     4947000000    2.302102447e-01   -2.859555744e-02
     4950000000    2.213373035e-01    5.644134805e-02
     4953000000    1.833016425e-01    1.301655918e-01
     4956000000    1.236239150e-01    1.853099018e-01
     4959000000    4.655052722e-02    2.127643973e-01
     4962000000   -3.102148697e-02    2.121731639e-01
     4965000000   -1.052360237e-01    1.810764521e-01
     4968000000   -1.610939503e-01    1.301470101e-01
     4971000000   -1.950366050e-01    6.138812006e-02
     4974000000   -2.012609094e-01   -1.245948207e-02
     4977000000   -1.813213229e-01   -8.548900485e-02
     4980000000   -1.369137615e-01   -1.437171996e-01
     4983000000   -7.751911879e-02   -1.807316244e-01
     4986000000   -7.585142739e-03   -1.942719370e-01
     4989000000    5.907425284e-02   -1.836677790e-01
     4992000000    1.181524917e-01   -1.481187791e-01
     4995000000    1.586629003e-01   -9.578520805e-02
     4998000000    1.800458431e-01   -3.139200434e-02
     5001000000    1.784497052e-01    3.294613957e-02
     5004000000    1.510415077e-01    9.376183152e-02
     5007000000    1.085934490e-01    1.386420429e-01
     5010000000    5.007875711e-02    1.662760228e-01
     5013000000   -1.267757546e-02    1.704697907e-01
     5016000000   -6.627454609e-02    1.598841846e-01
     5019000000   -1.177342162e-01    1.223644242e-01
     5022000000   -1.483597904e-01    7.107452303e-02
     5025000000   -1.632267237e-01    1.857863553e-02
     5028000000   -1.549399942e-01   -3.902317211e-02
     5031000000   -1.315934211e-01   -8.914956450e-02
     5034000000   -9.144989401e-02   -1.263701469e-01
     5037000000   -4.347161949e-02   -1.494320631e-01
     5040000000    1.350351609e-02   -1.502408236e-01
     5043000000    6.021570042e-02   -1.408640146e-01
     5046000000    1.022305191e-01   -1.068800986e-01
     5049000000    1.311658174e-01   -6.723253429e-02
     5052000000    1.443467736e-01   -2.008436434e-02
     5055000000    1.361130923e-01    3.046284802e-02
     5058000000    1.185330898e-01    7.238164544e-02
     5061000000    8.862288296e-02    1.068815514e-01
     5064000000    4.781540483e-02    1.291090250e-01
     5067000000    1.532350783e-03    1.369162202e-01
     5070000000   -4.265980795e-02    1.279491037e-01
     5073000000   -8.081216365e-02    1.049241200e-01
     5076000000   -1.090954989e-01    7.260371745e-02
     5079000000   -1.267039329e-01    3.311344981e-02
     5082000000   -1.302247196e-01   -9.507090785e-03
     5085000000   -1.210986003e-01   -4.886323959e-02
     5088000000   -1.002573371e-01   -8.386209607e-02
     5091000000   -6.939292699e-02   -1.144289449e-01
     5094000000   -3.020929731e-02   -1.300347149e-01
     5097000000    1.410473883e-02   -1.380485445e-01
     5100000000    5.166652799e-02   -1.247159168e-01
     5103000000    8.742523938e-02   -1.007542759e-01
     5106000000    1.216944978e-01   -7.145838439e-02
     5109000000    1.299655885e-01   -3.231576830e-02
     5112000000    1.456040442e-01    1.624218933e-02
     5115000000    1.289043278e-01    5.264113471e-02
     5118000000    1.109043881e-01    1.088546887e-01
     5121000000    7.954818755e-02    1.189278588e-01
     5124000000    2.916879021e-02    1.534658521e-01
     5127000000   -9.800183587e-03    1.503683925e-01
     5130000000   -6.572151184e-02    1.437280923e-01
     5133000000   -1.060999706e-01    1.209415793e-01
     5136000000   -1.500277072e-01    7.757281512e-02
     5139000000   -1.669162959e-01    3.163962811e-02
     5142000000   -1.724296063e-01   -2.360040508e-02
     5145000000   -1.596598476e-01   -7.997860014e-02
     5148000000   -1.292761415e-01   -1.311617941e-01
     5151000000   -7.839367539e-02   -1.718752235e-01
     5154000000   -1.968755201e-02   -1.910822093e-01
     5157000000    4.253664613e-02   -1.933638752e-01
     5160000000    1.074558422e-01   -1.719102114e-01
     5163000000    1.608152837e-01   -1.299992651e-01
     5166000000    1.993970424e-01   -7.391358167e-02
     5169000000    2.190624028e-01    2.609758638e-03
     5172000000    2.123354673e-01    7.551391423e-02
     5175000000    1.727904081e-01    1.515388936e-01
     5178000000    1.307228208e-01    1.989628971e-01
     5181000000    5.389595032e-02    2.381905168e-01
     5184000000   -3.798385710e-02    2.451199740e-01
     5187000000   -1.119450554e-01    2.304744273e-01
     5190000000   -1.938985586e-01    1.787053645e-01
     5193000000   -2.459826320e-01    1.104835570e-01
     5196000000   -2.729156315e-01    2.014600486e-02
     5199000000   -2.763941884e-01   -6.859648228e-02
     5202000000   -2.262597084e-01   -1.710337102e-01
     5205000000   -1.701875329e-01   -2.391769439e-01
     5208000000   -7.938984036e-02   -2.875160575e-01
     5211000000    2.414270490e-02   -3.007012904e-01
     5214000000    1.298721135e-01   -2.788504064e-01
     5217000000    2.221851349e-01   -2.207865417e-01
     5220000000    2.892307937e-01   -1.396693438e-01
     5223000000    3.257331252e-01   -3.123670816e-02
     5226000000    3.232087493e-01    8.357859403e-02
     5229000000    2.743659019e-01    1.948870122e-01
     5232000000    1.976292282e-01    2.809978724e-01
     5235000000    8.570259809e-02    3.378380537e-01
     5238000000   -3.505539149e-02    3.510795236e-01
     5241000000   -1.538494527e-01    3.242261708e-01
     5244000000   -2.616687715e-01    2.507424951e-01
     5247000000   -3.341821432e-01    1.446892470e-01
     5250000000   -3.740003109e-01    2.679932863e-02
     5253000000   -3.635622859e-01   -1.053359807e-01
     5256000000   -3.074828088e-01   -2.260841578e-01
     5259000000   -2.080069184e-01   -3.244146109e-01
     5262000000   -9.160618484e-02   -3.848576248e-01
     5265000000    5.299018696e-02   -3.918803334e-01
     5268000000    1.849327981e-01   -3.538852632e-01
     5271000000    3.015334606e-01   -2.790486813e-01
     5274000000    3.811285794e-01   -1.524833739e-01
     5277000000    4.067095220e-01   -7.982936222e-04
     5280000000    3.945631087e-01    1.340488195e-01
     5283000000    3.244855106e-01    2.679557204e-01
     5286000000    2.013328224e-01    3.655123413e-01
     5289000000    6.921806186e-02    4.208657146e-01
     5292000000   -7.920918614e-02    4.260635972e-01
     5295000000   -2.283792347e-01    3.720662296e-01
     5298000000   -3.461011350e-01    2.704291344e-01
     5301000000   -4.179998934e-01    1.293197572e-01
     5304000000   -4.459157884e-01   -2.416456491e-02
     5307000000   -4.102499783e-01   -1.799285710e-01
     5310000000   -3.236693442e-01   -3.136908412e-01
     5313000000   -1.945855469e-01   -4.119023681e-01
     5316000000   -3.890365362e-02   -4.571281672e-01
     5319000000    1.222342029e-01   -4.505648911e-01
     5322000000    2.736980915e-01   -3.762938082e-01
     5325000000    3.914453685e-01   -2.579164505e-01
     5328000000    4.580538869e-01   -1.029520407e-01
     5331000000    4.699138999e-01    6.369244307e-02
     5334000000    4.223335087e-01    2.261478156e-01
     5337000000    3.177329898e-01    3.613125086e-01
     5340000000    1.695782244e-01    4.493239224e-01
     5343000000    3.784523287e-04    4.850299358e-01
     5346000000   -1.720425189e-01    4.573792219e-01
     5349000000   -3.216584623e-01    3.679524362e-01
     5352000000   -4.331949353e-01    2.321418524e-01
     5355000000   -4.847838581e-01    6.482449174e-02
     5358000000   -4.913682044e-01   -1.080797613e-01
     5361000000   -4.155172706e-01   -2.772967815e-01
     5364000000   -2.923792899e-01   -4.025156200e-01
     5367000000   -1.316029727e-01   -4.785403907e-01
     5370000000    4.220274836e-02   -5.054628253e-01
     5373000000    2.231659591e-01   -4.564852417e-01
     5376000000    3.626587093e-01   -3.402959108e-01
     5379000000    4.688515365e-01   -1.928186268e-01
     5382000000    5.092164874e-01   -1.688573137e-02
     5385000000    4.786541760e-01    1.609268337e-01
     5388000000    3.905802667e-01    3.269443512e-01
     5391000000    2.564491332e-01    4.474140704e-01
     5394000000    8.394722641e-02    5.058050156e-01
     5397000000   -1.060313657e-01    5.071528554e-01
     5400000000   -2.789884210e-01    4.359332323e-01
     5403000000   -4.038999081e-01    3.088241518e-01
     5406000000   -4.983527362e-01    1.464855075e-01
     5409000000   -5.152480602e-01   -4.022720829e-02
     5412000000   -4.707311690e-01   -2.216227651e-01
     5415000000   -3.595834374e-01   -3.729439080e-01
     5418000000   -2.041467130e-01   -4.776341021e-01
     5421000000   -2.407297865e-02   -5.228710175e-01
     5424000000    1.606086195e-01   -4.930620492e-01
     5427000000    3.248261213e-01   -4.063390493e-01
     5430000000    4.514749348e-01   -2.629208863e-01
     5433000000    5.158091784e-01   -8.426740766e-02
     5436000000    5.106259584e-01    1.036726907e-01
     5439000000    4.407054484e-01    2.811062932e-01
     5442000000    3.140609860e-01    4.173343480e-01
     5445000000    1.442594230e-01    5.010836720e-01
     5448000000   -3.950545192e-02    5.198070407e-01
     5451000000   -2.215794623e-01    4.716416001e-01
     5454000000   -3.771195114e-01    3.606783450e-01
     5457000000   -4.812469184e-01    2.025516182e-01
     5460000000   -5.216921568e-01    1.999264397e-02
     5463000000   -4.951467216e-01   -1.658646464e-01
     5466000000   -4.028078914e-01   -3.307304084e-01
     5469000000   -2.580891252e-01   -4.537683129e-01
     5472000000   -8.016578108e-02   -5.161564350e-01
     5475000000    1.075052619e-01   -5.113882422e-01
     5478000000    2.804265618e-01   -4.395451546e-01
     5481000000    4.191824794e-01   -3.127563596e-01
     5484000000    5.035881996e-01   -1.413717419e-01
     5487000000    5.162811875e-01    4.185519740e-02
     5490000000    4.698642194e-01    2.256552726e-01
     5493000000    3.587435782e-01    3.755830526e-01
     5496000000    2.064480931e-01    4.762745500e-01
     5499000000    2.003834955e-02    5.141373277e-01
     5502000000   -1.643440127e-01    4.903128445e-01
     5505000000   -3.229110837e-01    3.964952528e-01
     5508000000   -4.449134767e-01    2.561859488e-01
     5511000000   -5.046781898e-01    8.117474616e-02
     5514000000   -4.982842803e-01   -1.015618965e-01
     5517000000   -4.260033369e-01   -2.726895809e-01
     5520000000   -3.011252880e-01   -4.110145271e-01
     5523000000   -1.365117878e-01   -4.855718315e-01
     5526000000    4.425435886e-02   -4.991493821e-01
     5529000000    2.190755606e-01   -4.481794238e-01
     5532000000    3.663398325e-01   -3.380705118e-01
     5535000000    4.591199756e-01   -1.874952912e-01
     5538000000    4.942502379e-01   -1.355856471e-02
     5541000000    4.625180662e-01    1.627598405e-01
     5544000000    3.764641285e-01    3.170129359e-01
     5547000000    2.364842892e-01    4.240517020e-01
     5550000000    6.654998660e-02    4.936093390e-01
     5553000000   -1.029049903e-01    4.692613780e-01
     5556000000   -2.732718885e-01    4.097549319e-01
     5559000000   -3.893539608e-01    2.836936712e-01
     5562000000   -4.662938118e-01    1.245004311e-01
     5565000000   -4.780149758e-01   -4.870054126e-02
     5568000000   -4.226248562e-01   -2.100654244e-01
     5571000000   -3.175776303e-01   -3.479206860e-01
     5574000000   -1.733807921e-01   -4.382094741e-01
     5577000000   -5.098933354e-03   -4.636770785e-01
     5580000000    1.624023765e-01   -4.371922314e-01
     5583000000    3.028496504e-01   -3.457528949e-01
     5586000000    4.101966321e-01   -2.145346999e-01
     5589000000    4.474784732e-01   -5.730074644e-02
     5592000000    4.388594329e-01    1.100641713e-01
     5595000000    3.712068796e-01    2.583352923e-01
     5598000000    2.536331415e-01    3.751585782e-01
     5601000000    1.021070033e-01    4.285486341e-01
     5604000000   -6.263998151e-02    4.466640055e-01
     5607000000   -2.105426341e-01    3.893267214e-01
     5610000000   -3.407907784e-01    2.900106609e-01
     5613000000   -4.088014960e-01    1.479602009e-01
     5616000000   -4.358510971e-01   -9.548828937e-03
     5619000000   -4.018708467e-01   -1.656809002e-01
     5622000000   -3.137654960e-01   -2.937300503e-01
     5625000000   -1.866159290e-01   -3.922568858e-01
     5628000000   -3.966293484e-02   -4.172187746e-01
     5631000000    1.190454215e-01   -4.102351367e-01
     5634000000    2.461265773e-01   -3.342906833e-01
     5637000000    3.595240116e-01   -2.175487280e-01
     5640000000    4.191211164e-01   -7.331609726e-02
     5643000000    4.050753117e-01    6.912245601e-02
     5646000000    3.541161120e-01    2.157707214e-01
     5649000000    2.524752021e-01    3.211929500e-01
     5652000000    1.219587028e-01    3.926817179e-01
     5655000000   -1.858600602e-02    3.973043859e-01
     5658000000   -1.655295640e-01    3.643722534e-01
     5661000000   -2.861642540e-01    2.812899649e-01
     5664000000   -3.551278114e-01    1.623727977e-01
     5667000000   -3.983935416e-01    1.859609224e-02
     5670000000   -3.700068891e-01   -1.152974218e-01
     5673000000   -3.051419854e-01   -2.583658397e-01
     5676000000   -1.930355430e-01   -3.405542076e-01
     5679000000   -6.800353527e-02   -3.714135885e-01
     5682000000    7.027321309e-02   -3.693404198e-01
     5685000000    2.047480792e-01   -3.193456233e-01
     5688000000    3.017820418e-01   -2.244861722e-01
     5691000000    3.551757634e-01   -1.021042541e-01
     5694000000    3.695007861e-01    3.314711899e-02
     5697000000    3.323289752e-01    1.684765965e-01
     5700000000    2.472857684e-01    2.844333947e-01
     5703000000    1.430948377e-01    3.239965737e-01
     5706000000   -4.831050057e-03    3.712951839e-01
     5709000000   -1.178590953e-01    3.380678296e-01
     5712000000   -2.114104778e-01    2.723337710e-01
     5715000000   -3.234933913e-01    1.624894887e-01
     5718000000   -3.381920457e-01    5.755309761e-02
     5721000000   -3.396096230e-01   -8.809352666e-02
     5724000000   -2.847246230e-01   -1.953560561e-01
     5727000000   -1.965065002e-01   -2.804079056e-01
     5730000000   -8.306305110e-02   -3.272693157e-01
     5733000000    3.297379613e-02   -3.302574754e-01
     5736000000    1.518365741e-01   -2.942022383e-01
     5739000000    2.339455932e-01   -2.225240469e-01
     5742000000    3.044397533e-01   -1.170780063e-01
     5745000000    3.170378506e-01   -1.233868394e-02
     5748000000    3.006525934e-01    1.111977994e-01
     5751000000    2.384327352e-01    2.086331993e-01
     5754000000    1.495395303e-01    2.752114534e-01
     5757000000    3.677955642e-02    3.073536158e-01
     5760000000   -5.192267150e-02    2.942481935e-01
     5763000000   -1.603576243e-01    2.537289262e-01
     5766000000   -2.404251099e-01    1.760886908e-01
     5769000000   -2.874339819e-01    7.196702063e-02
     5772000000   -2.939440906e-01   -3.707738966e-02
     5775000000   -2.580341101e-01   -1.241928339e-01
     5778000000   -1.987086535e-01   -1.975240707e-01
     5781000000   -1.117537841e-01   -2.557463944e-01
     5784000000   -1.968112029e-02   -2.713145912e-01
     5787000000    8.237191290e-02   -2.563484609e-01
     5790000000    1.813793480e-01   -2.000897527e-01
     5793000000    2.191078514e-01   -1.411606520e-01
     5796000000    2.541218102e-01   -4.827084765e-02
     5799000000    2.506656349e-01    5.523572862e-02
     5802000000    2.179821879e-01    1.212204769e-01
     5805000000    1.583762765e-01    1.892427057e-01
     5808000000    8.399183303e-02    2.270543575e-01
     5811000000   -1.601309329e-02    2.402282506e-01
     5814000000   -7.802692056e-02    2.230089456e-01
     5817000000   -1.470224857e-01    1.794260740e-01
     5820000000   -1.945836693e-01    1.102650240e-01
     5823000000   -2.191174626e-01    3.503468260e-02
     5826000000   -2.144185603e-01   -3.278904408e-02
     5829000000   -1.731735021e-01   -1.144282594e-01
     5832000000   -1.360219717e-01   -1.514242142e-01
     5835000000   -8.436428010e-02   -1.804398745e-01
     5838000000    2.946956083e-03   -1.883859634e-01
     5841000000    6.473467499e-02   -1.736935526e-01
     5844000000    1.064070091e-01   -1.473416090e-01
     5847000000    1.517391354e-01   -8.304593712e-02
     5850000000    1.664080769e-01   -4.535571486e-02
     5853000000    1.625426412e-01    1.975675113e-02
     5856000000    1.363373995e-01    7.138326764e-02
     5859000000    1.097938940e-01    1.033729538e-01
     5862000000    6.225155666e-02    1.281273216e-01
     5865000000    2.100970782e-02    1.384757161e-01
     5868000000   -2.639436722e-02    1.269100010e-01
     5871000000   -6.668351591e-02    1.052244753e-01
     5874000000   -9.092942625e-02    8.522915840e-02
     5877000000   -1.073284000e-01    4.059849307e-02
     5880000000   -1.083915606e-01    3.579159500e-03
     5883000000   -1.064555272e-01   -2.436537109e-02
     5886000000   -8.579161763e-02   -5.492130294e-02
     5889000000   -5.833453685e-02   -7.222736627e-02
     5892000000   -4.136694595e-02   -8.851562440e-02
     5895000000   -1.180798467e-02   -8.857744932e-02
     5898000000    1.356059965e-02   -8.351558447e-02
     5901000000    3.548562899e-02   -7.396502793e-02
     5904000000    6.690176576e-02   -7.608428597e-02
     5907000000    7.144388556e-02   -4.488478601e-02
     5910000000    6.916233152e-02   -2.459524758e-02
     5913000000    8.159442246e-02   -2.487384016e-03
     5916000000    7.456716895e-02    1.482399926e-02
     5919000000    6.738585234e-02    3.550516814e-02
     5922000000    5.749081075e-02    5.625887215e-02
     5925000000    3.943794966e-02    7.006098330e-02
     5928000000    2.109190449e-02    8.238486946e-02
     5931000000   -8.720430196e-04    8.573321998e-02
     5934000000   -3.148556501e-02    8.310802281e-02
     5937000000   -5.880871043e-02    7.183256000e-02
     5940000000   -7.726531476e-02    5.493404344e-02
     5943000000   -9.514709562e-02    2.682041191e-02
     5946000000   -1.026154160e-01    4.457255825e-03
     5949000000   -1.010295823e-01   -3.236554936e-02
     5952000000   -9.127764404e-02   -6.386245787e-02
     5955000000   -6.917082518e-02   -9.220644832e-02
     5958000000   -3.242156655e-02   -1.147213057e-01
     5961000000    7.236767560e-03   -1.224522367e-01
     5964000000    4.855073243e-02   -1.212764755e-01
     5967000000    8.963575959e-02   -1.026460007e-01
     5970000000    1.224464402e-01   -7.320381701e-02
     5973000000    1.469036937e-01   -3.292090446e-02
     5976000000    1.466503590e-01    2.394100465e-02
     5979000000    1.296136081e-01    7.606140524e-02
     5982000000    1.059245318e-01    1.194974706e-01
     5985000000    6.527694315e-02    1.540562660e-01
     5988000000    7.732409053e-03    1.691108793e-01
     5991000000   -5.117619038e-02    1.682851017e-01
     5994000000   -1.076769754e-01    1.445915103e-01
     5997000000   -1.553509235e-01    1.026623845e-01
     6000000000   -1.825676411e-01    4.249260947e-02
