! NanoVNA-App
! Date: 2026-05-22 18:33:47
! Start: 2.3GHz Stop: 2.6GHz Points: 401
! S-Parameter data: F S11
# Hz S RI R 50
!     Frequency           S11_Real           S11_Imag
     2300000000    1.255965978e-02    2.436380535e-01
     2300750000   -7.616636809e-03    2.410230041e-01
     2301500000   -2.685273066e-02    2.365602851e-01
     2302250000   -4.560871795e-02    2.306557298e-01
     2303000000   -6.630551070e-02    2.233811170e-01
     2303750000   -8.285945654e-02    2.145383060e-01
     2304500000   -9.956926107e-02    2.045728117e-01
     2305250000   -1.144430414e-01    1.934249103e-01
     2306000000   -1.300023496e-01    1.808559150e-01
     2306750000   -1.430398822e-01    1.675012559e-01
     2307500000   -1.526977271e-01    1.529716998e-01
     2308250000   -1.658384949e-01    1.379130483e-01
     2309000000   -1.733710319e-01    1.226478368e-01
     2309750000   -1.816524416e-01    1.062165201e-01
     2310500000   -1.874659508e-01    8.955922723e-02
     2311250000   -1.917980164e-01    7.303309441e-02
     2312000000   -1.951640546e-01    5.678123608e-02
     2312750000   -1.962399930e-01    4.063677415e-02
     2313500000   -1.964038163e-01    2.344895341e-02
     2314250000   -1.953266710e-01    7.413934916e-03
     2315000000   -1.920315921e-01   -7.213800680e-03
     2315750000   -1.880448163e-01   -2.342410386e-02
     2316500000   -1.826061606e-01   -3.756012022e-02
     2317250000   -1.771976799e-01   -5.530896410e-02
     2318000000   -1.692394465e-01   -6.512185931e-02
     2318750000   -1.612260640e-01   -7.889813930e-02
     2319500000   -1.528650224e-01   -8.740025759e-02
     2320250000   -1.424337327e-01   -1.007727385e-01
     2321000000   -1.327877492e-01   -1.068692729e-01
     2321750000   -1.226798147e-01   -1.135123000e-01
     2322500000   -1.095439047e-01   -1.251075417e-01
     2323250000   -9.869117290e-02   -1.285323948e-01
     2324000000   -8.695770800e-02   -1.326357722e-01
     2324750000   -7.520567626e-02   -1.366772652e-01
     2325500000   -6.292545795e-02   -1.387677938e-01
     2326250000   -5.044283718e-02   -1.403055489e-01
     2327000000   -3.962916508e-02   -1.392610818e-01
     2327750000   -2.644351311e-02   -1.400181949e-01
     2328500000   -1.516539976e-02   -1.380868107e-01
     2329250000   -4.542136099e-03   -1.349550635e-01
     2330000000    6.497151684e-03   -1.317594796e-01
     2330750000    1.549975201e-02   -1.277794838e-01
     2331500000    2.505124733e-02   -1.229138002e-01
     2332250000    3.405637294e-02   -1.171299666e-01
     2333000000    4.348917305e-02   -1.106568277e-01
     2333750000    4.887854308e-02   -1.043923795e-01
     2334500000    5.587586761e-02   -9.721189737e-02
     2335250000    6.252564490e-02   -8.989481628e-02
     2336000000    6.720544398e-02   -8.268014342e-02
     2336750000    7.145874947e-02   -7.549489290e-02
     2337500000    7.505282015e-02   -6.851098686e-02
     2338250000    7.828538120e-02   -6.018528342e-02
     2339000000    8.100172132e-02   -5.263905600e-02
     2339750000    8.213023096e-02   -4.559184238e-02
     2340500000    8.246524632e-02   -3.913683072e-02
     2341250000    8.397151530e-02   -3.108237311e-02
     2342000000    8.291380107e-02   -2.615423687e-02
     2342750000    8.249491453e-02   -1.895001717e-02
     2343500000    8.093494177e-02   -1.253162790e-02
     2344250000    7.864013314e-02   -8.763195015e-03
     2345000000    7.689265162e-02   -2.723287558e-03
     2345750000    7.415119559e-02    1.764245913e-03
     2346500000    7.129092515e-02    8.335312828e-03
     2347250000    6.886523217e-02    9.371709079e-03
     2348000000    6.520435959e-02    1.286916621e-02
     2348750000    6.161403656e-02    1.674212515e-02
     2349500000    5.889796093e-02    1.928635500e-02
     2350250000    5.573404208e-02    2.098197676e-02
     2351000000    5.188118294e-02    2.289104834e-02
     2351750000    4.876444861e-02    2.450665087e-02
     2352500000    4.740635678e-02    2.312814631e-02
     2353250000    4.474005476e-02    2.470308542e-02
     2354000000    4.130546749e-02    2.598992176e-02
     2354750000    3.939732909e-02    2.590988390e-02
     2355500000    3.837080300e-02    2.618488111e-02
     2356250000    3.565697744e-02    2.609649673e-02
     2357000000    3.262322396e-02    2.698365226e-02
     2357750000    3.153966367e-02    2.679567784e-02
     2358500000    3.015251644e-02    2.712441050e-02
     2359250000    2.934147604e-02    2.738022059e-02
     2360000000    2.845809609e-02    2.762701735e-02
     2360750000    2.801757120e-02    2.830658667e-02
     2361500000    2.515777759e-02    2.846418694e-02
     2362250000    2.582903579e-02    2.944885381e-02
     2363000000    2.530169673e-02    2.982403338e-02
     2363750000    2.430564351e-02    3.084642440e-02
     2364500000    2.455947734e-02    3.169136122e-02
     2365250000    2.404090762e-02    3.307628259e-02
     2366000000    2.363420092e-02    3.388708830e-02
     2366750000    2.360526286e-02    3.534080088e-02
     2367500000    2.293504961e-02    3.701746464e-02
     2368250000    2.235533483e-02    3.835047781e-02
     2369000000    2.154721692e-02    3.989093378e-02
     2369750000    2.073894441e-02    4.215580970e-02
     2370500000    2.023428492e-02    4.410076514e-02
     2371250000    1.887487434e-02    4.660572112e-02
     2372000000    1.718368009e-02    4.723785445e-02
     2372750000    1.535283308e-02    5.120457709e-02
     2373500000    1.282510348e-02    5.319686979e-02
     2374250000    1.043829322e-02    5.392098427e-02
     2375000000    7.025298197e-03    5.709500238e-02
     2375750000    4.271815531e-03    5.913795158e-02
     2376500000    1.268571126e-03    5.972115695e-02
     2377250000   -3.582795616e-03    6.303549558e-02
     2378000000   -7.393337786e-03    6.395358592e-02
     2378750000   -1.116462890e-02    6.437850744e-02
     2379500000   -1.675389707e-02    6.512872875e-02
     2380250000   -2.122114785e-02    6.531085074e-02
     2381000000   -2.707977593e-02    6.576870382e-02
     2381750000   -3.168014437e-02    6.493550539e-02
     2382500000   -3.734857216e-02    6.456165761e-02
     2383250000   -4.219907522e-02    6.232802570e-02
     2384000000   -4.879194871e-02    6.082693487e-02
     2384750000   -5.352877080e-02    5.816860124e-02
     2385500000   -5.962269008e-02    5.532784015e-02
     2386250000   -6.372566521e-02    5.207935721e-02
     2387000000   -7.001190633e-02    4.795823246e-02
     2387750000   -7.441752404e-02    4.337666929e-02
     2388500000   -7.918260247e-02    3.795043007e-02
     2389250000   -8.398556709e-02    3.214342892e-02
     2390000000   -8.681262285e-02    2.639902569e-02
     2390750000   -9.098895639e-02    1.882969216e-02
     2391500000   -9.309071302e-02    1.242518146e-02
     2392250000   -9.579307586e-02    4.380999133e-03
     2393000000   -9.679061174e-02   -3.227614565e-03
     2393750000   -9.833193570e-02   -1.185997482e-02
     2394500000   -9.832008183e-02   -2.045020275e-02
     2395250000   -9.807173163e-02   -2.914526314e-02
     2396000000   -9.643237293e-02   -3.790633008e-02
     2396750000   -9.442632645e-02   -4.642951488e-02
     2397500000   -9.198536724e-02   -5.496151000e-02
     2398250000   -8.856306225e-02   -6.327871978e-02
     2399000000   -8.414363861e-02   -7.116445154e-02
     2399750000   -7.917330414e-02   -7.941047847e-02
     2400500000   -7.264384627e-02   -8.711250126e-02
     2401250000   -6.600334495e-02   -9.443244338e-02
     2402000000   -5.929586291e-02   -1.008946076e-01
     2402750000   -5.149402469e-02   -1.073218286e-01
     2403500000   -4.232381284e-02   -1.127272770e-01
     2404250000   -3.349521384e-02   -1.173824295e-01
     2405000000   -2.364901640e-02   -1.217123941e-01
     2405750000   -1.366733201e-02   -1.245490760e-01
     2406500000   -2.950144699e-03   -1.273289621e-01
     2407250000    7.435072213e-03   -1.286954582e-01
     2408000000    1.856713928e-02   -1.290492415e-01
     2408750000    2.996068634e-02   -1.282620728e-01
     2409500000    4.046493396e-02   -1.270303875e-01
     2410250000    5.150461569e-02   -1.243627518e-01
     2411000000    6.272762269e-02   -1.205103844e-01
     2411750000    7.314080000e-02   -1.161525548e-01
     2412500000    8.307565749e-02   -1.109472588e-01
     2413250000    9.296504408e-02   -1.048228741e-01
     2414000000    1.025791615e-01   -9.750309587e-02
     2414750000    1.114047542e-01   -8.917824924e-02
     2415500000    1.192346364e-01   -7.974399626e-02
     2416250000    1.267050505e-01   -7.041100413e-02
     2417000000    1.331961900e-01   -5.955537781e-02
     2417750000    1.386291981e-01   -4.865510389e-02
     2418500000    1.431690603e-01   -3.719189391e-02
     2419250000    1.469650567e-01   -2.463741042e-02
     2420000000    1.495798975e-01   -1.202266663e-02
     2420750000    1.510309130e-01    1.388849341e-03
     2421500000    1.510363221e-01    1.459715609e-02
     2422250000    1.497538984e-01    2.759356238e-02
     2423000000    1.476549357e-01    4.103057459e-02
     2423750000    1.442739666e-01    5.459028855e-02
     2424500000    1.397736818e-01    6.723406166e-02
     2425250000    1.341409981e-01    7.952480763e-02
     2426000000    1.276041716e-01    9.190843999e-02
     2426750000    1.197330132e-01    1.034882888e-01
     2427500000    1.113585308e-01    1.150349602e-01
     2428250000    1.018006802e-01    1.254587024e-01
     2429000000    9.054073691e-02    1.345700175e-01
     2429750000    7.912867516e-02    1.436044872e-01
     2430500000    6.703609973e-02    1.516678184e-01
     2431250000    5.376059934e-02    1.579040587e-01
     2432000000    3.983834758e-02    1.632960141e-01
     2432750000    2.533989213e-02    1.679803282e-01
     2433500000    1.067944989e-02    1.712212563e-01
     2434250000   -3.715790575e-03    1.728992015e-01
     2435000000   -1.887205802e-02    1.729734391e-01
     2435750000   -3.393861651e-02    1.722551882e-01
     2436500000   -4.886195064e-02    1.698618233e-01
     2437250000   -6.380415708e-02    1.664963663e-01
     2438000000   -7.811181992e-02    1.617719829e-01
     2438750000   -9.176800400e-02    1.559654772e-01
     2439500000   -1.055134088e-01    1.480732411e-01
     2440250000   -1.181679368e-01    1.393723488e-01
     2441000000   -1.303689778e-01    1.306425929e-01
     2441750000   -1.411615461e-01    1.196532771e-01
     2442500000   -1.513576061e-01    1.075114310e-01
     2443250000   -1.600787342e-01    9.442622960e-02
     2444000000   -1.692124307e-01    8.142185956e-02
     2444750000   -1.746825874e-01    6.620647013e-02
     2445500000   -1.804518104e-01    5.161397532e-02
     2446250000   -1.849402040e-01    3.599672019e-02
     2447000000   -1.871616840e-01    1.996192522e-02
     2447750000   -1.885434687e-01    3.718627384e-03
     2448500000   -1.884395629e-01   -1.287580561e-02
     2449250000   -1.869744658e-01   -2.935216762e-02
     2450000000   -1.835774779e-01   -4.597702250e-02
     2450750000   -1.794550866e-01   -6.174279377e-02
     2451500000   -1.736554056e-01   -7.735195756e-02
     2452250000   -1.667081267e-01   -9.291183203e-02
     2453000000   -1.577526331e-01   -1.070032492e-01
     2453750000   -1.481919736e-01   -1.207043529e-01
     2454500000   -1.374603212e-01   -1.334372908e-01
     2455250000   -1.253235787e-01   -1.452883780e-01
     2456000000   -1.118124351e-01   -1.560946554e-01
     2456750000   -9.712684900e-02   -1.658390462e-01
     2457500000   -8.288619667e-02   -1.741442680e-01
     2458250000   -6.645762175e-02   -1.801595092e-01
     2459000000   -5.006319284e-02   -1.864099652e-01
     2459750000   -3.293652087e-02   -1.908725798e-01
     2460500000   -1.556763146e-02   -1.927394718e-01
     2461250000    2.345414599e-03   -1.951388270e-01
     2462000000    1.989526488e-02   -1.932996809e-01
     2462750000    3.724290058e-02   -1.915526986e-01
     2463500000    5.439382792e-02   -1.877850890e-01
     2464250000    7.141320407e-02   -1.823709309e-01
     2465000000    8.899528533e-02   -1.770389527e-01
     2465750000    1.047007665e-01   -1.687864661e-01
     2466500000    1.199905425e-01   -1.590065807e-01
     2467250000    1.337700337e-01   -1.483287513e-01
     2468000000    1.456537545e-01   -1.361245811e-01
     2468750000    1.602070183e-01   -1.237923056e-01
     2469500000    1.701007038e-01   -1.096844673e-01
     2470250000    1.789376289e-01   -9.378222376e-02
     2471000000    1.899254322e-01   -7.785382867e-02
     2471750000    1.957034916e-01   -6.158915535e-02
     2472500000    2.010695934e-01   -4.423950613e-02
     2473250000    2.054054737e-01   -2.592030168e-02
     2474000000    2.066985518e-01   -8.366868831e-03
     2474750000    2.077812552e-01    1.018429734e-02
     2475500000    2.068246007e-01    2.864075266e-02
     2476250000    2.044654042e-01    4.677285254e-02
     2477000000    1.998379678e-01    6.402705610e-02
     2477750000    1.936391741e-01    8.084718883e-02
     2478500000    1.862710416e-01    9.807390720e-02
     2479250000    1.777771860e-01    1.144573241e-01
     2480000000    1.677853167e-01    1.298171878e-01
     2480750000    1.557022482e-01    1.454329342e-01
     2481500000    1.425937116e-01    1.581460536e-01
     2482250000    1.280974299e-01    1.706569046e-01
     2483000000    1.130565852e-01    1.815361530e-01
     2483750000    9.659805894e-02    1.914222538e-01
     2484500000    7.983043045e-02    1.989717335e-01
     2485250000    6.251621991e-02    2.057736218e-01
     2486000000    4.422873631e-02    2.107992172e-01
     2486750000    2.501631156e-02    2.147504836e-01
     2487500000    6.574836094e-03    2.157548815e-01
     2488250000   -1.225002855e-02    2.161373198e-01
     2489000000   -3.137744591e-02    2.140838951e-01
     2489750000   -5.004263669e-02    2.108701169e-01
     2490500000   -6.870004535e-02    2.066931725e-01
     2491250000   -8.450819552e-02    1.988316923e-01
     2492000000   -1.039514691e-01    1.915019006e-01
     2492750000   -1.195368543e-01    1.810936928e-01
     2493500000   -1.353351474e-01    1.696559042e-01
     2494250000   -1.489707828e-01    1.571698040e-01
     2495000000   -1.622760743e-01    1.430059969e-01
     2495750000   -1.740618199e-01    1.280319244e-01
     2496500000   -1.866618842e-01    1.118545309e-01
     2497250000   -1.928956062e-01    9.514343739e-02
     2498000000   -2.024376094e-01    7.751719654e-02
     2498750000   -2.094490975e-01    5.751267821e-02
     2499500000   -2.114753574e-01    4.000964388e-02
     2500250000   -2.164869457e-01    1.979919150e-02
     2501000000   -2.167012244e-01    4.295567924e-04
     2501750000   -2.161825448e-01   -1.907413267e-02
     2502500000   -2.136269063e-01   -3.805079684e-02
     2503250000   -2.091740519e-01   -5.715955421e-02
     2504000000   -2.034044117e-01   -7.614181191e-02
     2504750000   -1.963600516e-01   -9.465254098e-02
     2505500000   -1.869881898e-01   -1.123350412e-01
     2506250000   -1.764838696e-01   -1.269745380e-01
     2507000000   -1.635331064e-01   -1.424790621e-01
     2507750000   -1.504833549e-01   -1.598497331e-01
     2508500000   -1.367037594e-01   -1.716526151e-01
     2509250000   -1.209612414e-01   -1.828080565e-01
     2510000000   -1.044102535e-01   -1.928616464e-01
     2510750000   -8.696234226e-02   -2.031339407e-01
     2511500000   -6.944104284e-02   -2.095561773e-01
     2512250000   -4.887678474e-02   -2.181783766e-01
     2513000000   -3.032165207e-02   -2.209053934e-01
     2513750000   -1.151404064e-02   -2.224864811e-01
     2514500000    6.791151594e-03   -2.224336565e-01
     2515250000    2.888891473e-02   -2.222515792e-01
     2516000000    4.715859145e-02   -2.187420875e-01
     2516750000    6.633001566e-02   -2.137604654e-01
     2517500000    8.423615992e-02   -2.071084082e-01
     2518250000    1.018832102e-01   -1.990367323e-01
     2519000000    1.190120876e-01   -1.891811192e-01
     2519750000    1.356086433e-01   -1.782973558e-01
     2520500000    1.511305422e-01   -1.653059423e-01
     2521250000    1.658425033e-01   -1.508576125e-01
     2522000000    1.781539619e-01   -1.357713044e-01
     2522750000    1.876237690e-01   -1.205027550e-01
     2523500000    1.991111040e-01   -1.028413177e-01
     2524250000    2.058375776e-01   -8.531464636e-02
     2525000000    2.145298421e-01   -6.539516151e-02
     2525750000    2.182926387e-01   -4.610859975e-02
     2526500000    2.222190499e-01   -2.628313377e-02
     2527250000    2.241951674e-01   -6.396187935e-03
     2528000000    2.235410661e-01    1.306093205e-02
     2528750000    2.213046253e-01    3.206852451e-02
     2529500000    2.179131210e-01    5.298944190e-02
     2530250000    2.125199735e-01    7.167014480e-02
     2531000000    2.055947483e-01    9.056943655e-02
     2531750000    1.974507123e-01    1.087937430e-01
     2532500000    1.872167587e-01    1.259074211e-01
     2533250000    1.751569360e-01    1.418965161e-01
     2534000000    1.622238159e-01    1.558879167e-01
     2534750000    1.469938457e-01    1.714211553e-01
     2535500000    1.323385984e-01    1.828873307e-01
     2536250000    1.154684350e-01    1.945335865e-01
     2537000000    9.719041735e-02    2.041247934e-01
     2537750000    7.932818681e-02    2.120625526e-01
     2538500000    5.974389985e-02    2.185308039e-01
     2539250000    4.128482938e-02    2.229765505e-01
     2540000000    2.179778367e-02    2.249538302e-01
     2540750000    6.670525763e-04    2.268375605e-01
     2541500000   -1.831636205e-02    2.258608788e-01
     2542250000   -3.831927478e-02    2.239171118e-01
     2543000000   -5.662808567e-02    2.189256996e-01
     2543750000   -7.767171413e-02    2.141383290e-01
     2544500000   -9.512425214e-02    2.062912434e-01
     2545250000   -1.129572093e-01    1.973567307e-01
     2546000000   -1.302259564e-01    1.867780983e-01
     2546750000   -1.452951580e-01    1.742625386e-01
     2547500000   -1.605865657e-01    1.613978595e-01
     2548250000   -1.738537550e-01    1.463824362e-01
     2549000000   -1.867353469e-01    1.300119460e-01
     2549750000   -1.961044073e-01    1.143202260e-01
     2550500000   -2.076922655e-01    9.582357854e-02
     2551250000   -2.139876634e-01    7.780463248e-02
     2552000000   -2.206289768e-01    5.799048394e-02
     2552750000   -2.237223387e-01    4.128629342e-02
     2553500000   -2.273006290e-01    1.956131682e-02
     2554250000   -2.299114466e-01   -2.005981049e-03
     2555000000   -2.285979986e-01   -2.104973048e-02
     2555750000   -2.251319587e-01   -3.777753562e-02
     2556500000   -2.215835452e-01   -5.985212326e-02
     2557250000   -2.159612775e-01   -7.947690785e-02
     2558000000   -2.075286210e-01   -9.564068913e-02
     2558750000   -1.982941031e-01   -1.148362160e-01
     2559500000   -1.869627982e-01   -1.305838078e-01
     2560250000   -1.753732115e-01   -1.457763016e-01
     2561000000   -1.627664119e-01   -1.592083871e-01
     2561750000   -1.473628581e-01   -1.738390476e-01
     2562500000   -1.326569915e-01   -1.845046580e-01
     2563250000   -1.146504804e-01   -1.991911232e-01
     2564000000   -9.790273756e-02   -2.067530602e-01
     2564750000   -7.965066284e-02   -2.133702934e-01
     2565500000   -6.035455316e-02   -2.198028117e-01
     2566250000   -4.252278432e-02   -2.234371454e-01
     2567000000   -2.091649175e-02   -2.279209793e-01
     2567750000   -4.765692167e-03   -2.252934575e-01
     2568500000    1.685659029e-02   -2.266568989e-01
     2569250000    3.625014424e-02   -2.229842693e-01
     2570000000    5.460631102e-02   -2.183174938e-01
     2570750000    7.502356917e-02   -2.122814804e-01
     2571500000    9.548368305e-02   -2.041004598e-01
     2572250000    1.091969088e-01   -1.947676688e-01
     2573000000    1.259756982e-01   -1.837928891e-01
     2573750000    1.421951205e-01   -1.727928966e-01
     2574500000    1.582226902e-01   -1.579747349e-01
     2575250000    1.695004106e-01   -1.452794522e-01
     2576000000    1.819348633e-01   -1.286619008e-01
     2576750000    1.938007325e-01   -1.120523959e-01
     2577500000    2.019094080e-01   -9.461798519e-02
     2578250000    2.100216150e-01   -7.720686495e-02
     2579000000    2.168496549e-01   -5.883583426e-02
     2579750000    2.212920040e-01   -3.940650448e-02
     2580500000    2.235207111e-01   -1.979087852e-02
     2581250000    2.252421528e-01   -1.165628550e-03
     2582000000    2.239969224e-01    1.820711046e-02
     2582750000    2.223607153e-01    3.768380731e-02
     2583500000    2.188826501e-01    5.810066685e-02
     2584250000    2.124924511e-01    7.473821193e-02
     2585000000    2.056520283e-01    9.364480525e-02
     2585750000    1.979264617e-01    1.096028462e-01
     2586500000    1.870117784e-01    1.267167032e-01
     2587250000    1.767347604e-01    1.430576742e-01
     2588000000    1.633577794e-01    1.558159441e-01
     2588750000    1.487137973e-01    1.725259870e-01
     2589500000    1.351795048e-01    1.823731065e-01
     2590250000    1.200813055e-01    1.915884614e-01
     2591000000    1.022637784e-01    2.019847929e-01
     2591750000    8.571894467e-02    2.083347589e-01
     2592500000    6.605659425e-02    2.162692398e-01
     2593250000    4.946185276e-02    2.207904309e-01
     2594000000    3.034384176e-02    2.232890427e-01
     2594750000    1.290447731e-02    2.248803228e-01
     2595500000   -8.032034151e-03    2.251474708e-01
     2596250000   -2.502393164e-02    2.225745916e-01
     2597000000   -4.164126143e-02    2.186757326e-01
     2597750000   -6.417798251e-02    2.142337114e-01
     2598500000   -7.842444628e-02    2.081523836e-01
     2599250000   -9.479876608e-02    2.001777887e-01
     2600000000   -1.117750257e-01    1.894899309e-01
