! NanoVNA-App
! Date: 2026-05-22 22:11:51
! Start: 1GHz Stop: 1.2GHz Points: 401
! S-Parameter data: F S11
# Hz S RI R 50
!     Frequency           S11_Real           S11_Imag
     1000000000   -8.793150075e-03   -5.560994744e-01
     1000500000    1.207764167e-02   -5.555815697e-01
     1001000000    3.269695863e-02   -5.547429919e-01
     1001500000    5.287323892e-02   -5.534722805e-01
     1002000000    7.391498238e-02   -5.511470437e-01
     1002500000    9.282258153e-02   -5.482603908e-01
     1003000000    1.132064164e-01   -5.440045595e-01
     1003500000    1.320955008e-01   -5.407798886e-01
     1004000000    1.531824023e-01   -5.350071192e-01
     1004500000    1.724625081e-01   -5.291429162e-01
     1005000000    1.916390210e-01   -5.222132206e-01
     1005500000    2.123681456e-01   -5.062748194e-01
     1006000000    2.289950252e-01   -4.995767176e-01
     1006500000    2.486286312e-01   -4.900324345e-01
     1007000000    2.662855983e-01   -4.802666306e-01
     1007500000    2.836032808e-01   -4.707889259e-01
     1008000000    3.016050458e-01   -4.598003626e-01
     1008500000    3.177855313e-01   -4.489732385e-01
     1009000000    3.340359330e-01   -4.373986125e-01
     1009500000    3.512240648e-01   -4.246097505e-01
     1010000000    3.665957451e-01   -4.117055535e-01
     1010500000    3.817313910e-01   -3.975341916e-01
     1011000000    3.971849084e-01   -3.828330636e-01
     1011500000    4.110511839e-01   -3.683658838e-01
     1012000000    4.248801470e-01   -3.530960083e-01
     1012500000    4.385338724e-01   -3.368075192e-01
     1013000000    4.507480264e-01   -3.204403520e-01
     1013500000    4.635011554e-01   -3.039398789e-01
     1014000000    4.749075472e-01   -2.870773971e-01
     1014500000    4.858734906e-01   -2.682362795e-01
     1015000000    4.964078963e-01   -2.499643713e-01
     1015500000    5.061564445e-01   -2.316295952e-01
     1016000000    5.153390169e-01   -2.121690810e-01
     1016500000    5.235993266e-01   -1.921406388e-01
     1017000000    5.308620930e-01   -1.730087847e-01
     1017500000    5.382503271e-01   -1.524925381e-01
     1018000000    5.441567302e-01   -1.323750764e-01
     1018500000    5.497673750e-01   -1.124644727e-01
     1019000000    5.544833541e-01   -9.041537344e-02
     1019500000    5.584168434e-01   -7.038658857e-02
     1020000000    5.617433786e-01   -4.896910116e-02
     1020500000    5.641925931e-01   -2.666799910e-02
     1021000000    5.653614998e-01   -4.668893293e-03
     1021500000    5.655637980e-01    1.644923352e-02
     1022000000    5.655951500e-01    3.697944060e-02
     1022500000    5.648655295e-01    6.053385884e-02
     1023000000    5.626366735e-01    8.066815883e-02
     1023500000    5.601837039e-01    1.031528413e-01
     1024000000    5.563599467e-01    1.255344003e-01
     1024500000    5.517470837e-01    1.460993141e-01
     1025000000    5.461822152e-01    1.676315665e-01
     1025500000    5.403422713e-01    1.900927275e-01
     1026000000    5.328931808e-01    2.107430995e-01
     1026500000    5.263440609e-01    2.303846776e-01
     1027000000    5.171544552e-01    2.527233958e-01
     1027500000    5.070875883e-01    2.726366222e-01
     1028000000    4.977690578e-01    2.922138870e-01
     1028500000    4.858210981e-01    3.125665188e-01
     1029000000    4.743155539e-01    3.302113116e-01
     1029500000    4.606658220e-01    3.496878743e-01
     1030000000    4.476903975e-01    3.682947755e-01
     1030500000    4.331118166e-01    3.866058886e-01
     1031000000    4.188716412e-01    4.025481939e-01
     1031500000    4.025647044e-01    4.204582572e-01
     1032000000    3.858897090e-01    4.354895949e-01
     1032500000    3.693911433e-01    4.510655105e-01
     1033000000    3.502980471e-01    4.669426084e-01
     1033500000    3.327111602e-01    4.800368249e-01
     1034000000    3.134817481e-01    4.940673411e-01
     1034500000    2.952572703e-01    5.058491826e-01
     1035000000    2.741160691e-01    5.184258819e-01
     1035500000    2.522757351e-01    5.306324959e-01
     1036000000    2.329837978e-01    5.399387479e-01
     1036500000    2.110460997e-01    5.492243767e-01
     1037000000    1.892108917e-01    5.575190187e-01
     1037500000    1.669244319e-01    5.656486750e-01
     1038000000    1.442832500e-01    5.724133849e-01
     1038500000    1.202309504e-01    5.789389610e-01
     1039000000    9.761378914e-02    5.837151408e-01
     1039500000    7.443486154e-02    5.879170895e-01
     1040000000    5.039148033e-02    5.910824537e-01
     1040500000    2.742247283e-02    5.934103131e-01
     1041000000    4.005442373e-03    5.940830708e-01
     1041500000   -1.974002644e-02    5.941264033e-01
     1042000000   -4.361541569e-02    5.935196280e-01
     1042500000   -6.822161376e-02    5.920428038e-01
     1043000000   -9.162234515e-02    5.895150304e-01
     1043500000   -1.157946810e-01    5.855305195e-01
     1044000000   -1.389408559e-01    5.807535052e-01
     1044500000   -1.622167826e-01    5.747975707e-01
     1045000000   -1.848585010e-01    5.683844686e-01
     1045500000   -2.090921551e-01    5.603957176e-01
     1046000000   -2.301128507e-01    5.519539714e-01
     1046500000   -2.528968453e-01    5.420088172e-01
     1047000000   -2.744281292e-01    5.315388441e-01
     1047500000   -2.953539193e-01    5.202486515e-01
     1048000000   -3.185012639e-01    5.070512891e-01
     1048500000   -3.389900625e-01    4.936040938e-01
     1049000000   -3.586246371e-01    4.798057675e-01
     1049500000   -3.774510026e-01    4.648638368e-01
     1050000000   -3.946262598e-01    4.499833286e-01
     1050500000   -4.153686464e-01    4.317181408e-01
     1051000000   -4.321450591e-01    4.150079191e-01
     1051500000   -4.487279356e-01    3.974208236e-01
     1052000000   -4.641956091e-01    3.789480627e-01
     1052500000   -4.796332717e-01    3.593838513e-01
     1053000000   -4.946525693e-01    3.387586474e-01
     1053500000   -5.068004727e-01    3.196942210e-01
     1054000000   -5.206117034e-01    2.968860567e-01
     1054500000   -5.317426324e-01    2.762182057e-01
     1055000000   -5.435481668e-01    2.525962889e-01
     1055500000   -5.537527204e-01    2.309585214e-01
     1056000000   -5.628396869e-01    2.072649747e-01
     1056500000   -5.706245899e-01    1.844713837e-01
     1057000000   -5.779421329e-01    1.605101824e-01
     1057500000   -5.844348073e-01    1.364360452e-01
     1058000000   -5.896188021e-01    1.125244722e-01
     1058500000   -5.936773419e-01    8.808321506e-02
     1059000000   -5.968295336e-01    6.363996118e-02
     1059500000   -5.986135602e-01    3.900829703e-02
     1060000000   -5.994724035e-01    1.401390787e-02
     1060500000   -5.998409986e-01   -1.117736753e-02
     1061000000   -5.984726548e-01   -3.574119508e-02
     1061500000   -5.962681174e-01   -5.984258279e-02
     1062000000   -5.931070447e-01   -8.561673015e-02
     1062500000   -5.890832543e-01   -1.083494350e-01
     1063000000   -5.837399364e-01   -1.329444647e-01
     1063500000   -5.772503614e-01   -1.579334438e-01
     1064000000   -5.698275566e-01   -1.824367642e-01
     1064500000   -5.621159673e-01   -2.045176923e-01
     1065000000   -5.526679158e-01   -2.276328057e-01
     1065500000   -5.427658558e-01   -2.502365112e-01
     1066000000   -5.312715769e-01   -2.720846832e-01
     1066500000   -5.190048814e-01   -2.949377894e-01
     1067000000   -5.060206652e-01   -3.159736693e-01
     1067500000   -4.927087128e-01   -3.361231387e-01
     1068000000   -4.780446887e-01   -3.554521203e-01
     1068500000   -4.626317918e-01   -3.744277060e-01
     1069000000   -4.454447925e-01   -3.946937025e-01
     1069500000   -4.298726022e-01   -4.110123813e-01
     1070000000   -4.121217132e-01   -4.287106097e-01
     1070500000   -3.926179707e-01   -4.466194808e-01
     1071000000   -3.746207058e-01   -4.611829817e-01
     1071500000   -3.547587097e-01   -4.754434824e-01
     1072000000   -3.344168067e-01   -4.899935424e-01
     1072500000   -3.145662248e-01   -5.030031800e-01
     1073000000   -2.925300598e-01   -5.162294507e-01
     1073500000   -2.710984945e-01   -5.268954039e-01
     1074000000   -2.489663064e-01   -5.365389585e-01
     1074500000   -2.269799113e-01   -5.462470651e-01
     1075000000   -2.043397874e-01   -5.544590950e-01
     1075500000   -1.804947108e-01   -5.627043843e-01
     1076000000   -1.587433815e-01   -5.685124993e-01
     1076500000   -1.337265670e-01   -5.747611523e-01
     1077000000   -1.104047820e-01   -5.793873072e-01
     1077500000   -8.639968187e-02   -5.826221704e-01
     1078000000   -6.306565553e-02   -5.850270987e-01
     1078500000   -3.898616508e-02   -5.868768692e-01
     1079000000   -1.487230416e-02   -5.877984762e-01
     1079500000    8.424370550e-03   -5.871712565e-01
     1080000000    3.175558522e-02   -5.857372880e-01
     1080500000    5.769379809e-02   -5.834667087e-01
     1081000000    7.889675349e-02   -5.807989836e-01
     1081500000    1.021534279e-01   -5.760598183e-01
     1082000000    1.275103837e-01   -5.707741380e-01
     1082500000    1.484378129e-01   -5.646405816e-01
     1083000000    1.722800285e-01   -5.572662950e-01
     1083500000    1.922402084e-01   -5.505833030e-01
     1084000000    2.155873477e-01   -5.403633118e-01
     1084500000    2.358120680e-01   -5.311543345e-01
     1085000000    2.554429173e-01   -5.213925838e-01
     1085500000    2.775453925e-01   -5.099320412e-01
     1086000000    2.978700697e-01   -4.970959425e-01
     1086500000    3.157140911e-01   -4.844430089e-01
     1087000000    3.354248405e-01   -4.704090655e-01
     1087500000    3.526988924e-01   -4.567563534e-01
     1088000000    3.708306551e-01   -4.407948256e-01
     1088500000    3.861435354e-01   -4.267753959e-01
     1089000000    4.032065570e-01   -4.098796546e-01
     1089500000    4.188857377e-01   -3.932716846e-01
     1090000000    4.328806102e-01   -3.753505349e-01
     1090500000    4.465634525e-01   -3.580074906e-01
     1091000000    4.598776996e-01   -3.390618265e-01
     1091500000    4.724474847e-01   -3.199258447e-01
     1092000000    4.830892086e-01   -3.013740182e-01
     1092500000    4.939922988e-01   -2.817817628e-01
     1093000000    5.040933490e-01   -2.618981302e-01
     1093500000    5.126441121e-01   -2.419193238e-01
     1094000000    5.208153129e-01   -2.210400403e-01
     1094500000    5.281940699e-01   -1.999446154e-01
     1095000000    5.350800157e-01   -1.780379117e-01
     1095500000    5.403963327e-01   -1.584663689e-01
     1096000000    5.453974009e-01   -1.360749155e-01
     1096500000    5.493788123e-01   -1.154152751e-01
     1097000000    5.521937013e-01   -9.476868808e-02
     1097500000    5.549288988e-01   -7.261844724e-02
     1098000000    5.559590459e-01   -5.178480595e-02
     1098500000    5.563536882e-01   -3.063048981e-02
     1099000000    5.566716790e-01   -8.213103749e-03
     1099500000    5.555707216e-01    1.166277565e-02
     1100000000    5.538620949e-01    3.354557976e-02
     1100500000    5.515596867e-01    5.439081788e-02
     1101000000    5.476019979e-01    7.516086102e-02
     1101500000    5.434064269e-01    9.714360535e-02
     1102000000    5.394100547e-01    1.161261573e-01
     1102500000    5.329155326e-01    1.369648576e-01
     1103000000    5.259472132e-01    1.578148007e-01
     1103500000    5.197257996e-01    1.765294820e-01
     1104000000    5.125093460e-01    1.953266114e-01
     1104500000    5.039241910e-01    2.144734859e-01
     1105000000    4.942302108e-01    2.331279814e-01
     1105500000    4.851424694e-01    2.508924901e-01
     1106000000    4.744814038e-01    2.689240277e-01
     1106500000    4.633671939e-01    2.860746682e-01
     1107000000    4.519398808e-01    3.030551672e-01
     1107500000    4.399855733e-01    3.197689056e-01
     1108000000    4.280607998e-01    3.345869184e-01
     1108500000    4.144164622e-01    3.498196900e-01
     1109000000    4.010179639e-01    3.646591008e-01
     1109500000    3.866672218e-01    3.788498938e-01
     1110000000    3.724137545e-01    3.924546242e-01
     1110500000    3.584103286e-01    4.050176442e-01
     1111000000    3.417839408e-01    4.179616868e-01
     1111500000    3.264705241e-01    4.297873080e-01
     1112000000    3.089011312e-01    4.414539337e-01
     1112500000    2.929103673e-01    4.515851140e-01
     1113000000    2.774121165e-01    4.608384371e-01
     1113500000    2.597625554e-01    4.708335996e-01
     1114000000    2.419935316e-01    4.794749320e-01
     1114500000    2.262879759e-01    4.863468409e-01
     1115000000    2.067742199e-01    4.942337871e-01
     1115500000    1.883983016e-01    5.010753274e-01
     1116000000    1.706544906e-01    5.070709586e-01
     1116500000    1.520101428e-01    5.118250251e-01
     1117000000    1.336276084e-01    5.166011453e-01
     1117500000    1.151309535e-01    5.207783580e-01
     1118000000    9.610539675e-02    5.238540769e-01
     1118500000    7.733153552e-02    5.260487795e-01
     1119000000    5.868076906e-02    5.283772349e-01
     1119500000    3.908921406e-02    5.298612714e-01
     1120000000    2.101483941e-02    5.300298929e-01
     1120500000    1.017442439e-03    5.304771066e-01
     1121000000   -1.780401915e-02    5.296948552e-01
     1121500000   -3.662962839e-02    5.289565325e-01
     1122000000   -5.551123247e-02    5.265091062e-01
     1122500000   -7.434108108e-02    5.235060453e-01
     1123000000   -9.263383597e-02    5.209951997e-01
     1123500000   -1.126866564e-01    5.170177221e-01
     1124000000   -1.296416223e-01    5.131920576e-01
     1124500000   -1.478146166e-01    5.079753995e-01
     1125000000   -1.648686230e-01    5.026218891e-01
     1125500000   -1.833684295e-01    4.961115420e-01
     1126000000   -1.998797059e-01    4.892114699e-01
     1126500000   -2.182680219e-01    4.814727604e-01
     1127000000   -2.335829735e-01    4.740248919e-01
     1127500000   -2.513410747e-01    4.646820426e-01
     1128000000   -2.656925619e-01    4.562909901e-01
     1128500000   -2.835956514e-01    4.459532797e-01
     1129000000   -2.983038425e-01    4.359369576e-01
     1129500000   -3.128114343e-01    4.254173636e-01
     1130000000   -3.288755715e-01    4.129049182e-01
     1130500000   -3.433420956e-01    4.013411701e-01
     1131000000   -3.567532599e-01    3.890624046e-01
     1131500000   -3.699952662e-01    3.770883679e-01
     1132000000   -3.835461736e-01    3.630681932e-01
     1132500000   -3.966335952e-01    3.489693999e-01
     1133000000   -4.092466533e-01    3.352030814e-01
     1133500000   -4.205088615e-01    3.203563392e-01
     1134000000   -4.326562285e-01    3.051151037e-01
     1134500000   -4.435099363e-01    2.884458303e-01
     1135000000   -4.529052973e-01    2.737555504e-01
     1135500000   -4.631349146e-01    2.570498586e-01
     1136000000   -4.724729955e-01    2.399557680e-01
     1136500000   -4.811352789e-01    2.233550996e-01
     1137000000   -4.893040359e-01    2.062065750e-01
     1137500000   -4.960228801e-01    1.895198673e-01
     1138000000   -5.036582351e-01    1.701864004e-01
     1138500000   -5.096173882e-01    1.534706056e-01
     1139000000   -5.152983069e-01    1.347178817e-01
     1139500000   -5.211788416e-01    1.147105694e-01
     1140000000   -5.246434808e-01    9.888332337e-02
     1140500000   -5.290728807e-01    7.712582499e-02
     1141000000   -5.312561393e-01    6.135165319e-02
     1141500000   -5.336970687e-01    4.034215584e-02
     1142000000   -5.355905294e-01    1.939771697e-02
     1142500000   -5.362955332e-01    2.984265098e-03
     1143000000   -5.362621546e-01   -1.740158722e-02
     1143500000   -5.360521078e-01   -3.717677295e-02
     1144000000   -5.345759988e-01   -5.598587543e-02
     1144500000   -5.327538848e-01   -7.558272034e-02
     1145000000   -5.302663445e-01   -9.449540079e-02
     1145500000   -5.267003775e-01   -1.136693209e-01
     1146000000   -5.227310658e-01   -1.330679357e-01
     1146500000   -5.177159905e-01   -1.539805233e-01
     1147000000   -5.126882792e-01   -1.714455038e-01
     1147500000   -5.061525702e-01   -1.916423291e-01
     1148000000   -4.996515512e-01   -2.087735981e-01
     1148500000   -4.919906259e-01   -2.270704657e-01
     1149000000   -4.831268489e-01   -2.476531416e-01
     1149500000   -4.745430946e-01   -2.633863986e-01
     1150000000   -4.652608633e-01   -2.800981998e-01
     1150500000   -4.542112350e-01   -2.991643250e-01
     1151000000   -4.433004260e-01   -3.160578907e-01
     1151500000   -4.314693809e-01   -3.330013454e-01
     1152000000   -4.182828367e-01   -3.496527076e-01
     1152500000   -4.069857895e-01   -3.630198240e-01
     1153000000   -3.924537301e-01   -3.801209331e-01
     1153500000   -3.784288168e-01   -3.943891525e-01
     1154000000   -3.632575572e-01   -4.090263247e-01
     1154500000   -3.490709364e-01   -4.212114215e-01
     1155000000   -3.320858777e-01   -4.352978468e-01
     1155500000   -3.157502115e-01   -4.479775727e-01
     1156000000   -2.990213931e-01   -4.598167837e-01
     1156500000   -2.810491621e-01   -4.709998667e-01
     1157000000   -2.632410526e-01   -4.814797938e-01
     1157500000   -2.445573807e-01   -4.911560416e-01
     1158000000   -2.247351706e-01   -5.008916855e-01
     1158500000   -2.069804519e-01   -5.085012913e-01
     1159000000   -1.871842891e-01   -5.164844990e-01
     1159500000   -1.662398428e-01   -5.235782266e-01
     1160000000   -1.471926272e-01   -5.289310217e-01
     1160500000   -1.239678040e-01   -5.355123878e-01
     1161000000   -1.057833806e-01   -5.392377973e-01
     1161500000   -8.349418640e-02   -5.432070494e-01
     1162000000   -6.219922006e-02   -5.463343859e-01
     1162500000   -4.132967070e-02   -5.482652783e-01
     1163000000   -1.804603823e-02   -5.500105023e-01
     1163500000    1.911525498e-03   -5.494291186e-01
     1164000000    2.503962442e-02   -5.493268371e-01
     1164500000    4.483012855e-02   -5.481314659e-01
     1165000000    6.649968028e-02   -5.458217859e-01
     1165500000    8.838868886e-02   -5.427478552e-01
     1166000000    1.094008014e-01   -5.385588408e-01
     1166500000    1.325392872e-01   -5.336784124e-01
     1167000000    1.526888907e-01   -5.283188224e-01
     1167500000    1.732564718e-01   -5.217597485e-01
     1168000000    1.942192018e-01   -5.143301487e-01
     1168500000    2.146320045e-01   -5.059754848e-01
     1169000000    2.347726375e-01   -4.967330992e-01
     1169500000    2.547723651e-01   -4.869138300e-01
     1170000000    2.741285861e-01   -4.763225615e-01
     1170500000    2.918748260e-01   -4.648338556e-01
     1171000000    3.118378222e-01   -4.522477090e-01
     1171500000    3.291719556e-01   -4.398270547e-01
     1172000000    3.473983407e-01   -4.253998995e-01
     1172500000    3.635261059e-01   -4.112844467e-01
     1173000000    3.797633350e-01   -3.963156641e-01
     1173500000    3.971373141e-01   -3.790137172e-01
     1174000000    4.108276665e-01   -3.641770482e-01
     1174500000    4.252025783e-01   -3.471455276e-01
     1175000000    4.399195015e-01   -3.286955059e-01
     1175500000    4.527784884e-01   -3.099645078e-01
     1176000000    4.645218551e-01   -2.920099497e-01
     1176500000    4.766119719e-01   -2.720526159e-01
     1177000000    4.870730937e-01   -2.521682680e-01
     1177500000    4.969071150e-01   -2.330237180e-01
     1178000000    5.051742792e-01   -2.121167332e-01
     1178500000    5.139712095e-01   -1.908863932e-01
     1179000000    5.209517479e-01   -1.707425863e-01
     1179500000    5.273518562e-01   -1.488419175e-01
     1180000000    5.323680043e-01   -1.272676885e-01
     1180500000    5.381307006e-01   -1.022793874e-01
     1181000000    5.405624509e-01   -8.343105763e-02
     1181500000    5.438728929e-01   -5.932487547e-02
     1182000000    5.448471904e-01   -3.871123865e-02
     1182500000    5.461128354e-01   -1.560041308e-02
     1183000000    5.457043052e-01    6.795109250e-03
     1183500000    5.443499088e-01    2.986305952e-02
     1184000000    5.417556167e-01    5.140042678e-02
     1184500000    5.389541388e-01    7.435296476e-02
     1185000000    5.348433256e-01    9.617005289e-02
     1185500000    5.299702287e-01    1.183649674e-01
     1186000000    5.245085359e-01    1.400533170e-01
     1186500000    5.180924535e-01    1.601463854e-01
     1187000000    5.095660090e-01    1.829931885e-01
     1187500000    5.015034676e-01    2.024170011e-01
     1188000000    4.917178452e-01    2.239551991e-01
     1188500000    4.814233482e-01    2.439330965e-01
     1189000000    4.715070724e-01    2.605518997e-01
     1189500000    4.587643147e-01    2.818481624e-01
     1190000000    4.472743273e-01    2.984415889e-01
     1190500000    4.335463047e-01    3.172327876e-01
     1191000000    4.202250838e-01    3.335127831e-01
     1191500000    4.035463929e-01    3.523769081e-01
     1192000000    3.895043135e-01    3.668469191e-01
     1192500000    3.725660443e-01    3.831269145e-01
     1193000000    3.561595976e-01    3.971811831e-01
     1193500000    3.399090469e-01    4.102263451e-01
     1194000000    3.204380870e-01    4.246537983e-01
     1194500000    3.033643365e-01    4.359273612e-01
     1195000000    2.856024504e-01    4.468084872e-01
     1195500000    2.652280331e-01    4.589962959e-01
     1196000000    2.461149246e-01    4.683394134e-01
     1196500000    2.274926603e-01    4.770786166e-01
     1197000000    2.064639330e-01    4.856487215e-01
     1197500000    1.862219274e-01    4.930009544e-01
     1198000000    1.658755541e-01    4.993386567e-01
     1198500000    1.437523812e-01    5.053856373e-01
     1199000000    1.242353544e-01    5.095271468e-01
     1199500000    1.022780910e-01    5.137846470e-01
     1200000000    8.038158715e-02    5.167051554e-01
