! NanoVNA-App
! Date: 2026-05-22 22:13:32
! Start: 1GHz Stop: 1.2GHz Points: 401
! S-Parameter data: F S11
# Hz S RI R 50
!     Frequency           S11_Real           S11_Imag
     1000000000    1.412956864e-01   -3.754105568e-01
     1000500000    1.540273130e-01   -3.743572235e-01
     1001000000    1.677264422e-01   -3.726609349e-01
     1001500000    1.804228425e-01   -3.710656166e-01
     1002000000    1.945838034e-01   -3.679123521e-01
     1002500000    2.065401822e-01   -3.654851019e-01
     1003000000    2.204753906e-01   -3.609373569e-01
     1003500000    2.336602360e-01   -3.570885062e-01
     1004000000    2.460183203e-01   -3.530063629e-01
     1004500000    2.584664524e-01   -3.481503427e-01
     1005000000    2.717694938e-01   -3.417480290e-01
              0   -7.349932194e-02    5.372558907e-02
              0   -7.362324744e-02    5.366704240e-02
              0   -7.365003228e-02    5.353530496e-02
              0   -7.379066944e-02    5.338428169e-02
     1007500000    3.319844306e-01   -3.052750230e-01
     1008000000    3.427183926e-01   -2.976301312e-01
     1008500000    3.542864025e-01   -2.883358300e-01
     1009000000    3.647196889e-01   -2.785661519e-01
     1009500000    3.758215606e-01   -2.682915926e-01
     1010000000    3.856533468e-01   -2.587686777e-01
     1010500000    3.956359923e-01   -2.469772547e-01
     1011000000    4.063202441e-01   -2.341852635e-01
     1011500000    4.156658649e-01   -2.229700089e-01
     1012000000    4.243053794e-01   -2.109198272e-01
     1012500000    4.335781932e-01   -1.976447850e-01
     1013000000    4.412041605e-01   -1.838270277e-01
     1013500000    4.495147765e-01   -1.708723158e-01
     1014000000    4.569556713e-01   -1.560962349e-01
     1014500000    4.643358588e-01   -1.415898651e-01
     1015000000    4.704963863e-01   -1.269561499e-01
     1015500000    4.769705236e-01   -1.121210456e-01
     1016000000    4.827776253e-01   -9.666549414e-02
     1016500000    4.877253473e-01   -8.101113886e-02
     1017000000    4.925465584e-01   -6.568536907e-02
     1017500000    4.971095324e-01   -4.929843545e-02
     1018000000    5.001589060e-01   -3.190216050e-02
     1018500000    5.032538176e-01   -1.613903232e-02
     1019000000    5.059856176e-01    1.912108157e-03
     1019500000    5.076816678e-01    1.742467657e-02
     1020000000    5.088286996e-01    3.634648025e-02
     1020500000    5.096276999e-01    5.200788379e-02
     1021000000    5.093142390e-01    6.974359602e-02
     1021500000    5.081499219e-01    8.785135299e-02
     1022000000    5.072466731e-01    1.045626402e-01
     1022500000    5.055285096e-01    1.223226041e-01
     1023000000    5.028225780e-01    1.407011598e-01
     1023500000    4.987388849e-01    1.585184783e-01
     1024000000    4.949110448e-01    1.746727526e-01
     1024500000    4.900262654e-01    1.940898895e-01
     1025000000    4.848614335e-01    2.106412649e-01
     1025500000    4.783836305e-01    2.284185290e-01
     1026000000    4.717280865e-01    2.454367429e-01
     1026500000    4.646605849e-01    2.623109519e-01
     1027000000    4.567233324e-01    2.796632349e-01
     1027500000    4.474783242e-01    2.961558700e-01
     1028000000    4.384567738e-01    3.126306534e-01
     1028500000    4.284020662e-01    3.293303549e-01
     1029000000    4.177610576e-01    3.445562720e-01
     1029500000    4.064168334e-01    3.605600297e-01
     1030000000    3.945890069e-01    3.761347532e-01
     1030500000    3.818228841e-01    3.909599185e-01
     1031000000    3.678624034e-01    4.052483737e-01
     1031500000    3.554320633e-01    4.180370271e-01
     1032000000    3.400956094e-01    4.321801066e-01
     1032500000    3.247603178e-01    4.454672635e-01
     1033000000    3.100158870e-01    4.570257664e-01
     1033500000    2.947964370e-01    4.680969119e-01
     1034000000    2.767180502e-01    4.805351794e-01
     1034500000    2.610304058e-01    4.899117053e-01
     1035000000    2.425742298e-01    5.002537966e-01
     1035500000    2.233707607e-01    5.105236769e-01
     1036000000    2.052396089e-01    5.194723606e-01
     1036500000    1.870074570e-01    5.265359282e-01
     1037000000    1.659536213e-01    5.349206328e-01
     1037500000    1.481650323e-01    5.407720208e-01
     1038000000    1.282079816e-01    5.470541120e-01
     1038500000    1.074806079e-01    5.518723726e-01
     1039000000    8.734356612e-02    5.557174683e-01
     1039500000    6.624990702e-02    5.600921512e-01
     1040000000    4.522415996e-02    5.628102422e-01
     1040500000    2.432956174e-02    5.650712252e-01
     1041000000    3.008238040e-03    5.662451386e-01
     1041500000   -1.849149354e-02    5.669518709e-01
     1042000000   -4.027486593e-02    5.665260553e-01
     1042500000   -6.149818003e-02    5.654818416e-01
     1043000000   -8.230841905e-02    5.637005568e-01
     1043500000   -1.038679332e-01    5.605418682e-01
     1044000000   -1.252362877e-01    5.569007397e-01
     1044500000   -1.458607316e-01    5.521677732e-01
     1045000000   -1.670102179e-01    5.471158028e-01
     1045500000   -1.882760823e-01    5.407060385e-01
     1046000000   -2.082438022e-01    5.337337852e-01
     1046500000   -2.284826934e-01    5.259627104e-01
     1047000000   -2.479290366e-01    5.176531672e-01
     1047500000   -2.693047822e-01    5.078174472e-01
     1048000000   -2.877355814e-01    4.978579283e-01
     1048500000   -3.074832261e-01    4.862881601e-01
     1049000000   -3.252402246e-01    4.751132429e-01
     1049500000   -3.428602815e-01    4.628656805e-01
     1050000000   -3.612199128e-01    4.494352937e-01
     1050500000   -3.763310611e-01    4.363969862e-01
     1051000000   -3.938890398e-01    4.217423499e-01
     1051500000   -4.090858996e-01    4.070914686e-01
     1052000000   -4.258949459e-01    3.901270628e-01
     1052500000   -4.393797517e-01    3.744714260e-01
     1053000000   -4.528135359e-01    3.576287925e-01
     1053500000   -4.669166505e-01    3.396227360e-01
     1054000000   -4.784143567e-01    3.222453594e-01
     1054500000   -4.904358685e-01    3.033522964e-01
     1055000000   -5.017448664e-01    2.837988138e-01
     1055500000   -5.117962956e-01    2.653591037e-01
     1056000000   -5.220966935e-01    2.444380820e-01
     1056500000   -5.299578309e-01    2.249814272e-01
     1057000000   -5.375540853e-01    2.047331780e-01
     1057500000   -5.445064902e-01    1.835875958e-01
     1058000000   -5.512351394e-01    1.619589776e-01
     1058500000   -5.557191372e-01    1.418742537e-01
     1059000000   -5.602219701e-01    1.200047359e-01
     1059500000   -5.637588501e-01    9.829460829e-02
     1060000000   -5.663024783e-01    7.723043859e-02
     1060500000   -5.680573583e-01    5.519744381e-02
     1061000000   -5.688409805e-01    3.429394960e-02
     1061500000   -5.694175363e-01    1.036363095e-02
     1062000000   -5.682942867e-01   -1.006781217e-02
     1062500000   -5.666320324e-01   -3.301362321e-02
     1063000000   -5.638980865e-01   -5.355675519e-02
     1063500000   -5.605918169e-01   -7.545606047e-02
     1064000000   -5.566779375e-01   -9.760744125e-02
     1064500000   -5.514975190e-01   -1.164637730e-01
     1065000000   -5.452615619e-01   -1.400957108e-01
     1065500000   -5.388287902e-01   -1.588195860e-01
     1066000000   -5.314247608e-01   -1.782599688e-01
     1066500000   -5.230772495e-01   -1.986851990e-01
     1067000000   -5.139269233e-01   -2.172075212e-01
     1067500000   -5.043547750e-01   -2.365476638e-01
     1068000000   -4.936999381e-01   -2.533487082e-01
     1068500000   -4.820949733e-01   -2.733491957e-01
     1069000000   -4.696944952e-01   -2.919533849e-01
     1069500000   -4.581646919e-01   -3.062274754e-01
     1070000000   -4.441744387e-01   -3.236620128e-01
     1070500000   -4.293438792e-01   -3.404758871e-01
     1071000000   -4.158334136e-01   -3.543770611e-01
     1071500000   -4.008879960e-01   -3.692253530e-01
     1072000000   -3.852321804e-01   -3.829542696e-01
     1072500000   -3.697015345e-01   -3.964871168e-01
     1073000000   -3.525757790e-01   -4.093185067e-01
     1073500000   -3.363304734e-01   -4.202089310e-01
     1074000000   -3.186347187e-01   -4.321817756e-01
     1074500000   -3.013264835e-01   -4.423968494e-01
     1075000000   -2.830197811e-01   -4.522870779e-01
     1075500000   -2.652975321e-01   -4.608802199e-01
     1076000000   -2.466318160e-01   -4.696027339e-01
     1076500000   -2.280764133e-01   -4.765828550e-01
     1077000000   -2.092276812e-01   -4.834993482e-01
     1077500000   -1.903094649e-01   -4.894564450e-01
     1078000000   -1.708229333e-01   -4.938394427e-01
     1078500000   -1.514318287e-01   -4.985102415e-01
     1079000000   -1.322694123e-01   -5.013972521e-01
     1079500000   -1.129032224e-01   -5.043090582e-01
     1080000000   -9.282965213e-02   -5.063257813e-01
     1080500000   -7.290706784e-02   -5.071981549e-01
     1081000000   -5.556973815e-02   -5.077858567e-01
     1081500000   -3.693324700e-02   -5.071992874e-01
     1082000000   -1.757235453e-02   -5.062415004e-01
     1082500000    1.064872020e-03   -5.037603974e-01
     1083000000    1.912700757e-02   -5.019496083e-01
     1083500000    3.740468994e-02   -4.982959330e-01
     1084000000    5.555329844e-02   -4.943338633e-01
     1084500000    7.421871275e-02   -4.893768728e-01
     1085000000    9.027983993e-02   -4.845843017e-01
     1085500000    1.101568267e-01   -4.781019390e-01
     1086000000    1.243430674e-01   -4.717251360e-01
     1086500000    1.418878585e-01   -4.639980495e-01
     1087000000    1.576382816e-01   -4.567975700e-01
     1087500000    1.729129553e-01   -4.487116635e-01
     1088000000    1.890922785e-01   -4.395636916e-01
     1088500000    2.033870518e-01   -4.298146367e-01
     1089000000    2.180062383e-01   -4.200454354e-01
     1089500000    2.321841568e-01   -4.095015526e-01
     1090000000    2.451599836e-01   -3.990703821e-01
     1090500000    2.580849826e-01   -3.882903457e-01
     1091000000    2.707835436e-01   -3.762784898e-01
     1091500000    2.819289267e-01   -3.645296693e-01
     1092000000    2.926089466e-01   -3.525362611e-01
     1092500000    3.039964437e-01   -3.398089409e-01
     1093000000    3.136686087e-01   -3.270471692e-01
     1093500000    3.230631948e-01   -3.140293360e-01
     1094000000    3.320590854e-01   -3.007932305e-01
     1094500000    3.399809301e-01   -2.876145840e-01
     1095000000    3.479002118e-01   -2.734967172e-01
     1095500000    3.548201025e-01   -2.604772449e-01
     1096000000    3.618277013e-01   -2.456119657e-01
     1096500000    3.679409921e-01   -2.324763536e-01
     1097000000    3.736443818e-01   -2.167279124e-01
     1097500000    3.783915937e-01   -2.030231804e-01
     1098000000    3.828987181e-01   -1.888426393e-01
     1098500000    3.862149715e-01   -1.743660867e-01
     1099000000    3.898101151e-01   -1.600312591e-01
     1099500000    3.921332657e-01   -1.469803900e-01
     1100000000    3.944063187e-01   -1.323143542e-01
     1100500000    3.960169256e-01   -1.181834862e-01
     1101000000    3.971946537e-01   -1.035190374e-01
     1101500000    3.977474272e-01   -8.872038871e-02
     1102000000    3.983943462e-01   -7.507134974e-02
     1102500000    3.972469866e-01   -6.150318682e-02
     1103000000    3.967595994e-01   -4.881693795e-02
     1103500000    3.951676786e-01   -3.516867012e-02
     1104000000    3.935815692e-01   -2.207575925e-02
     1104500000    3.912175894e-01   -8.760577999e-03
     1105000000    3.886582553e-01    2.880349290e-03
     1105500000    3.849966526e-01    1.563802361e-02
     1106000000    3.811519742e-01    2.797698602e-02
     1106500000    3.774337471e-01    4.010821506e-02
     1107000000    3.731679916e-01    5.174464732e-02
     1107500000    3.681497872e-01    6.317054480e-02
     1108000000    3.629211783e-01    7.389424741e-02
     1108500000    3.575198054e-01    8.497261256e-02
     1109000000    3.516095281e-01    9.528034925e-02
     1109500000    3.456730247e-01    1.052540243e-01
     1110000000    3.388016820e-01    1.155431494e-01
     1110500000    3.321518600e-01    1.256432086e-01
     1111000000    3.250691593e-01    1.344481856e-01
     1111500000    3.183261454e-01    1.426377743e-01
     1112000000    3.105777204e-01    1.521379203e-01
     1112500000    3.026548326e-01    1.600359082e-01
     1113000000    2.945209742e-01    1.680375636e-01
     1113500000    2.868432403e-01    1.751373559e-01
     1114000000    2.781039476e-01    1.828240454e-01
     1114500000    2.691146433e-01    1.898447275e-01
     1115000000    2.614833713e-01    1.957741380e-01
     1115500000    2.527389228e-01    2.017343044e-01
     1116000000    2.435795367e-01    2.078486085e-01
     1116500000    2.350850999e-01    2.131183743e-01
     1117000000    2.255579978e-01    2.183597386e-01
     1117500000    2.174403369e-01    2.229201049e-01
     1118000000    2.075713426e-01    2.271434665e-01
     1118500000    1.983931959e-01    2.307283133e-01
     1119000000    1.894728243e-01    2.344505787e-01
     1119500000    1.805925965e-01    2.377701849e-01
     1120000000    1.713517755e-01    2.404303253e-01
     1120500000    1.621178538e-01    2.425647527e-01
     1121000000    1.524034888e-01    2.440754026e-01
     1121500000    1.433068216e-01    2.460362613e-01
     1122000000    1.338067502e-01    2.464037389e-01
     1122500000    1.247551739e-01    2.476694435e-01
     1123000000    1.157758906e-01    2.477075160e-01
     1123500000    1.059504002e-01    2.482433319e-01
     1124000000    9.747423977e-02    2.475802004e-01
     1124500000    8.767779171e-02    2.467372715e-01
     1125000000    7.901736349e-02    2.459007651e-01
     1125500000    6.951136142e-02    2.448779196e-01
     1126000000    6.054217741e-02    2.428879738e-01
     1126500000    5.227155238e-02    2.405564189e-01
     1127000000    4.286292940e-02    2.386741638e-01
     1127500000    3.468921781e-02    2.360252887e-01
     1128000000    2.510794066e-02    2.330175489e-01
     1128500000    1.695955358e-02    2.299907357e-01
     1129000000    8.961676620e-03    2.264232188e-01
     1129500000    1.010808977e-03    2.224831134e-01
     1130000000   -7.356839720e-03    2.184210718e-01
     1130500000   -1.543345302e-02    2.144859880e-01
     1131000000   -2.325402200e-02    2.098862827e-01
     1131500000   -3.051667474e-02    2.050538063e-01
     1132000000   -3.752418235e-02    1.998670697e-01
     1132500000   -4.500816390e-02    1.946872324e-01
     1133000000   -5.182257295e-02    1.891273111e-01
     1133500000   -5.872239918e-02    1.833108217e-01
     1134000000   -6.440680474e-02    1.772496998e-01
     1134500000   -7.048855722e-02    1.710976064e-01
     1135000000   -7.607229054e-02    1.645905226e-01
     1135500000   -8.164393902e-02    1.581037045e-01
     1136000000   -8.696630597e-02    1.512390226e-01
     1136500000   -9.146036208e-02    1.443637162e-01
     1137000000   -9.555522352e-02    1.371052265e-01
     1137500000   -9.967868030e-02    1.295427531e-01
     1138000000   -1.040176228e-01    1.217887551e-01
     1138500000   -1.069841236e-01    1.141674519e-01
     1139000000   -1.100305617e-01    1.057307944e-01
     1139500000   -1.134759188e-01    9.779969603e-02
     1140000000   -1.150590181e-01    8.962517232e-02
     1140500000   -1.175793260e-01    8.099517971e-02
     1141000000   -1.186720803e-01    7.245945185e-02
     1141500000   -1.197027341e-01    6.338525563e-02
     1142000000   -1.205729842e-01    5.470111966e-02
     1142500000   -1.206800416e-01    4.571202770e-02
     1143000000   -1.208215430e-01    3.632508591e-02
     1143500000   -1.205418706e-01    2.717852592e-02
     1144000000   -1.195922494e-01    1.793980412e-02
     1144500000   -1.185561046e-01    8.433355018e-03
     1145000000   -1.167267263e-01   -8.187430794e-04
     1145500000   -1.145589650e-01   -9.875526652e-03
     1146000000   -1.125908345e-01   -1.932983845e-02
     1146500000   -1.094496325e-01   -2.831670269e-02
     1147000000   -1.064655334e-01   -3.783556446e-02
     1147500000   -1.027115956e-01   -4.698354378e-02
     1148000000   -9.832813591e-02   -5.598501861e-02
     1148500000   -9.403869510e-02   -6.505558640e-02
     1149000000   -8.892208338e-02   -7.400727272e-02
     1149500000   -8.357317746e-02   -8.309157938e-02
     1150000000   -7.773686200e-02   -9.171786904e-02
     1150500000   -7.145643234e-02   -1.005674154e-01
     1151000000   -6.505450606e-02   -1.087130830e-01
     1151500000   -5.849622563e-02   -1.170569584e-01
     1152000000   -5.082329363e-02   -1.252318770e-01
     1152500000   -4.354853928e-02   -1.329023391e-01
     1153000000   -3.581253812e-02   -1.402029246e-01
     1153500000   -2.740291879e-02   -1.478069723e-01
     1154000000   -1.893315092e-02   -1.546454430e-01
     1154500000   -9.963506833e-03   -1.609461457e-01
     1155000000   -6.462835008e-04   -1.673553884e-01
     1155500000    8.858657442e-03   -1.733378917e-01
     1156000000    1.861993968e-02   -1.787154078e-01
     1156500000    2.853477001e-02   -1.839494705e-01
     1157000000    3.869905323e-02   -1.885490119e-01
     1157500000    4.908682033e-02   -1.925263852e-01
     1158000000    5.985290557e-02   -1.963206828e-01
     1158500000    7.097955048e-02   -1.998356432e-01
     1159000000    8.196053654e-02   -2.024691105e-01
     1159500000    9.344197065e-02   -2.050888687e-01
     1160000000    1.040429696e-01   -2.066793889e-01
     1160500000    1.166505739e-01   -2.079868317e-01
     1161000000    1.272712201e-01   -2.088240236e-01
     1161500000    1.393900067e-01   -2.091875523e-01
     1162000000    1.516758502e-01   -2.084175050e-01
     1162500000    1.622007042e-01   -2.077082843e-01
     1163000000    1.748569012e-01   -2.056047171e-01
     1163500000    1.853903979e-01   -2.035887241e-01
     1164000000    1.980339289e-01   -2.005863786e-01
     1164500000    2.093572319e-01   -1.970983744e-01
     1165000000    2.202450782e-01   -1.933721900e-01
     1165500000    2.323497087e-01   -1.881327927e-01
     1166000000    2.428936064e-01   -1.832043380e-01
     1166500000    2.545294166e-01   -1.770871431e-01
     1167000000    2.653919458e-01   -1.703770459e-01
     1167500000    2.754814625e-01   -1.637888253e-01
     1168000000    2.863348424e-01   -1.553004235e-01
     1168500000    2.971061468e-01   -1.472897679e-01
     1169000000    3.069110811e-01   -1.381494552e-01
     1169500000    3.167002499e-01   -1.288545281e-01
     1170000000    3.258604407e-01   -1.191373318e-01
     1170500000    3.343062699e-01   -1.087047160e-01
     1171000000    3.436003923e-01   -9.731686860e-02
     1171500000    3.505768478e-01   -8.755972236e-02
     1172000000    3.591262698e-01   -7.419189811e-02
     1172500000    3.656190932e-01   -6.209996715e-02
     1173000000    3.722055554e-01   -4.969037324e-02
     1173500000    3.778358996e-01   -3.652068973e-02
     1174000000    3.832022846e-01   -2.333348803e-02
     1174500000    3.880831897e-01   -9.334897622e-03
     1175000000    3.929924071e-01    6.769745611e-03
     1175500000    3.955185115e-01    1.957471110e-02
     1176000000    3.989772499e-01    3.462658450e-02
     1176500000    4.013129175e-01    5.178445950e-02
     1177000000    4.028328359e-01    6.682213396e-02
     1177500000    4.041778743e-01    8.191803843e-02
     1178000000    4.042145908e-01    9.930906445e-02
     1178500000    4.043253958e-01    1.137784198e-01
     1179000000    4.034311771e-01    1.313361377e-01
     1179500000    4.018223584e-01    1.478741765e-01
     1180000000    3.992525637e-01    1.644493788e-01
     1180500000    3.965340555e-01    1.813250184e-01
     1181000000    3.928517699e-01    1.972468197e-01
     1181500000    3.884625435e-01    2.135602981e-01
     1182000000    3.835432529e-01    2.297704220e-01
     1182500000    3.776928186e-01    2.466743588e-01
     1183000000    3.710938394e-01    2.620215118e-01
     1183500000    3.643207550e-01    2.771007419e-01
     1184000000    3.558993638e-01    2.934070230e-01
     1184500000    3.469176292e-01    3.089852333e-01
     1185000000    3.377069533e-01    3.234395087e-01
     1185500000    3.276825249e-01    3.387161791e-01
     1186000000    3.169455528e-01    3.528819680e-01
     1186500000    3.064290285e-01    3.660818636e-01
     1187000000    2.936026752e-01    3.798294961e-01
     1187500000    2.808770537e-01    3.931779265e-01
     1188000000    2.680736482e-01    4.051555097e-01
     1188500000    2.541019917e-01    4.168294966e-01
     1189000000    2.393413484e-01    4.288887382e-01
     1189500000    2.260617614e-01    4.383603930e-01
     1190000000    2.081363499e-01    4.505392313e-01
     1190500000    1.930650920e-01    4.593133926e-01
     1191000000    1.787224710e-01    4.668498933e-01
     1191500000    1.584147215e-01    4.769884050e-01
     1192000000    1.440994143e-01    4.825977385e-01
     1192500000    1.256076396e-01    4.899857342e-01
     1193000000    1.042555496e-01    4.969665706e-01
     1193500000    8.857275546e-02    5.013505220e-01
     1194000000    6.935316324e-02    5.060251951e-01
     1194500000    5.011553690e-02    5.095402002e-01
     1195000000    3.124144301e-02    5.123541951e-01
     1195500000    1.091468427e-02    5.148136020e-01
     1196000000   -7.261064369e-03    5.157158971e-01
     1196500000   -2.742681466e-02    5.167335868e-01
     1197000000   -4.859599099e-02    5.167753696e-01
     1197500000   -6.768479943e-02    5.159694552e-01
     1198000000   -8.812426031e-02    5.140011311e-01
     1198500000   -1.077403277e-01    5.112274885e-01
     1199000000   -1.275741607e-01    5.078601241e-01
     1199500000   -1.487603635e-01    5.033488274e-01
     1200000000   -1.679075360e-01    4.983693361e-01
