! NanoVNA-App
! Date: 2026-05-22 22:14:04
! Start: 1GHz Stop: 1.2GHz Points: 401
! S-Parameter data: F S11
# Hz S RI R 50
!     Frequency           S11_Real           S11_Imag
     1000000000   -2.421321124e-01   -4.893983901e-01
     1000500000   -2.243501097e-01   -4.966865480e-01
     1001000000   -2.069903463e-01   -5.032442212e-01
     1001500000   -1.889794022e-01   -5.094633102e-01
     1002000000   -1.715147197e-01   -5.142261982e-01
     1002500000   -1.532627642e-01   -5.192916989e-01
     1003000000   -1.346492618e-01   -5.236471891e-01
     1003500000   -1.162055507e-01   -5.270370841e-01
     1004000000   -9.673949331e-02   -5.301500559e-01
     1004500000   -7.947211713e-02   -5.327258110e-01
     1005000000   -6.037862599e-02   -5.344979167e-01
     1005500000   -4.167526960e-02   -5.350487828e-01
     1006000000   -2.340624109e-02   -5.357630253e-01
     1006500000   -3.495882498e-03   -5.357028246e-01
     1007000000    1.358351856e-02   -5.344028473e-01
     1007500000    3.414927050e-02   -5.330978036e-01
     1008000000    5.157006159e-02   -5.307494402e-01
     1008500000    7.045211643e-02   -5.278854966e-01
     1009000000    8.838324994e-02   -5.243101120e-01
     1009500000    1.062703952e-01   -5.199372768e-01
     1010000000    1.253428906e-01   -5.146662593e-01
     1010500000    1.426886320e-01   -5.088641644e-01
     1011000000    1.610262990e-01   -5.026555657e-01
     1011500000    1.770081520e-01   -4.960418046e-01
     1012000000    1.948731840e-01   -4.888408482e-01
     1012500000    2.118180394e-01   -4.809954166e-01
     1013000000    2.282695025e-01   -4.719941318e-01
     1013500000    2.451640368e-01   -4.628582299e-01
     1014000000    2.606526613e-01   -4.534334540e-01
     1014500000    2.767483592e-01   -4.423925281e-01
     1015000000    2.916237116e-01   -4.316657186e-01
     1015500000    3.062518835e-01   -4.202327728e-01
     1016000000    3.206912279e-01   -4.080582857e-01
     1016500000    3.345759213e-01   -3.955832422e-01
     1017000000    3.481234908e-01   -3.823572397e-01
     1017500000    3.613694012e-01   -3.691223562e-01
     1018000000    3.747256994e-01   -3.544301689e-01
     1018500000    3.852956891e-01   -3.408084214e-01
     1019000000    3.975031674e-01   -3.250402808e-01
     1019500000    4.077546000e-01   -3.100093305e-01
     1020000000    4.177123308e-01   -2.942453921e-01
     1020500000    4.281775951e-01   -2.777736485e-01
     1021000000    4.368319213e-01   -2.612649202e-01
     1021500000    4.454753697e-01   -2.442619652e-01
     1022000000    4.524308443e-01   -2.284557223e-01
     1022500000    4.599750936e-01   -2.102266699e-01
     1023000000    4.663919210e-01   -1.923207343e-01
     1023500000    4.725065231e-01   -1.731368005e-01
     1024000000    4.767230749e-01   -1.573670954e-01
     1024500000    4.814933836e-01   -1.381618977e-01
     1025000000    4.843821824e-01   -1.199276820e-01
     1025500000    4.872727692e-01   -1.024831608e-01
     1026000000    4.899283946e-01   -8.282024413e-02
     1026500000    4.909864068e-01   -6.455393881e-02
     1027000000    4.917171001e-01   -4.602454230e-02
     1027500000    4.911998212e-01   -2.668595873e-02
     1028000000    4.903682768e-01   -8.747647516e-03
     1028500000    4.885435402e-01    1.019481476e-02
     1029000000    4.861880243e-01    2.824134193e-02
     1029500000    4.830829203e-01    4.695115238e-02
     1030000000    4.793410301e-01    6.332878768e-02
     1030500000    4.750265181e-01    8.275343478e-02
     1031000000    4.697195888e-01    1.005358025e-01
     1031500000    4.637881815e-01    1.173515320e-01
     1032000000    4.569165707e-01    1.358300745e-01
     1032500000    4.494490027e-01    1.519438922e-01
     1033000000    4.412624836e-01    1.686676294e-01
     1033500000    4.320366681e-01    1.855094284e-01
     1034000000    4.238332808e-01    2.003353834e-01
     1034500000    4.137912989e-01    2.167766243e-01
     1035000000    4.030769169e-01    2.313407212e-01
     1035500000    3.918102980e-01    2.457688153e-01
     1036000000    3.798026443e-01    2.603745461e-01
     1036500000    3.673012853e-01    2.734103501e-01
     1037000000    3.542680740e-01    2.864971757e-01
     1037500000    3.408076167e-01    2.993356287e-01
     1038000000    3.269800842e-01    3.115198910e-01
     1038500000    3.123695552e-01    3.225639462e-01
     1039000000    2.973291874e-01    3.343007565e-01
     1039500000    2.828880847e-01    3.440918922e-01
     1040000000    2.670002282e-01    3.542971611e-01
     1040500000    2.514056861e-01    3.628636599e-01
     1041000000    2.351554036e-01    3.709085882e-01
     1041500000    2.192561328e-01    3.779294789e-01
     1042000000    2.028639913e-01    3.845264912e-01
     1042500000    1.858018339e-01    3.912491202e-01
     1043000000    1.690517813e-01    3.966760039e-01
     1043500000    1.516740471e-01    4.012846351e-01
     1044000000    1.346065849e-01    4.052293599e-01
     1044500000    1.169261560e-01    4.078410864e-01
     1045000000    1.000425145e-01    4.103468359e-01
     1045500000    8.260955662e-02    4.116537571e-01
     1046000000    6.589660794e-02    4.123731554e-01
     1046500000    4.857170582e-02    4.124383032e-01
     1047000000    3.144868463e-02    4.116580784e-01
     1047500000    1.462481730e-02    4.102783799e-01
     1048000000   -2.765618963e-03    4.080583751e-01
     1048500000   -2.011664957e-02    4.050236642e-01
     1049000000   -3.641251475e-02    4.011405706e-01
     1049500000   -5.223271623e-02    3.966166973e-01
     1050000000   -6.750564277e-02    3.914231658e-01
     1050500000   -8.407606184e-02    3.853425384e-01
     1051000000   -9.873289615e-02    3.790013492e-01
     1051500000   -1.136545464e-01    3.720551729e-01
     1052000000   -1.274784356e-01    3.643043637e-01
     1052500000   -1.428535581e-01    3.556709886e-01
     1053000000   -1.576870233e-01    3.462531865e-01
     1053500000   -1.693322659e-01    3.374938667e-01
     1054000000   -1.816800833e-01    3.270492852e-01
     1054500000   -1.947862208e-01    3.162168860e-01
     1055000000   -2.063183337e-01    3.051768243e-01
     1055500000   -2.172344476e-01    2.936019301e-01
     1056000000   -2.281266302e-01    2.812666595e-01
     1056500000   -2.376386970e-01    2.687364221e-01
     1057000000   -2.469314486e-01    2.557885945e-01
     1057500000   -2.557008862e-01    2.426226437e-01
     1058000000   -2.637349963e-01    2.289078385e-01
     1058500000   -2.709101737e-01    2.153246999e-01
     1059000000   -2.780294716e-01    2.007616013e-01
     1059500000   -2.844126225e-01    1.861745715e-01
     1060000000   -2.900179029e-01    1.715100706e-01
     1060500000   -2.940834463e-01    1.570706218e-01
     1061000000   -2.988228202e-01    1.413162798e-01
     1061500000   -3.018945158e-01    1.271720529e-01
     1062000000   -3.048034310e-01    1.114961728e-01
     1062500000   -3.069464862e-01    9.674453735e-02
     1063000000   -3.080670834e-01    8.141382784e-02
     1063500000   -3.087908924e-01    6.710574031e-02
     1064000000   -3.085538745e-01    5.297136679e-02
     1064500000   -3.078603446e-01    3.672391176e-02
     1065000000   -3.068454862e-01    2.048855461e-02
     1065500000   -3.045451641e-01    7.297820877e-03
     1066000000   -3.018097579e-01   -6.922641769e-03
     1066500000   -2.985804975e-01   -2.181489021e-02
     1067000000   -2.945088744e-01   -3.378015384e-02
     1067500000   -2.899804711e-01   -4.914717004e-02
     1068000000   -2.843300998e-01   -6.120563671e-02
     1068500000   -2.786945999e-01   -7.459122688e-02
     1069000000   -2.722411156e-01   -8.803736418e-02
     1069500000   -2.653540969e-01   -9.968031943e-02
     1070000000   -2.578391135e-01   -1.117881611e-01
     1070500000   -2.491241395e-01   -1.245527864e-01
     1071000000   -2.417219579e-01   -1.340930760e-01
     1071500000   -2.325594574e-01   -1.451772898e-01
     1072000000   -2.233263254e-01   -1.560413539e-01
     1072500000   -2.138782740e-01   -1.656905860e-01
     1073000000   -2.040969580e-01   -1.748277992e-01
     1073500000   -1.937820613e-01   -1.836292893e-01
     1074000000   -1.831024438e-01   -1.919685155e-01
     1074500000   -1.720674038e-01   -1.992453337e-01
     1075000000   -1.614219546e-01   -2.066860944e-01
     1075500000   -1.502570212e-01   -2.130921185e-01
     1076000000   -1.385902166e-01   -2.191968858e-01
     1076500000   -1.275427788e-01   -2.237299234e-01
     1077000000   -1.153376997e-01   -2.287374288e-01
     1077500000   -1.035830230e-01   -2.323963642e-01
     1078000000   -9.154741466e-02   -2.356593907e-01
     1078500000   -7.940768450e-02   -2.380342036e-01
     1079000000   -6.750788540e-02   -2.406603694e-01
     1079500000   -5.468265712e-02   -2.419429570e-01
     1080000000   -4.283630103e-02   -2.426483482e-01
     1080500000   -3.099422529e-02   -2.427672446e-01
     1081000000   -1.910597831e-02   -2.423921824e-01
     1081500000   -7.859616540e-03   -2.412492186e-01
     1082000000    5.863760132e-03   -2.394456714e-01
     1082500000    1.729697548e-02   -2.375597656e-01
     1083000000    2.919771895e-02   -2.350403517e-01
     1083500000    4.002922028e-02   -2.320170701e-01
     1084000000    5.142180994e-02   -2.281943858e-01
     1084500000    6.269494444e-02   -2.239439785e-01
     1085000000    7.308875024e-02   -2.196933478e-01
     1085500000    8.413611352e-02   -2.145028114e-01
     1086000000    9.489893168e-02   -2.084333301e-01
     1086500000    1.048315614e-01   -2.026807070e-01
     1087000000    1.142131388e-01   -1.961927712e-01
     1087500000    1.234889850e-01   -1.901914924e-01
     1088000000    1.326232702e-01   -1.830011457e-01
     1088500000    1.411623210e-01   -1.754112393e-01
     1089000000    1.497086138e-01   -1.679807603e-01
     1089500000    1.577036977e-01   -1.599829793e-01
     1090000000    1.645875871e-01   -1.517870724e-01
     1090500000    1.716925651e-01   -1.432707161e-01
     1091000000    1.783143878e-01   -1.344642490e-01
     1091500000    1.844399571e-01   -1.249962524e-01
     1092000000    1.896351427e-01   -1.163219288e-01
     1092500000    1.949947327e-01   -1.066636071e-01
     1093000000    1.998436302e-01   -9.758371115e-02
     1093500000    2.039058208e-01   -8.841683716e-02
     1094000000    2.078760266e-01   -7.835605741e-02
     1094500000    2.110485286e-01   -6.872288138e-02
     1095000000    2.143508941e-01   -5.898078158e-02
     1095500000    2.161953747e-01   -4.870261624e-02
     1096000000    2.181252539e-01   -3.894218430e-02
     1096500000    2.196622342e-01   -2.885501832e-02
     1097000000    2.207683921e-01   -1.961232908e-02
     1097500000    2.213139087e-01   -9.978603572e-03
     1098000000    2.207980901e-01    6.181976642e-05
     1098500000    2.208280563e-01    9.244573303e-03
     1099000000    2.198052406e-01    1.906565204e-02
     1099500000    2.188463360e-01    2.834300138e-02
     1100000000    2.166025937e-01    3.853298351e-02
     1100500000    2.152896971e-01    4.681967199e-02
     1101000000    2.120774239e-01    5.649435520e-02
     1101500000    2.097561806e-01    6.510938704e-02
     1102000000    2.066476345e-01    7.362737507e-02
     1102500000    2.025154233e-01    8.221665025e-02
     1103000000    1.991314739e-01    9.046470374e-02
     1103500000    1.941803992e-01    9.867713600e-02
     1104000000    1.901048422e-01    1.064602062e-01
     1104500000    1.849869490e-01    1.139252633e-01
     1105000000    1.790916324e-01    1.210571602e-01
     1105500000    1.742542684e-01    1.278367043e-01
     1106000000    1.674485356e-01    1.351252943e-01
     1106500000    1.621343195e-01    1.408687830e-01
     1107000000    1.557675153e-01    1.469486803e-01
     1107500000    1.490785778e-01    1.527808458e-01
     1108000000    1.425683200e-01    1.585355401e-01
     1108500000    1.351547986e-01    1.638039201e-01
     1109000000    1.272048056e-01    1.689202935e-01
     1109500000    1.202846617e-01    1.735104173e-01
     1110000000    1.127325147e-01    1.780700833e-01
     1110500000    1.047556996e-01    1.822075546e-01
     1111000000    9.751383960e-02    1.861735284e-01
     1111500000    8.881071210e-02    1.894000620e-01
     1112000000    8.141459525e-02    1.927994788e-01
     1112500000    7.270846516e-02    1.957769543e-01
     1113000000    6.484831870e-02    1.984380186e-01
     1113500000    5.742492154e-02    2.008121610e-01
     1114000000    4.770648107e-02    2.024793774e-01
     1114500000    3.984969854e-02    2.042775899e-01
     1115000000    3.106698953e-02    2.052469850e-01
     1115500000    2.337437123e-02    2.062534988e-01
     1116000000    1.546497736e-02    2.070911378e-01
     1116500000    6.698663812e-03    2.074221969e-01
     1117000000   -1.565749524e-03    2.074647844e-01
     1117500000   -1.016926486e-02    2.070946842e-01
     1118000000   -1.723045669e-02    2.069061100e-01
     1118500000   -2.578504756e-02    2.059220672e-01
     1119000000   -3.344525769e-02    2.049387693e-01
     1119500000   -4.131278768e-02    2.036133856e-01
     1120000000   -4.922467843e-02    2.014629543e-01
     1120500000   -5.617660284e-02    2.004298717e-01
     1121000000   -6.352125108e-02    1.978852600e-01
     1121500000   -7.126832753e-02    1.950716078e-01
     1122000000   -7.856864482e-02    1.922441870e-01
     1122500000   -8.557617664e-02    1.886141598e-01
     1123000000   -9.268707037e-02    1.853666306e-01
     1123500000   -9.931605309e-02    1.819714755e-01
     1124000000   -1.059508845e-01    1.778521538e-01
     1124500000   -1.123993471e-01    1.733427644e-01
     1125000000   -1.185766757e-01    1.692208350e-01
     1125500000   -1.252079606e-01    1.646697819e-01
     1126000000   -1.317474097e-01    1.588888019e-01
     1126500000   -1.371120065e-01    1.540680975e-01
     1127000000   -1.430668980e-01    1.481655985e-01
     1127500000   -1.485180855e-01    1.426395476e-01
     1128000000   -1.538852006e-01    1.368457228e-01
     1128500000   -1.591690928e-01    1.308415383e-01
     1129000000   -1.638228297e-01    1.249356121e-01
     1129500000   -1.688215584e-01    1.181584001e-01
     1130000000   -1.734069288e-01    1.112422645e-01
     1130500000   -1.780001968e-01    1.041139215e-01
     1131000000   -1.820579320e-01    9.740360081e-02
     1131500000   -1.863182336e-01    9.058458358e-02
     1132000000   -1.897908598e-01    8.273169398e-02
     1132500000   -1.935325414e-01    7.536586374e-02
     1133000000   -1.967177391e-01    6.789150089e-02
     1133500000   -1.997412294e-01    5.978133157e-02
     1134000000   -2.025248855e-01    5.194899440e-02
     1134500000   -2.048859149e-01    4.356355593e-02
     1135000000   -2.071462572e-01    3.572317213e-02
     1135500000   -2.088374197e-01    2.687961794e-02
     1136000000   -2.105611414e-01    1.878439263e-02
     1136500000   -2.120549083e-01    1.052736305e-02
     1137000000   -2.129809558e-01    1.285073464e-03
     1137500000   -2.141645253e-01   -6.766775623e-03
     1138000000   -2.148915678e-01   -1.568776742e-02
     1138500000   -2.148384005e-01   -2.451827936e-02
     1139000000   -2.152104080e-01   -3.358718008e-02
     1139500000   -2.147109061e-01   -4.247601703e-02
     1140000000   -2.143087685e-01   -5.111092702e-02
     1140500000   -2.134592384e-01   -6.108918414e-02
     1141000000   -2.118255645e-01   -6.912933290e-02
     1141500000   -2.106035799e-01   -7.758936286e-02
     1142000000   -2.083781064e-01   -8.711566031e-02
     1142500000   -2.061161101e-01   -9.568126500e-02
     1143000000   -2.038648874e-01   -1.042765230e-01
     1143500000   -2.005930096e-01   -1.133692041e-01
     1144000000   -1.976642460e-01   -1.221292242e-01
     1144500000   -1.936199665e-01   -1.303389519e-01
     1145000000   -1.895934194e-01   -1.388431787e-01
     1145500000   -1.853335351e-01   -1.469623893e-01
     1146000000   -1.807687730e-01   -1.555044651e-01
     1146500000   -1.758555621e-01   -1.631027758e-01
     1147000000   -1.696063727e-01   -1.714838445e-01
     1147500000   -1.643353403e-01   -1.785069555e-01
     1148000000   -1.582376212e-01   -1.860601902e-01
     1148500000   -1.509134620e-01   -1.941220164e-01
     1149000000   -1.443365514e-01   -2.013331652e-01
     1149500000   -1.374868155e-01   -2.076439559e-01
     1150000000   -1.292855144e-01   -2.143650949e-01
     1150500000   -1.213155687e-01   -2.211980820e-01
     1151000000   -1.127791330e-01   -2.272644341e-01
     1151500000   -1.043315604e-01   -2.329719663e-01
     1152000000   -9.427762032e-02   -2.386112511e-01
     1152500000   -8.584947884e-02   -2.439651489e-01
     1153000000   -7.562534511e-02   -2.494848967e-01
     1153500000   -6.540945172e-02   -2.539495230e-01
     1154000000   -5.531617254e-02   -2.579450607e-01
     1154500000   -4.492332414e-02   -2.619885504e-01
     1155000000   -3.484853357e-02   -2.652715743e-01
     1155500000   -2.301294357e-02   -2.690537572e-01
     1156000000   -1.181634050e-02   -2.721253037e-01
     1156500000   -5.300999619e-04   -2.744967341e-01
     1157000000    1.125052292e-02   -2.763856947e-01
     1157500000    2.302439138e-02   -2.779672146e-01
     1158000000    3.515096381e-02   -2.790589929e-01
     1158500000    4.719903320e-02   -2.793998122e-01
     1159000000    5.970611796e-02   -2.797463834e-01
     1159500000    7.074383646e-02   -2.792603374e-01
     1160000000    8.417942375e-02   -2.781893313e-01
     1160500000    9.578969330e-02   -2.768782973e-01
     1161000000    1.087765619e-01   -2.751323283e-01
     1161500000    1.212023348e-01   -2.726949453e-01
     1162000000    1.335908473e-01   -2.695315480e-01
     1162500000    1.453003138e-01   -2.657432854e-01
     1163000000    1.573346257e-01   -2.616713047e-01
     1163500000    1.701927185e-01   -2.569146752e-01
     1164000000    1.812210232e-01   -2.517843843e-01
     1164500000    1.934661567e-01   -2.459197789e-01
     1165000000    2.060027122e-01   -2.388791442e-01
     1165500000    2.170089632e-01   -2.321139574e-01
     1166000000    2.290326655e-01   -2.240147144e-01
     1166500000    2.402516305e-01   -2.160554975e-01
     1167000000    2.514379323e-01   -2.072984576e-01
     1167500000    2.618744969e-01   -1.979348809e-01
     1168000000    2.725243866e-01   -1.879924983e-01
     1168500000    2.824845910e-01   -1.777573824e-01
     1169000000    2.924851775e-01   -1.668510735e-01
     1169500000    3.018564880e-01   -1.553342938e-01
     1170000000    3.108023405e-01   -1.435230523e-01
     1170500000    3.191647828e-01   -1.312813163e-01
     1171000000    3.278209567e-01   -1.186878607e-01
     1171500000    3.353595436e-01   -1.055833101e-01
     1172000000    3.426013887e-01   -9.157806635e-02
     1172500000    3.490680456e-01   -7.781885564e-02
     1173000000    3.557170630e-01   -6.357911974e-02
     1173500000    3.607067168e-01   -4.927196354e-02
     1174000000    3.663557470e-01   -3.279433772e-02
     1174500000    3.702498376e-01   -1.813302375e-02
     1175000000    3.744673133e-01   -2.648753347e-03
     1175500000    3.770115972e-01    1.299188379e-02
     1176000000    3.795354366e-01    2.842042968e-02
     1176500000    3.815628290e-01    4.561899230e-02
     1177000000    3.823167086e-01    6.086887792e-02
     1177500000    3.829946518e-01    7.728061825e-02
     1178000000    3.821258843e-01    9.459816664e-02
     1178500000    3.811892569e-01    1.125608906e-01
     1179000000    3.798731863e-01    1.271633953e-01
     1179500000    3.773854077e-01    1.455077827e-01
     1180000000    3.740695417e-01    1.618526280e-01
     1180500000    3.703759015e-01    1.781658828e-01
     1181000000    3.656720817e-01    1.948406845e-01
     1181500000    3.604795039e-01    2.103933096e-01
     1182000000    3.544473648e-01    2.273089439e-01
     1182500000    3.478289545e-01    2.434076667e-01
     1183000000    3.400567770e-01    2.593312263e-01
     1183500000    3.314701021e-01    2.753483057e-01
     1184000000    3.230443895e-01    2.898716331e-01
     1184500000    3.130983114e-01    3.052616417e-01
     1185000000    3.026741147e-01    3.195925355e-01
     1185500000    2.918014824e-01    3.341687024e-01
     1186000000    2.796720564e-01    3.478868306e-01
     1186500000    2.693339586e-01    3.592986166e-01
     1187000000    2.543775439e-01    3.741970658e-01
     1187500000    2.417482734e-01    3.858176768e-01
     1188000000    2.278824300e-01    3.970562518e-01
     1188500000    2.129110545e-01    4.083459079e-01
     1189000000    1.970500648e-01    4.195554554e-01
     1189500000    1.833040416e-01    4.281903207e-01
     1190000000    1.644788682e-01    4.395002127e-01
     1190500000    1.482529342e-01    4.478691220e-01
     1191000000    1.340693533e-01    4.542261362e-01
     1191500000    1.138404086e-01    4.629525244e-01
     1192000000    9.592534602e-02    4.692554474e-01
     1192500000    7.900152355e-02    4.747669995e-01
     1193000000    6.066718325e-02    4.796533287e-01
     1193500000    4.320389405e-02    4.836964011e-01
     1194000000    2.110658772e-02    4.876681268e-01
     1194500000    3.324594349e-03    4.898579121e-01
     1195000000   -1.402375102e-02    4.914349020e-01
     1195500000   -3.464263678e-02    4.923761487e-01
     1196000000   -5.642766133e-02    4.924599528e-01
     1196500000   -7.210339606e-02    4.915760458e-01
     1197000000   -9.435576946e-02    4.900794625e-01
     1197500000   -1.126058623e-01    4.874953926e-01
     1198000000   -1.325305700e-01    4.843650162e-01
     1198500000   -1.523144841e-01    4.800167680e-01
     1199000000   -1.704547703e-01    4.748923481e-01
     1199500000   -1.898018122e-01    4.690447748e-01
     1200000000   -2.087160498e-01    4.623701572e-01
