! NanoVNA-App
! Date: 2026-05-22 17:32:53
! Start: 2.3GHz Stop: 2.6GHz Points: 401
! S-Parameter data: F S11
# Hz S RI R 50
!     Frequency           S11_Real           S11_Imag
     2300000000    2.379662544e-01    7.638631016e-02
     2300750000    2.292884588e-01    9.485743940e-02
     2301500000    2.164916247e-01    1.183195487e-01
     2302250000    2.036638111e-01    1.353004873e-01
     2303000000    1.882578433e-01    1.544134319e-01
     2303750000    1.728976220e-01    1.688469499e-01
     2304500000    1.538131237e-01    1.843517125e-01
     2305250000    1.354009956e-01    1.969500929e-01
     2306000000    1.162742376e-01    2.073099911e-01
     2306750000    9.346359223e-02    2.167249322e-01
     2307500000    7.528886944e-02    2.222028077e-01
     2308250000    5.154072866e-02    2.275592834e-01
     2309000000    3.097035736e-02    2.298247218e-01
     2309750000    1.017070748e-02    2.299864888e-01
     2310500000   -1.212021429e-02    2.286344320e-01
     2311250000   -3.119416721e-02    2.253514081e-01
     2312000000   -5.358617753e-02    2.193345428e-01
     2312750000   -7.224532217e-02    2.125803083e-01
     2313500000   -9.258721024e-02    2.022892684e-01
     2314250000   -1.091933325e-01    1.929383129e-01
     2315000000   -1.266245395e-01    1.802418977e-01
     2315750000   -1.412374973e-01    1.667001098e-01
     2316500000   -1.540749222e-01    1.535344273e-01
     2317250000   -1.680704206e-01    1.358946115e-01
     2318000000   -1.790104061e-01    1.187393591e-01
     2318750000   -1.890929043e-01    9.998887777e-02
     2319500000   -1.956671923e-01    8.349431306e-02
     2320250000   -2.009891421e-01    6.371616572e-02
     2321000000   -2.055951208e-01    4.195275530e-02
     2321750000   -2.060386539e-01    2.783123218e-02
     2322500000   -2.063570917e-01    6.678878330e-03
     2323250000   -2.043945491e-01   -1.311314944e-02
     2324000000   -2.005943507e-01   -3.310237825e-02
     2324750000   -1.964817643e-01   -4.811410978e-02
     2325500000   -1.877838820e-01   -6.972661614e-02
     2326250000   -1.801666319e-01   -8.428554237e-02
     2327000000   -1.691122949e-01   -1.017951742e-01
     2327750000   -1.594201773e-01   -1.142009124e-01
     2328500000   -1.439248472e-01   -1.310311258e-01
     2329250000   -1.321998090e-01   -1.416775286e-01
     2330000000   -1.177298948e-01   -1.519197822e-01
     2330750000   -9.977834672e-02   -1.633501947e-01
     2331500000   -8.661038429e-02   -1.702829748e-01
     2332250000   -6.626019627e-02   -1.773535311e-01
     2333000000   -5.094765499e-02   -1.819266379e-01
     2333750000   -3.308952600e-02   -1.854186505e-01
     2334500000   -1.407753117e-02   -1.862311661e-01
     2335250000    6.979914615e-04   -1.862148345e-01
     2336000000    1.930790395e-02   -1.845060736e-01
     2336750000    3.632105142e-02   -1.813315004e-01
     2337500000    5.203656480e-02   -1.768905669e-01
     2338250000    6.867643446e-02   -1.699385047e-01
     2339000000    8.453957736e-02   -1.618658900e-01
     2339750000    9.739531577e-02   -1.527245790e-01
     2340500000    1.103643402e-01   -1.428778023e-01
     2341250000    1.227977350e-01   -1.306906492e-01
     2342000000    1.326262504e-01   -1.186820045e-01
     2342750000    1.421721876e-01   -1.052002460e-01
     2343500000    1.507633477e-01   -9.113815427e-02
     2344250000    1.561133862e-01   -7.834086567e-02
     2345000000    1.615637243e-01   -6.137934327e-02
     2345750000    1.649821550e-01   -4.572536796e-02
     2346500000    1.670049578e-01   -2.808024734e-02
     2347250000    1.677904874e-01   -1.724313013e-02
     2348000000    1.666378528e-01    2.644404769e-03
     2348750000    1.644877195e-01    1.766538247e-02
     2349500000    1.616833061e-01    2.930217423e-02
     2350250000    1.552162617e-01    4.829294607e-02
     2351000000    1.495418102e-01    6.048499793e-02
     2351750000    1.413557380e-01    7.452392578e-02
     2352500000    1.340729296e-01    8.560382575e-02
     2353250000    1.239139587e-01    9.775977582e-02
     2354000000    1.133036017e-01    1.087959111e-01
     2354750000    1.007364243e-01    1.186610535e-01
     2355500000    9.059500694e-02    1.257907301e-01
     2356250000    7.759176940e-02    1.332522035e-01
     2357000000    6.247986108e-02    1.399638802e-01
     2357750000    5.042590946e-02    1.442895085e-01
     2358500000    3.473310173e-02    1.476909667e-01
     2359250000    2.330351621e-02    1.496055424e-01
     2360000000    8.522400633e-03    1.502496153e-01
     2360750000   -5.278489552e-03    1.498118788e-01
     2361500000   -1.653970219e-02    1.482021660e-01
     2362250000   -3.301249817e-02    1.441524327e-01
     2363000000   -4.274122790e-02    1.409165263e-01
     2363750000   -5.640565231e-02    1.346770823e-01
     2364500000   -6.797762960e-02    1.275721490e-01
     2365250000   -7.799811661e-02    1.208413765e-01
     2366000000   -8.785203844e-02    1.119819283e-01
     2366750000   -9.643235803e-02    1.024219692e-01
     2367500000   -1.043183878e-01    9.269286692e-02
     2368250000   -1.112847850e-01    8.097857982e-02
     2369000000   -1.167569309e-01    7.025126368e-02
     2369750000   -1.216218248e-01    5.962765217e-02
     2370500000   -1.246253327e-01    4.798519984e-02
     2371250000   -1.273617297e-01    3.587950394e-02
     2372000000   -1.291623861e-01    2.282384783e-02
     2372750000   -1.293340027e-01    1.042080112e-02
     2373500000   -1.287209690e-01   -1.014802488e-03
     2374250000   -1.271130741e-01   -1.260214113e-02
     2375000000   -1.242513955e-01   -2.369559556e-02
     2375750000   -1.205142438e-01   -3.398736939e-02
     2376500000   -1.140310466e-01   -4.659236223e-02
     2377250000   -1.102065295e-01   -5.379453674e-02
     2378000000   -1.038614139e-01   -6.348694116e-02
     2378750000   -9.691076726e-02   -7.172100991e-02
     2379500000   -8.871147782e-02   -7.970646769e-02
     2380250000   -8.072557300e-02   -8.660808206e-02
     2381000000   -7.006192952e-02   -9.307780862e-02
     2381750000   -6.184292585e-02   -9.773560613e-02
     2382500000   -5.324427411e-02   -1.014034301e-01
     2383250000   -4.472115263e-02   -1.051189005e-01
     2384000000   -3.283708170e-02   -1.071047336e-01
     2384750000   -2.143338881e-02   -1.081324890e-01
     2385500000   -1.471548155e-02   -1.087407693e-01
     2386250000   -3.854959039e-03   -1.074729711e-01
     2387000000    4.239238799e-03   -1.065523103e-01
     2387750000    1.549366582e-02   -1.032318920e-01
     2388500000    2.286697179e-02   -1.004628763e-01
     2389250000    3.252062947e-02   -9.574401379e-02
     2390000000    3.846148029e-02   -9.261696786e-02
     2390750000    4.678642005e-02   -8.611836284e-02
     2391500000    5.488349870e-02   -7.829602808e-02
     2392250000    6.033174321e-02   -7.242204249e-02
     2393000000    6.618829072e-02   -6.491291523e-02
     2393750000    7.080967724e-02   -5.824595690e-02
     2394500000    7.419260591e-02   -5.183297396e-02
     2395250000    7.806323469e-02   -4.225319251e-02
     2396000000    8.058429509e-02   -3.581571206e-02
     2396750000    8.186189085e-02   -2.857186832e-02
     2397500000    8.267296106e-02   -1.913628727e-02
     2398250000    8.224607259e-02   -1.171932835e-02
     2399000000    8.122697473e-02   -3.062440082e-03
     2399750000    7.993371040e-02    3.684102092e-03
     2400500000    7.808060199e-02    9.526669979e-03
     2401250000    7.511706650e-02    1.657918096e-02
     2402000000    7.066531479e-02    2.343410626e-02
     2402750000    6.648547202e-02    2.832498401e-02
     2403500000    6.108232215e-02    3.459784761e-02
     2404250000    5.608544499e-02    3.894044086e-02
     2405000000    4.929279163e-02    4.326588288e-02
     2405750000    4.252424091e-02    4.698648304e-02
     2406500000    3.816594183e-02    4.946601018e-02
     2407250000    3.149348497e-02    5.193998665e-02
     2408000000    2.399797924e-02    5.371735245e-02
     2408750000    1.785016432e-02    5.470898747e-02
     2409500000    9.869927540e-03    5.499180779e-02
     2410250000    4.896285012e-03    5.521522462e-02
     2411000000   -2.877292689e-03    5.344017223e-02
     2411750000   -7.995904423e-03    5.259562284e-02
     2412500000   -1.338275708e-02    5.044282228e-02
     2413250000   -1.920996420e-02    4.771954939e-02
     2414000000   -2.394909412e-02    4.448676482e-02
     2414750000   -2.764860168e-02    4.198153690e-02
     2415500000   -3.252263740e-02    3.695962578e-02
     2416250000   -3.600926697e-02    3.234995902e-02
     2417000000   -3.917467967e-02    2.743244357e-02
     2417750000   -4.169714823e-02    2.363816276e-02
     2418500000   -4.298049957e-02    1.797667891e-02
     2419250000   -4.469998926e-02    1.256128959e-02
     2420000000   -4.505065456e-02    6.877289154e-03
     2420750000   -4.547002167e-02    2.687792759e-03
     2421500000   -4.493890703e-02   -3.199420404e-03
     2422250000   -4.400100932e-02   -7.830163464e-03
     2423000000   -4.271357134e-02   -1.223955210e-02
     2423750000   -4.010790586e-02   -1.761017554e-02
     2424500000   -3.749852628e-02   -2.195687033e-02
     2425250000   -3.437725455e-02   -2.642846666e-02
     2426000000   -3.221658245e-02   -2.965484560e-02
     2426750000   -2.886636555e-02   -3.245185688e-02
     2427500000   -2.333679236e-02   -3.589405492e-02
     2428250000   -1.983711123e-02   -3.752322122e-02
     2429000000   -1.677376963e-02   -3.925356269e-02
     2429750000   -1.042243652e-02   -4.141735658e-02
     2430500000   -6.319346372e-03   -4.153861105e-02
     2431250000   -5.861059763e-04   -4.230098799e-02
     2432000000    2.813722705e-03   -4.185486212e-02
     2432750000    6.193852983e-03   -4.153360799e-02
     2433500000    1.209929306e-02   -4.056112468e-02
     2434250000    1.600439660e-02   -3.906174004e-02
     2435000000    1.996836066e-02   -3.704789281e-02
     2435750000    2.404142730e-02   -3.495615348e-02
     2436500000    2.648906037e-02   -3.281773254e-02
     2437250000    3.053287975e-02   -2.950653993e-02
     2438000000    3.355298936e-02   -2.580036968e-02
     2438750000    3.611210361e-02   -2.243068255e-02
     2439500000    3.797221929e-02   -1.855352707e-02
     2440250000    3.891069442e-02   -1.672795601e-02
     2441000000    3.993846104e-02   -1.080842223e-02
     2441750000    4.074419290e-02   -7.804378867e-03
     2442500000    4.073786736e-02   -1.843806938e-03
     2443250000    4.032616690e-02    1.156487502e-03
     2444000000    3.957337886e-02    4.995756783e-03
     2444750000    3.851413727e-02    7.956922986e-03
     2445500000    3.663922474e-02    1.189579256e-02
     2446250000    3.482438624e-02    1.579035819e-02
     2447000000    3.251768276e-02    1.851383038e-02
     2447750000    2.959855273e-02    2.060189843e-02
     2448500000    2.623881400e-02    2.388926037e-02
     2449250000    2.297989279e-02    2.545525134e-02
     2450000000    1.987222768e-02    2.692776918e-02
     2450750000    1.630303077e-02    2.791643888e-02
     2451500000    1.204890013e-02    2.877568640e-02
     2452250000    8.492011577e-03    2.873983420e-02
     2453000000    4.755008966e-03    2.854705788e-02
     2453750000    5.923058488e-04    2.756953239e-02
     2454500000   -2.896081423e-03    2.645572461e-02
     2455250000   -6.546832621e-03    2.512844093e-02
     2456000000   -1.023922861e-02    2.322214842e-02
     2456750000   -1.504885592e-02    2.029748261e-02
     2457500000   -1.790229976e-02    1.740591414e-02
     2458250000   -1.918226853e-02    1.547841635e-02
     2459000000   -2.421287075e-02    1.083474420e-02
     2459750000   -2.534700930e-02    8.025364950e-03
     2460500000   -2.625872754e-02    4.990937654e-03
     2461250000   -2.835941128e-02    1.197753940e-03
     2462000000   -3.005131334e-02   -3.714879509e-03
     2462750000   -2.968131751e-02   -6.461664103e-03
     2463500000   -3.021985665e-02   -1.121145301e-02
     2464250000   -2.983031794e-02   -1.639640890e-02
     2465000000   -2.921230346e-02   -1.810401306e-02
     2465750000   -2.764068730e-02   -2.433912456e-02
     2466500000   -2.620589919e-02   -2.581105940e-02
     2467250000   -2.506438829e-02   -2.784275077e-02
     2468000000   -2.208790742e-02   -3.401025385e-02
     2468750000   -1.943300664e-02   -3.587295860e-02
     2469500000   -1.635980420e-02   -3.850083426e-02
     2470250000   -1.282184105e-02   -4.033071548e-02
     2471000000   -7.943673059e-03   -4.326920211e-02
     2471750000   -4.488492850e-03   -4.335058108e-02
     2472500000   -9.583279025e-04   -4.398520663e-02
     2473250000    3.118054010e-03   -4.441443458e-02
     2474000000    9.909044951e-03   -4.528835416e-02
     2474750000    1.236917544e-02   -4.365076125e-02
     2475500000    1.836374402e-02   -4.278555512e-02
     2476250000    2.236314677e-02   -4.155600071e-02
     2477000000    2.606979012e-02   -3.989794105e-02
     2477750000    2.972132526e-02   -3.710050881e-02
     2478500000    3.411263973e-02   -3.354859352e-02
     2479250000    3.729593009e-02   -3.013974428e-02
     2480000000    3.968666494e-02   -2.725939639e-02
     2480750000    4.335561022e-02   -2.240299433e-02
     2481500000    4.537859559e-02   -1.773118228e-02
     2482250000    4.739039764e-02   -1.306641661e-02
     2483000000    4.875249043e-02   -7.869007066e-03
     2483750000    4.982483760e-02   -2.529316349e-03
     2484500000    5.006333441e-02    2.460723277e-03
     2485250000    4.988003895e-02    8.027530275e-03
     2486000000    4.878373444e-02    1.324785966e-02
     2486750000    4.763128236e-02    1.845617220e-02
     2487500000    4.511614516e-02    2.412304655e-02
     2488250000    4.283057153e-02    2.897907235e-02
     2489000000    3.918970376e-02    3.425203636e-02
     2489750000    3.488997743e-02    3.843016922e-02
     2490500000    3.117584623e-02    4.339223728e-02
     2491250000    2.623522282e-02    4.882904142e-02
     2492000000    2.170518413e-02    5.046680197e-02
     2492750000    1.626263559e-02    5.422315747e-02
     2493500000    1.052834745e-02    5.663814023e-02
     2494250000    4.765556194e-03    5.949167535e-02
     2495000000   -1.616591588e-03    6.112805381e-02
     2495750000   -8.072777651e-03    6.158569083e-02
     2496500000   -1.450127829e-02    6.130531058e-02
     2497250000   -2.017149515e-02    6.067768112e-02
     2498000000   -2.769456245e-02    5.983586237e-02
     2498750000   -3.409681842e-02    5.756536499e-02
     2499500000   -3.968324512e-02    5.500078946e-02
     2500250000   -4.676418751e-02    5.175940692e-02
     2501000000   -5.189430714e-02    4.767028242e-02
     2501750000   -5.915714055e-02    4.365317896e-02
     2502500000   -6.249679998e-02    3.791925684e-02
     2503250000   -6.579086185e-02    3.297349811e-02
     2504000000   -7.138502598e-02    2.655582875e-02
     2504750000   -7.574769109e-02    1.842211746e-02
     2505500000   -7.697850466e-02    1.269775536e-02
     2506250000   -8.026196808e-02    4.378058016e-03
     2507000000   -8.056625724e-02   -2.332127187e-03
     2507750000   -8.074747026e-02   -1.016266923e-02
     2508500000   -8.132899553e-02   -1.863665693e-02
     2509250000   -8.025326580e-02   -2.661509439e-02
     2510000000   -7.876010984e-02   -3.458936512e-02
     2510750000   -7.530216128e-02   -4.189003259e-02
     2511500000   -7.239194214e-02   -5.050374940e-02
     2512250000   -6.876744330e-02   -5.656760186e-02
     2513000000   -6.361193955e-02   -6.495795399e-02
     2513750000   -5.846191570e-02   -7.000806183e-02
     2514500000   -5.257235467e-02   -7.803048939e-02
     2515250000   -4.595574737e-02   -8.343392611e-02
     2516000000   -3.827763721e-02   -8.735294640e-02
     2516750000   -3.284245729e-02   -9.544517845e-02
     2517500000   -2.460177988e-02   -9.832482785e-02
     2518250000   -1.457986608e-02   -1.017142236e-01
     2519000000   -5.935537163e-03   -1.034964174e-01
     2519750000    2.488433616e-03   -1.026443094e-01
     2520500000    1.388958748e-02   -1.037492156e-01
     2521250000    2.404514700e-02   -1.030632257e-01
     2522000000    3.366950527e-02   -1.005886868e-01
     2522750000    4.360418767e-02   -9.730206430e-02
     2523500000    5.343903229e-02   -9.386388212e-02
     2524250000    6.295599043e-02   -8.910668641e-02
     2525000000    7.188075781e-02   -8.264492452e-02
     2525750000    8.047426492e-02   -7.628166676e-02
     2526500000    8.815407753e-02   -6.916566193e-02
     2527250000    9.673032910e-02   -6.092608720e-02
     2528000000    1.037674025e-01   -5.246011913e-02
     2528750000    1.085583940e-01   -4.360888526e-02
     2529500000    1.135810539e-01   -3.337968141e-02
     2530250000    1.181929633e-01   -2.237161621e-02
     2531000000    1.217578948e-01   -1.219420787e-02
     2531750000    1.243312061e-01   -1.478203107e-03
     2532500000    1.253631264e-01    9.786604904e-03
     2533250000    1.250384748e-01    2.143657021e-02
     2534000000    1.239858121e-01    3.146152571e-02
     2534750000    1.219629943e-01    4.281197861e-02
     2535500000    1.185689941e-01    5.425396189e-02
     2536250000    1.138283536e-01    6.473547220e-02
     2537000000    1.086816788e-01    7.488208264e-02
     2537750000    1.023706123e-01    8.577576280e-02
     2538500000    9.425374120e-02    9.458380938e-02
     2539250000    8.633228391e-02    1.032873318e-01
     2540000000    7.591213286e-02    1.115682647e-01
     2540750000    6.679314375e-02    1.176780760e-01
     2541500000    5.538530648e-02    1.243634447e-01
     2542250000    4.314919189e-02    1.312665790e-01
     2543000000    3.222032636e-02    1.338707060e-01
     2543750000    2.013051324e-02    1.365638375e-01
     2544500000    6.096552126e-03    1.396071017e-01
     2545250000   -6.420633290e-03    1.393054277e-01
     2546000000   -2.085807174e-02    1.394002736e-01
     2546750000   -3.232902661e-02    1.358151138e-01
     2547500000   -4.581041634e-02    1.338381171e-01
     2548250000   -5.913401395e-02    1.292533129e-01
     2549000000   -7.201654464e-02    1.234482825e-01
     2549750000   -8.544466645e-02    1.161791682e-01
     2550500000   -9.504329413e-02    1.082890481e-01
     2551250000   -1.066969484e-01    9.945280105e-02
     2552000000   -1.152027249e-01    9.045749903e-02
     2552750000   -1.269042939e-01    7.890966535e-02
     2553500000   -1.349251419e-01    6.642264873e-02
     2554250000   -1.416287869e-01    5.419067293e-02
     2555000000   -1.463810354e-01    4.152193666e-02
     2555750000   -1.528297067e-01    2.574434131e-02
     2556500000   -1.540354341e-01    1.423661690e-02
     2557250000   -1.579497606e-01   -3.455827478e-03
     2558000000   -1.574440747e-01   -1.530212443e-02
     2558750000   -1.575742960e-01   -3.212760016e-02
     2559500000   -1.540986300e-01   -4.585611820e-02
     2560250000   -1.519318223e-01   -6.405810267e-02
     2561000000   -1.471110284e-01   -7.736816257e-02
     2561750000   -1.396593601e-01   -9.125348926e-02
     2562500000   -1.332131922e-01   -1.051175371e-01
     2563250000   -1.245799810e-01   -1.175033897e-01
     2564000000   -1.139006391e-01   -1.294825673e-01
     2564750000   -1.032376587e-01   -1.409455687e-01
     2565500000   -9.146749228e-02   -1.508077681e-01
     2566250000   -7.944732904e-02   -1.600011289e-01
     2567000000   -6.408894807e-02   -1.684603691e-01
     2567750000   -5.047181994e-02   -1.747716367e-01
     2568500000   -3.449060023e-02   -1.801602095e-01
     2569250000   -1.782892272e-02   -1.840974987e-01
     2570000000   -1.372511149e-03   -1.872423589e-01
     2570750000    1.504274458e-02   -1.874075085e-01
     2571500000    3.339121118e-02   -1.873522699e-01
     2572250000    4.696188122e-02   -1.847457588e-01
     2573000000    6.303576380e-02   -1.816228777e-01
     2573750000    8.025047183e-02   -1.761526614e-01
     2574500000    9.624122083e-02   -1.698228568e-01
     2575250000    1.105895713e-01   -1.606829315e-01
     2576000000    1.250690073e-01   -1.519488990e-01
     2576750000    1.376936138e-01   -1.400683224e-01
     2577500000    1.506640464e-01   -1.267406940e-01
     2578250000    1.617615074e-01   -1.130824164e-01
     2579000000    1.725565791e-01   -9.810806811e-02
     2579750000    1.826262772e-01   -8.173708618e-02
     2580500000    1.885113418e-01   -6.695301086e-02
     2581250000    1.952557266e-01   -4.867615551e-02
     2582000000    1.997278631e-01   -3.108033538e-02
     2582750000    2.024676353e-01   -1.194001269e-02
     2583500000    2.041112036e-01    6.070034113e-03
     2584250000    2.029749304e-01    2.449787036e-02
     2585000000    2.009641975e-01    4.459359869e-02
     2585750000    1.973471940e-01    6.053522602e-02
     2586500000    1.926215887e-01    8.182744682e-02
     2587250000    1.844582260e-01    9.757030010e-02
     2588000000    1.757988483e-01    1.137452424e-01
     2588750000    1.656303257e-01    1.321573853e-01
     2589500000    1.530115604e-01    1.467172205e-01
     2590250000    1.391216964e-01    1.631480604e-01
     2591000000    1.258339584e-01    1.733862609e-01
     2591750000    1.091040447e-01    1.853710413e-01
     2592500000    9.063717723e-02    1.969134957e-01
     2593250000    7.403135300e-02    2.062231004e-01
     2594000000    5.586330965e-02    2.124945223e-01
     2594750000    3.545866534e-02    2.177497894e-01
     2595500000    1.604910754e-02    2.215255201e-01
     2596250000   -6.720785052e-03    2.234157920e-01
     2597000000   -2.622418292e-02    2.234978825e-01
     2597750000   -4.584123567e-02    2.217872292e-01
     2598500000   -6.618174911e-02    2.178129405e-01
     2599250000   -8.743652701e-02    2.119980305e-01
     2600000000   -1.059526876e-01    2.048603296e-01
