! NanoVNA-App
! Date: 2026-05-22 17:34:30
! Start: 2.3GHz Stop: 2.6GHz Points: 401
! S-Parameter data: F S11
# Hz S RI R 50
!     Frequency           S11_Real           S11_Imag
     2300000000    3.097923398e-01    2.065858692e-01
     2300750000    2.898594737e-01    2.294885516e-01
     2301500000    2.627324760e-01    2.583978772e-01
     2302250000    2.387315482e-01    2.785223424e-01
     2303000000    2.111520171e-01    2.974800766e-01
     2303750000    1.791186482e-01    3.168767989e-01
     2304500000    1.514523476e-01    3.282124996e-01
     2305250000    1.199424043e-01    3.397079110e-01
     2306000000    8.847806603e-02    3.479821980e-01
     2306750000    5.832171068e-02    3.531181514e-01
     2307500000    2.366940491e-02    3.562591970e-01
     2308250000   -9.240667336e-03    3.552649319e-01
     2309000000   -3.910303861e-02    3.519979119e-01
     2309750000   -7.098150253e-02    3.452665806e-01
     2310500000   -1.019092724e-01    3.362544477e-01
     2311250000   -1.308253855e-01    3.251726925e-01
     2312000000   -1.581497788e-01    3.110995591e-01
     2312750000   -1.838010699e-01    2.956539690e-01
     2313500000   -2.104019374e-01    2.752093077e-01
     2314250000   -2.325995713e-01    2.552322745e-01
     2315000000   -2.526273429e-01    2.324980944e-01
     2315750000   -2.716609240e-01    2.070517093e-01
     2316500000   -2.872839868e-01    1.819851696e-01
     2317250000   -3.017369807e-01    1.528734714e-01
     2318000000   -3.110783696e-01    1.288183779e-01
     2318750000   -3.210933208e-01    9.616657346e-02
     2319500000   -3.249369860e-01    7.043695450e-02
     2320250000   -3.284296095e-01    4.050231725e-02
     2321000000   -3.289464414e-01    8.938303217e-03
     2321750000   -3.263353407e-01   -1.693326049e-02
     2322500000   -3.210765123e-01   -4.986090213e-02
     2323250000   -3.134753108e-01   -7.714746147e-02
     2324000000   -3.041853905e-01   -1.003606766e-01
     2324750000   -2.924412787e-01   -1.249010414e-01
     2325500000   -2.770561278e-01   -1.510553360e-01
     2326250000   -2.585074306e-01   -1.770968288e-01
     2327000000   -2.445644587e-01   -1.927548349e-01
     2327750000   -2.213723212e-01   -2.154857516e-01
     2328500000   -1.974985301e-01   -2.348201722e-01
     2329250000   -1.736566126e-01   -2.505779564e-01
     2330000000   -1.516537070e-01   -2.623234987e-01
     2330750000   -1.267121136e-01   -2.729925811e-01
     2331500000   -1.014130339e-01   -2.813292742e-01
     2332250000   -7.361102849e-02   -2.875423133e-01
     2333000000   -4.890579358e-02   -2.913842797e-01
     2333750000   -2.127821557e-02   -2.926345468e-01
     2334500000    5.661316682e-03   -2.917764783e-01
     2335250000    3.284556791e-02   -2.883450091e-01
     2336000000    5.739037693e-02   -2.827341557e-01
     2336750000    7.947614044e-02   -2.749894261e-01
     2337500000    1.035842746e-01   -2.655178905e-01
     2338250000    1.259931922e-01   -2.533921897e-01
     2339000000    1.466559321e-01   -2.404480726e-01
     2339750000    1.661639959e-01   -2.243964225e-01
     2340500000    1.843255758e-01   -2.073875219e-01
     2341250000    2.019375563e-01   -1.868166029e-01
     2342000000    2.163673937e-01   -1.669895202e-01
     2342750000    2.278518975e-01   -1.471967548e-01
     2343500000    2.381308824e-01   -1.266340613e-01
     2344250000    2.459006906e-01   -1.039496288e-01
     2345000000    2.522418499e-01   -8.079918474e-02
     2345750000    2.558414638e-01   -5.948722363e-02
     2346500000    2.583815157e-01   -3.508827835e-02
     2347250000    2.581773698e-01   -1.144838054e-02
     2348000000    2.555113137e-01    1.162560657e-02
     2348750000    2.507431805e-01    3.364351764e-02
     2349500000    2.451256216e-01    5.085646361e-02
     2350250000    2.357433587e-01    7.700403035e-02
     2351000000    2.273736298e-01    9.296288341e-02
     2351750000    2.129946947e-01    1.157337055e-01
     2352500000    2.018318772e-01    1.301930845e-01
     2353250000    1.850155741e-01    1.496421248e-01
     2354000000    1.692370027e-01    1.636077613e-01
     2354750000    1.537214667e-01    1.751869619e-01
     2355500000    1.347353756e-01    1.875101924e-01
     2356250000    1.154397577e-01    1.977879852e-01
     2357000000    9.637055546e-02    2.053945363e-01
     2357750000    7.919903100e-02    2.109369189e-01
     2358500000    5.781630427e-02    2.163961977e-01
     2359250000    3.550690785e-02    2.186871320e-01
     2360000000    1.707035117e-02    2.194438130e-01
     2360750000   -3.541133599e-03    2.180622071e-01
     2361500000   -2.342882007e-02    2.149447203e-01
     2362250000   -4.217528924e-02    2.106288075e-01
     2363000000   -6.029393151e-02    2.046361864e-01
     2363750000   -7.798377424e-02    1.968118101e-01
     2364500000   -9.317643195e-02    1.878106594e-01
     2365250000   -1.097268686e-01    1.772229522e-01
     2366000000   -1.241693720e-01    1.649756581e-01
     2366750000   -1.372264326e-01    1.518769860e-01
     2367500000   -1.490209252e-01    1.367731243e-01
     2368250000   -1.592685282e-01    1.218716279e-01
     2369000000   -1.676133871e-01    1.073156819e-01
     2369750000   -1.747636944e-01    9.040976316e-02
     2370500000   -1.809638143e-01    7.342788577e-02
     2371250000   -1.852584183e-01    5.551497638e-02
     2372000000   -1.876306683e-01    4.011990875e-02
     2372750000   -1.888655573e-01    2.027110010e-02
     2373500000   -1.889662147e-01    6.793400273e-03
     2374250000   -1.856122613e-01   -1.379605662e-02
     2375000000   -1.831543893e-01   -2.883264050e-02
     2375750000   -1.780539900e-01   -4.475001991e-02
     2376500000   -1.725543439e-01   -5.867344141e-02
     2377250000   -1.652247310e-01   -7.251641154e-02
     2378000000   -1.550627798e-01   -8.812669665e-02
     2378750000   -1.474439502e-01   -9.820550680e-02
     2379500000   -1.329743117e-01   -1.132148206e-01
     2380250000   -1.242440194e-01   -1.215473786e-01
     2381000000   -1.099244505e-01   -1.320428997e-01
     2381750000   -9.901195019e-02   -1.388153583e-01
     2382500000   -8.178279549e-02   -1.472599804e-01
     2383250000   -7.043734938e-02   -1.520763785e-01
     2384000000   -5.425403267e-02   -1.563467234e-01
     2384750000   -3.975082189e-02   -1.593659818e-01
     2385500000   -2.741449513e-02   -1.612178087e-01
     2386250000   -1.372883935e-02   -1.617719531e-01
     2387000000    3.458393505e-03   -1.596525759e-01
     2387750000    1.482145954e-02   -1.581956446e-01
     2388500000    2.911407687e-02   -1.544874161e-01
     2389250000    4.224992171e-02   -1.495606899e-01
     2390000000    5.288270488e-02   -1.448866725e-01
     2390750000    6.693924218e-02   -1.362875700e-01
     2391500000    7.724374533e-02   -1.286871284e-01
     2392250000    8.697866648e-02   -1.198689714e-01
     2393000000    9.737673402e-02   -1.090770140e-01
     2393750000    1.052181497e-01   -9.994354844e-02
     2394500000    1.116916761e-01   -9.047793597e-02
     2395250000    1.184699833e-01   -7.897408307e-02
     2396000000    1.237123087e-01   -6.685218215e-02
     2396750000    1.280594915e-01   -5.485969782e-02
     2397500000    1.310759485e-01   -4.370320588e-02
     2398250000    1.331854165e-01   -3.024765104e-02
     2399000000    1.340245157e-01   -1.971147396e-02
     2399750000    1.344221830e-01   -7.650522981e-03
     2400500000    1.332261711e-01    4.446767736e-03
     2401250000    1.307734251e-01    1.535699703e-02
     2402000000    1.255412400e-01    2.419392578e-02
     2402750000    1.235165596e-01    3.582562879e-02
     2403500000    1.177285761e-01    4.620445520e-02
     2404250000    1.128543094e-01    5.464727804e-02
     2405000000    1.060840040e-01    6.367285550e-02
     2405750000    9.911945462e-02    7.111226767e-02
     2406500000    9.116086364e-02    7.792747766e-02
     2407250000    8.340259641e-02    8.388651907e-02
     2408000000    7.410266995e-02    8.962355554e-02
     2408750000    6.591805071e-02    9.438493848e-02
     2409500000    5.685318261e-02    9.753540158e-02
     2410250000    4.921303317e-02    1.006673425e-01
     2411000000    3.722021356e-02    1.021304354e-01
     2411750000    3.052183241e-02    1.040579379e-01
     2412500000    1.987591758e-02    1.037633941e-01
     2413250000    1.100212429e-02    1.034693420e-01
     2414000000    2.166264225e-03    1.019409373e-01
     2414750000   -6.144143175e-03    1.003104597e-01
     2415500000   -1.370248571e-02    9.773833305e-02
     2416250000   -2.158509754e-02    9.402737021e-02
     2417000000   -2.895166166e-02    8.990441263e-02
     2417750000   -3.626746312e-02    8.561059088e-02
     2418500000   -4.221106321e-02    8.073037863e-02
     2419250000   -4.779592529e-02    7.542780787e-02
     2420000000   -4.193029553e-02    7.242605835e-02
     2420750000   -4.674766585e-02    6.809721142e-02
     2421500000   -5.152209103e-02    6.138303876e-02
     2422250000   -5.539616570e-02    5.610463768e-02
     2423000000   -5.864860117e-02    5.036083236e-02
     2423750000   -6.144504622e-02    4.451967031e-02
     2424500000   -6.361798197e-02    3.855417669e-02
     2425250000   -6.496592611e-02    3.189454228e-02
     2426000000   -6.604020298e-02    2.619764581e-02
     2426750000   -6.665858626e-02    2.069635689e-02
     2427500000   -6.578896195e-02    1.417633146e-02
     2428250000   -6.627865136e-02    9.172528982e-03
     2429000000   -6.573420018e-02    3.761577187e-03
     2429750000   -6.514541805e-02   -4.758465511e-04
     2430500000   -6.241394207e-02   -5.962792784e-03
     2431250000   -6.182529777e-02   -9.981046431e-03
     2432000000   -5.894536525e-02   -1.422082260e-02
     2432750000   -5.627053231e-02   -1.842442155e-02
     2433500000   -5.316957831e-02   -2.174752206e-02
     2434250000   -5.072615668e-02   -2.496028878e-02
     2435000000   -4.704891145e-02   -2.782533877e-02
     2435750000   -4.349984229e-02   -3.041556850e-02
     2436500000   -4.088599980e-02   -3.337452188e-02
     2437250000   -3.620723262e-02   -3.489401191e-02
     2438000000   -3.345006332e-02   -3.746542707e-02
     2438750000   -2.911211178e-02   -3.843516111e-02
     2439500000   -2.621739730e-02   -4.111456126e-02
     2440250000   -2.227168344e-02   -4.127660021e-02
     2441000000   -1.927078888e-02   -4.306799918e-02
     2441750000   -1.595417038e-02   -4.274874553e-02
     2442500000   -1.288570184e-02   -4.441677779e-02
     2443250000   -9.357011877e-03   -4.384981841e-02
     2444000000   -6.117132027e-03   -4.378147796e-02
     2444750000   -3.064116696e-03   -4.406384006e-02
     2445500000    2.270697005e-04   -4.502112418e-02
     2446250000    2.256323816e-03   -4.393495619e-02
     2447000000    4.994462244e-03   -4.342821613e-02
     2447750000    7.557577919e-03   -4.335132986e-02
     2448500000    9.876099415e-03   -4.314213991e-02
     2449250000    1.239957102e-02   -4.292059317e-02
     2450000000    1.425392460e-02   -4.234487936e-02
     2450750000    1.666805148e-02   -4.171770811e-02
     2451500000    1.854955405e-02   -4.148834571e-02
     2452250000    2.074026875e-02   -4.047454149e-02
     2453000000    2.282636613e-02   -3.981827199e-02
     2453750000    2.480651997e-02   -3.927234933e-02
     2454500000    2.668502927e-02   -3.819517419e-02
     2455250000    2.810962498e-02   -3.730931878e-02
     2456000000    3.071820736e-02   -3.633675352e-02
     2456750000    3.300004452e-02   -3.503128141e-02
     2457500000    3.434693068e-02   -3.386964649e-02
     2458250000    3.603782132e-02   -3.264205903e-02
     2459000000    3.895117342e-02   -3.091309965e-02
     2459750000    3.974058479e-02   -2.968976460e-02
     2460500000    4.140175879e-02   -2.829901129e-02
     2461250000    4.329077154e-02   -2.595530823e-02
     2462000000    4.484623298e-02   -2.384229191e-02
     2462750000    4.633619264e-02   -2.208531089e-02
     2463500000    4.768920317e-02   -2.008903585e-02
     2464250000    4.916071147e-02   -1.725889370e-02
     2465000000    4.999736696e-02   -1.574958675e-02
     2465750000    5.093140155e-02   -1.262211613e-02
     2466500000    5.196325108e-02   -1.000154205e-02
     2467250000    5.285936967e-02   -6.566851866e-03
     2468000000    5.297149718e-02   -3.809513990e-03
     2468750000    5.399256572e-02   -1.487634028e-03
     2469500000    5.341476202e-02    3.326834645e-03
     2470250000    5.369622260e-02    6.194373593e-03
     2471000000    5.423252285e-02    8.786225691e-03
     2471750000    5.337088555e-02    1.286645327e-02
     2472500000    5.231476575e-02    1.719906554e-02
     2473250000    5.172389746e-02    2.008139528e-02
     2474000000    5.024670437e-02    2.420545928e-02
     2474750000    4.794381931e-02    2.859515324e-02
     2475500000    4.678842798e-02    3.260737658e-02
     2476250000    4.438623041e-02    3.630409017e-02
     2477000000    4.223259538e-02    4.050042108e-02
     2477750000    3.882136196e-02    4.387304932e-02
     2478500000    3.487199917e-02    4.842315614e-02
     2479250000    3.172585741e-02    5.180628970e-02
     2480000000    2.784853987e-02    5.479726940e-02
     2480750000    2.319545485e-02    5.929661915e-02
     2481500000    1.862108521e-02    6.227822602e-02
     2482250000    1.276956592e-02    6.503008306e-02
     2483000000    8.044135757e-03    6.810662895e-02
     2483750000    2.577013802e-03    7.039405406e-02
     2484500000   -3.560721176e-03    7.173319161e-02
     2485250000   -9.529922158e-03    7.374145091e-02
     2486000000   -1.597283594e-02    7.459661365e-02
     2486750000   -2.250815183e-02    7.483034581e-02
     2487500000   -2.934840322e-02    7.490119338e-02
     2488250000   -3.571264073e-02    7.408053428e-02
     2489000000   -4.233179614e-02    7.292541862e-02
     2489750000   -4.927855358e-02    7.068792731e-02
     2490500000   -5.562400073e-02    6.815280765e-02
     2491250000   -6.250523031e-02    6.584183127e-02
     2492000000   -6.877767295e-02    6.249741837e-02
     2492750000   -7.416168600e-02    5.707207322e-02
     2493500000   -8.037218451e-02    5.280943215e-02
     2494250000   -8.605296910e-02    4.781475291e-02
     2495000000   -9.048089385e-02    4.130819812e-02
     2495750000   -9.520033747e-02    3.518680856e-02
     2496500000   -1.004826799e-01    2.826267481e-02
     2497250000   -1.033585891e-01    2.069413848e-02
     2498000000   -1.062898040e-01    1.321821008e-02
     2498750000   -1.067488566e-01    4.059260711e-03
     2499500000   -1.098446175e-01   -4.406023305e-03
     2500250000   -1.106305793e-01   -1.336683612e-02
     2501000000   -1.099838987e-01   -2.282090113e-02
     2501750000   -1.093385965e-01   -3.105182759e-02
     2502500000   -1.087696999e-01   -4.136417806e-02
     2503250000   -1.046571806e-01   -4.972223938e-02
     2504000000   -1.021289155e-01   -5.898451805e-02
     2504750000   -9.876754880e-02   -6.906857342e-02
     2505500000   -9.304133803e-02   -7.695810497e-02
     2506250000   -8.847646415e-02   -8.646262437e-02
     2507000000   -8.093421161e-02   -9.280586243e-02
     2507750000   -7.422870398e-02   -1.008286849e-01
     2508500000   -6.670710444e-02   -1.067663431e-01
     2509250000   -5.785455927e-02   -1.147718951e-01
     2510000000   -4.906148836e-02   -1.195485666e-01
     2510750000   -3.915399313e-02   -1.239657030e-01
     2511500000   -2.890263125e-02   -1.273332238e-01
     2512250000   -1.767776348e-02   -1.322651356e-01
     2513000000   -7.324290462e-03   -1.332876235e-01
     2513750000    3.942159005e-03   -1.337754428e-01
     2514500000    1.536672749e-02   -1.344061047e-01
     2515250000    2.680833638e-02   -1.336028427e-01
     2516000000    3.834663332e-02   -1.308496445e-01
     2516750000    4.923292622e-02   -1.282607168e-01
     2517500000    6.105865166e-02   -1.241029128e-01
     2518250000    7.151843607e-02   -1.188554317e-01
     2519000000    8.227600902e-02   -1.133121178e-01
     2519750000    9.223964065e-02   -1.057718024e-01
     2520500000    1.021532267e-01   -9.797836840e-02
     2521250000    1.096454710e-01   -8.840300888e-02
     2522000000    1.195006818e-01   -7.927625626e-02
     2522750000    1.263434291e-01   -6.822799891e-02
     2523500000    1.326791793e-01   -5.736836791e-02
     2524250000    1.387601942e-01   -4.515134916e-02
     2525000000    1.430396438e-01   -3.256462142e-02
     2525750000    1.460773498e-01   -1.943359338e-02
     2526500000    1.503666341e-01   -5.600624252e-03
     2527250000    1.513619870e-01    7.926116697e-03
     2528000000    1.519032866e-01    2.174003236e-02
     2528750000    1.509016454e-01    3.482763469e-02
     2529500000    1.497268379e-01    5.076999962e-02
     2530250000    1.454294324e-01    6.192050502e-02
     2531000000    1.410339773e-01    7.555638254e-02
     2531750000    1.356798857e-01    8.796089888e-02
     2532500000    1.285818815e-01    1.002193987e-01
     2533250000    1.207735837e-01    1.116709039e-01
     2534000000    1.114617810e-01    1.209333166e-01
     2534750000    1.011853814e-01    1.328087598e-01
     2535500000    8.929878473e-02    1.417612433e-01
     2536250000    7.756210119e-02    1.493407637e-01
     2537000000    6.434978545e-02    1.565885544e-01
     2537750000    5.101739615e-02    1.625514925e-01
     2538500000    3.657229245e-02    1.670878679e-01
     2539250000    2.112265676e-02    1.709663570e-01
     2540000000    5.928407423e-03    1.720286906e-01
     2540750000   -1.010112930e-02    1.731888205e-01
     2541500000   -2.632847242e-02    1.739971489e-01
     2542250000   -4.116854817e-02    1.712882072e-01
     2543000000   -5.748257414e-02    1.670972109e-01
     2543750000   -7.292879373e-02    1.630902290e-01
     2544500000   -8.812060207e-02    1.562238038e-01
     2545250000   -1.022745445e-01    1.488969922e-01
     2546000000   -1.169383451e-01    1.395646334e-01
     2546750000   -1.291125566e-01    1.294031888e-01
     2547500000   -1.418381333e-01    1.182202101e-01
     2548250000   -1.544237733e-01    1.045610309e-01
     2549000000   -1.635925025e-01    9.111721814e-02
     2549750000   -1.727968603e-01    7.638166100e-02
     2550500000   -1.809902191e-01    6.021754071e-02
     2551250000   -1.876205653e-01    4.411651567e-02
     2552000000   -1.899697036e-01    2.920928411e-02
     2552750000   -1.940864027e-01    1.086135302e-02
     2553500000   -1.959526986e-01   -7.209117059e-03
     2554250000   -1.959144622e-01   -2.530451491e-02
     2555000000   -1.947542429e-01   -4.434005916e-02
     2555750000   -1.900129318e-01   -5.974068493e-02
     2556500000   -1.860440373e-01   -7.965733111e-02
     2557250000   -1.801824570e-01   -9.866087139e-02
     2558000000   -1.713981032e-01   -1.112655774e-01
     2558750000   -1.609512120e-01   -1.304565966e-01
     2559500000   -1.493820399e-01   -1.450826377e-01
     2560250000   -1.370606273e-01   -1.594592482e-01
     2561000000   -1.225515753e-01   -1.723642945e-01
     2561750000   -1.075115353e-01   -1.834667474e-01
     2562500000   -9.068839997e-02   -1.954891086e-01
     2563250000   -7.277702540e-02   -2.040098459e-01
     2564000000   -5.686592311e-02   -2.096743435e-01
     2564750000   -3.728051484e-02   -2.154474854e-01
     2565500000   -1.532701589e-02   -2.219609469e-01
     2566250000    2.146432875e-03   -2.217058837e-01
     2567000000    2.430824004e-02   -2.230743319e-01
     2567750000    4.207200184e-02   -2.206218243e-01
     2568500000    6.346154213e-02   -2.173806280e-01
     2569250000    8.388798684e-02   -2.130645663e-01
     2570000000    1.034759656e-01   -2.060997337e-01
     2570750000    1.230525896e-01   -1.985780001e-01
     2571500000    1.388305724e-01   -1.885681599e-01
     2572250000    1.574708968e-01   -1.758109182e-01
     2573000000    1.723798662e-01   -1.628428847e-01
     2573750000    1.871891469e-01   -1.478896290e-01
     2574500000    1.995489746e-01   -1.310680062e-01
     2575250000    2.117562145e-01   -1.127908602e-01
     2576000000    2.216563374e-01   -9.540400654e-02
     2576750000    2.292528749e-01   -7.510416210e-02
     2577500000    2.357679158e-01   -5.442305282e-02
     2578250000    2.400131226e-01   -3.340566903e-02
     2579000000    2.427932620e-01   -1.166243386e-02
     2579750000    2.437931150e-01    1.068732236e-02
     2580500000    2.427769452e-01    3.074227646e-02
     2581250000    2.391831577e-01    5.438312888e-02
     2582000000    2.341375500e-01    7.610394061e-02
     2582750000    2.271456867e-01    9.772875905e-02
     2583500000    2.189306915e-01    1.158554628e-01
     2584250000    2.079740912e-01    1.380027831e-01
     2585000000    1.951156259e-01    1.541141868e-01
     2585750000    1.815098971e-01    1.724823415e-01
     2586500000    1.660744250e-01    1.904452741e-01
     2587250000    1.471388936e-01    2.054483593e-01
     2588000000    1.300033331e-01    2.152706385e-01
     2588750000    1.091852263e-01    2.296960354e-01
     2589500000    8.872838318e-02    2.394045442e-01
     2590250000    6.821070611e-02    2.454503179e-01
     2591000000    4.638265446e-02    2.515731156e-01
     2591750000    2.377573214e-02    2.551717758e-01
     2592500000   -1.051116851e-03    2.575289309e-01
     2593250000   -2.190877311e-02    2.562938035e-01
     2594000000   -4.880382866e-02    2.541946471e-01
     2594750000   -6.883019954e-02    2.476618141e-01
     2595500000   -9.572314471e-02    2.424970418e-01
     2596250000   -1.159778684e-01    2.331186980e-01
     2597000000   -1.376635581e-01    2.226411253e-01
     2597750000   -1.570635438e-01    2.095546424e-01
     2598500000   -1.799567193e-01    1.944808066e-01
     2599250000   -1.952171028e-01    1.792131215e-01
     2600000000   -2.108085454e-01    1.626710892e-01
