! NanoVNA-App
! Date: 2026-05-22 17:34:10
! Start: 2.3GHz Stop: 2.6GHz Points: 401
! S-Parameter data: F S11
# Hz S RI R 50
!     Frequency           S11_Real           S11_Imag
     2300000000    3.848718703e-01    1.521872580e-01
     2300750000    3.677376509e-01    1.838683635e-01
     2301500000    3.478615284e-01    2.131130844e-01
     2302250000    3.247822225e-01    2.435331792e-01
     2303000000    3.011095822e-01    2.685095668e-01
     2303750000    2.731200159e-01    2.928135693e-01
     2304500000    2.451638728e-01    3.133965731e-01
     2305250000    2.160041630e-01    3.314566910e-01
     2306000000    1.840901822e-01    3.476039171e-01
     2306750000    1.510324031e-01    3.603786826e-01
     2307500000    1.162588820e-01    3.707119823e-01
     2308250000    8.317438513e-02    3.764975965e-01
     2309000000    4.849709198e-02    3.799759746e-01
     2309750000    1.518198289e-02    3.806897998e-01
     2310500000   -1.890053786e-02    3.778824210e-01
     2311250000   -5.195301399e-02    3.732086122e-01
     2312000000   -8.468252420e-02    3.649468124e-01
     2312750000   -1.147371382e-01    3.546405733e-01
     2313500000   -1.431023329e-01    3.412148356e-01
     2314250000   -1.733762175e-01    3.251596689e-01
     2315000000   -2.004589438e-01    3.066323698e-01
     2315750000   -2.268262357e-01    2.853294015e-01
     2316500000   -2.484231591e-01    2.644054294e-01
     2317250000   -2.716905177e-01    2.374862432e-01
     2318000000   -2.894853950e-01    2.124403864e-01
     2318750000   -3.055199087e-01    1.852638721e-01
     2319500000   -3.205463588e-01    1.551029235e-01
     2320250000   -3.310663998e-01    1.256541610e-01
     2321000000   -3.388725519e-01    9.646096081e-02
     2321750000   -3.441769779e-01    6.514106691e-02
     2322500000   -3.460332155e-01    3.686446324e-02
     2323250000   -3.461920321e-01    1.163887791e-03
     2324000000   -3.424900770e-01   -2.499756403e-02
     2324750000   -3.372297287e-01   -5.257446319e-02
     2325500000   -3.286648989e-01   -8.241417259e-02
     2326250000   -3.156280518e-01   -1.155215651e-01
     2327000000   -3.042722642e-01   -1.366979927e-01
     2327750000   -2.893669903e-01   -1.613405496e-01
     2328500000   -2.681837976e-01   -1.893129349e-01
     2329250000   -2.521171868e-01   -2.073125243e-01
     2330000000   -2.317859977e-01   -2.266404778e-01
     2330750000   -2.090881169e-01   -2.444816530e-01
     2331500000   -1.841543168e-01   -2.612866461e-01
     2332250000   -1.604534835e-01   -2.735563517e-01
     2333000000   -1.308776736e-01   -2.863625586e-01
     2333750000   -1.076281965e-01   -2.937035263e-01
     2334500000   -7.995551080e-02   -3.001681268e-01
     2335250000   -5.402043462e-02   -3.037366867e-01
     2336000000   -2.580394037e-02   -3.056194782e-01
     2336750000    2.083931817e-03   -3.047993183e-01
     2337500000    2.740481682e-02   -3.020806909e-01
     2338250000    5.417103320e-02   -2.960992754e-01
     2339000000    7.929059118e-02   -2.884383202e-01
     2339750000    1.037972346e-01   -2.784302831e-01
     2340500000    1.263019890e-01   -2.675881088e-01
     2341250000    1.480112970e-01   -2.534811497e-01
     2342000000    1.683511883e-01   -2.374907285e-01
     2342750000    1.872125119e-01   -2.204152644e-01
     2343500000    2.032955885e-01   -2.037912160e-01
     2344250000    2.175766379e-01   -1.852009445e-01
     2345000000    2.331956327e-01   -1.589741707e-01
     2345750000    2.419134229e-01   -1.422336847e-01
     2346500000    2.513787746e-01   -1.185356453e-01
     2347250000    2.585206926e-01   -9.490412474e-02
     2348000000    2.624608874e-01   -7.259012759e-02
     2348750000    2.655049264e-01   -4.865793511e-02
     2349500000    2.665818334e-01   -2.960573696e-02
     2350250000    2.641775012e-01   -2.845429117e-04
     2351000000    2.614596784e-01    2.046798728e-02
     2351750000    2.556354403e-01    4.249053076e-02
     2352500000    2.486082017e-01    6.323559582e-02
     2353250000    2.376329005e-01    8.782967925e-02
     2354000000    2.290531695e-01    1.047001779e-01
     2354750000    2.149144560e-01    1.246078089e-01
     2355500000    2.038254887e-01    1.394685656e-01
     2356250000    1.876084656e-01    1.571320742e-01
     2357000000    1.689826101e-01    1.728274226e-01
     2357750000    1.537892967e-01    1.844671220e-01
     2358500000    1.353700608e-01    1.958770603e-01
     2359250000    1.151255816e-01    2.059473693e-01
     2360000000    9.851092845e-02    2.128948271e-01
     2360750000    7.902128249e-02    2.192691416e-01
     2361500000    5.703268573e-02    2.232996374e-01
     2362250000    3.855937347e-02    2.254088968e-01
     2363000000    1.871976070e-02    2.264349312e-01
     2363750000    1.811292022e-03    2.258413881e-01
     2364500000   -1.961826906e-02    2.223598957e-01
     2365250000   -3.897679225e-02    2.179830670e-01
     2366000000   -5.634946376e-02    2.120596915e-01
     2366750000   -7.394129038e-02    2.038504779e-01
     2367500000   -8.930705488e-02    1.957296878e-01
     2368250000   -1.060147583e-01    1.844274104e-01
     2369000000   -1.188064218e-01    1.749608666e-01
     2369750000   -1.323510259e-01    1.625006646e-01
     2370500000   -1.448994577e-01    1.476104110e-01
     2371250000   -1.551075876e-01    1.335493624e-01
     2372000000   -1.644002050e-01    1.191244349e-01
     2372750000   -1.726559103e-01    1.036589071e-01
     2373500000   -1.788249761e-01    8.718114346e-02
     2374250000   -1.836323440e-01    7.106334716e-02
     2375000000   -1.872601956e-01    5.424593762e-02
     2375750000   -1.897731274e-01    3.906459734e-02
     2376500000   -1.896485537e-01    1.964405552e-02
     2377250000   -1.896081418e-01    5.581962876e-03
     2378000000   -1.873123646e-01   -9.590479545e-03
     2378750000   -1.839448512e-01   -2.520181984e-02
     2379500000   -1.784359515e-01   -4.128491879e-02
     2380250000   -1.718724221e-01   -5.622525886e-02
     2381000000   -1.669240147e-01   -6.785369664e-02
     2381750000   -1.578718424e-01   -8.089000732e-02
     2382500000   -1.505716890e-01   -9.227805585e-02
     2383250000   -1.405922025e-01   -1.036305353e-01
     2384000000   -1.282191724e-01   -1.137036309e-01
     2384750000   -1.158048511e-01   -1.228145435e-01
     2385500000   -1.052946597e-01   -1.299941391e-01
     2386250000   -9.357424080e-02   -1.365271807e-01
     2387000000   -8.094794303e-02   -1.422192752e-01
     2387750000   -6.817954779e-02   -1.462385207e-01
     2388500000   -5.534630269e-02   -1.500814706e-01
     2389250000   -3.995608538e-02   -1.509792060e-01
     2390000000   -2.880476415e-02   -1.526691020e-01
     2390750000   -1.622101478e-02   -1.529663354e-01
     2391500000   -2.012013458e-03   -1.506282240e-01
     2392250000    1.020793058e-02   -1.486074924e-01
     2393000000    2.194344252e-02   -1.460827887e-01
     2393750000    3.338534012e-02   -1.418633759e-01
     2394500000    4.404159635e-02   -1.373928189e-01
     2395250000    5.531770736e-02   -1.308096498e-01
     2396000000    6.488800794e-02   -1.256786436e-01
     2396750000    7.393153757e-02   -1.189045534e-01
     2397500000    8.240504563e-02   -1.114864498e-01
     2398250000    8.990500122e-02   -1.027462780e-01
     2399000000    9.672753513e-02   -9.338069707e-02
     2399750000    1.026611775e-01   -8.563300222e-02
     2400500000    1.082065031e-01   -7.638859749e-02
     2401250000    1.122691035e-01   -6.721013784e-02
     2402000000    1.152390763e-01   -5.772113055e-02
     2402750000    1.177737564e-01   -4.896793142e-02
     2403500000    1.189637631e-01   -3.823758289e-02
     2404250000    1.194984838e-01   -2.923260257e-02
     2405000000    1.202078611e-01   -1.997442544e-02
     2405750000    1.193974838e-01   -1.072843745e-02
     2406500000    1.171731129e-01   -1.459265943e-03
     2407250000    1.146840826e-01    7.372798864e-03
     2408000000    1.116353124e-01    1.531156432e-02
     2408750000    1.088615581e-01    2.408769168e-02
     2409500000    1.042847335e-01    3.162014857e-02
     2410250000    1.001987830e-01    3.871226683e-02
     2411000000    9.418588877e-02    4.567196965e-02
     2411750000    9.078347683e-02    5.196484923e-02
     2412500000    8.439005166e-02    5.743194744e-02
     2413250000    7.879385352e-02    6.293512136e-02
     2414000000    7.271162421e-02    6.688947231e-02
     2414750000    6.670691818e-02    7.136642188e-02
     2415500000    6.129869074e-02    7.600816339e-02
     2416250000    5.364025012e-02    7.776699960e-02
     2417000000    4.725895077e-02    8.031512052e-02
     2417750000    4.042118788e-02    8.170486242e-02
     2418500000    3.395297378e-02    8.337755501e-02
     2419250000    2.736714669e-02    8.437107503e-02
     2420000000    2.137804590e-02    8.503636718e-02
     2420750000    1.493607182e-02    8.476441354e-02
     2421500000    8.504647762e-03    8.390776813e-02
     2422250000    2.708485117e-03    8.358334005e-02
     2423000000   -3.419504268e-03    8.255742490e-02
     2423750000   -8.976927027e-03    8.057922125e-02
     2424500000   -1.457547210e-02    7.847528160e-02
     2425250000   -1.967516169e-02    7.629671693e-02
     2426000000   -2.487490140e-02    7.358532399e-02
     2426750000   -3.013486788e-02    7.196263969e-02
     2427500000   -3.415369615e-02    6.863475591e-02
     2428250000   -3.878334537e-02    6.594213098e-02
     2429000000   -4.293169454e-02    6.252589077e-02
     2429750000   -4.638396949e-02    5.911844969e-02
     2430500000   -5.042310059e-02    5.593539029e-02
     2431250000   -5.292794481e-02    5.251934007e-02
     2432000000   -5.686084181e-02    4.935383052e-02
     2432750000   -5.964705721e-02    4.539401084e-02
     2433500000   -6.112327427e-02    4.202013463e-02
     2434250000   -6.470713019e-02    3.801171482e-02
     2435000000   -6.630293280e-02    3.446470201e-02
     2435750000   -6.806570292e-02    3.035060130e-02
     2436500000   -6.950834394e-02    2.630682476e-02
     2437250000   -7.193168253e-02    2.122538351e-02
     2438000000   -7.183615118e-02    1.821229607e-02
     2438750000   -7.274558395e-02    1.360626984e-02
     2439500000   -7.310771942e-02    9.483709931e-03
     2440250000   -7.447730005e-02    3.735510865e-03
     2441000000   -7.439327240e-02    4.765455378e-04
     2441750000   -7.359535992e-02   -3.247988177e-03
     2442500000   -7.364501804e-02   -8.770055138e-03
     2443250000   -7.293420285e-02   -1.266244985e-02
     2444000000   -7.221078873e-02   -1.600158587e-02
     2444750000   -7.090052217e-02   -2.212771773e-02
     2445500000   -6.917607039e-02   -2.606962994e-02
     2446250000   -6.756323576e-02   -2.982317470e-02
     2447000000   -6.543081254e-02   -3.428043798e-02
     2447750000   -6.312447041e-02   -3.850280866e-02
     2448500000   -5.992309749e-02   -4.331348464e-02
     2449250000   -5.726492777e-02   -4.706592485e-02
     2450000000   -5.398719013e-02   -5.053016171e-02
     2450750000   -5.015054718e-02   -5.453941599e-02
     2451500000   -4.617365450e-02   -5.790789053e-02
     2452250000   -4.225702956e-02   -6.168220192e-02
     2453000000   -3.766601533e-02   -6.520893425e-02
     2453750000   -3.300381824e-02   -6.845810264e-02
     2454500000   -2.709210850e-02   -7.102122903e-02
     2455250000   -2.252000198e-02   -7.393558323e-02
     2456000000   -1.724374667e-02   -7.628548145e-02
     2456750000   -1.025230438e-02   -7.802725583e-02
     2457500000   -4.985755309e-03   -7.961795479e-02
     2458250000    2.565341420e-04   -8.125787973e-02
     2459000000    7.278264500e-03   -8.124702424e-02
     2459750000    1.325386669e-02   -8.244509250e-02
     2460500000    1.921119913e-02   -8.254520595e-02
     2461250000    2.594254538e-02   -8.107727766e-02
     2462000000    3.280017525e-02   -7.984810323e-02
     2462750000    3.852611408e-02   -7.989613712e-02
     2463500000    4.508587345e-02   -7.602784783e-02
     2464250000    5.127711967e-02   -7.447084785e-02
     2465000000    5.757693574e-02   -7.074869424e-02
     2465750000    6.371612102e-02   -6.611483544e-02
     2466500000    6.958638132e-02   -6.303655356e-02
     2467250000    7.440590858e-02   -5.704397336e-02
     2468000000    7.941724360e-02   -5.145840719e-02
     2468750000    8.493638784e-02   -4.736074060e-02
     2469500000    8.830308914e-02   -3.995694593e-02
     2470250000    9.228799492e-02   -3.304583952e-02
     2471000000    9.660246968e-02   -2.643173374e-02
     2471750000    9.805763513e-02   -1.817685552e-02
     2472500000    1.008049846e-01   -1.073018741e-02
     2473250000    1.025175676e-01   -2.305568662e-03
     2474000000    1.024268791e-01    5.903101992e-03
     2474750000    1.038823873e-01    1.476611104e-02
     2475500000    1.022510901e-01    2.324703895e-02
     2476250000    1.022999883e-01    3.214327618e-02
     2477000000    1.002916321e-01    4.016743228e-02
     2477750000    9.652594477e-02    4.881881177e-02
     2478500000    9.351038188e-02    5.763600767e-02
     2479250000    8.948596567e-02    6.581939012e-02
     2480000000    8.444084972e-02    7.357956469e-02
     2480750000    7.880129665e-02    8.170304447e-02
     2481500000    7.140588760e-02    8.746793866e-02
     2482250000    6.472083181e-02    9.447104484e-02
     2483000000    5.695879459e-02    1.008013934e-01
     2483750000    4.871669784e-02    1.067138165e-01
     2484500000    3.935508803e-02    1.107161045e-01
     2485250000    2.984615229e-02    1.151013896e-01
     2486000000    2.000565454e-02    1.179348305e-01
     2486750000    9.004673921e-03    1.204287261e-01
     2487500000   -1.542245387e-03    1.221456155e-01
     2488250000   -1.223679446e-02    1.229581162e-01
     2489000000   -2.369656786e-02    1.231789514e-01
     2489750000   -3.506273776e-02    1.215952262e-01
     2490500000   -4.589622095e-02    1.194201037e-01
     2491250000   -5.762366205e-02    1.173274219e-01
     2492000000   -6.746524572e-02    1.123703793e-01
     2492750000   -7.866656780e-02    1.079152599e-01
     2493500000   -8.812668175e-02    1.015524566e-01
     2494250000   -9.756578505e-02    9.444569051e-02
     2495000000   -1.065489203e-01    8.636603504e-02
     2495750000   -1.159116924e-01    7.846684754e-02
     2496500000   -1.223765612e-01    6.816416234e-02
     2497250000   -1.286839843e-01    5.814961717e-02
     2498000000   -1.332428455e-01    4.773032293e-02
     2498750000   -1.406035572e-01    3.506045043e-02
     2499500000   -1.429216564e-01    2.364806831e-02
     2500250000   -1.462286860e-01    1.177270338e-02
     2501000000   -1.486356109e-01   -1.557783922e-03
     2501750000   -1.494355351e-01   -1.463364065e-02
     2502500000   -1.475411057e-01   -2.652597986e-02
     2503250000   -1.471191645e-01   -4.097746685e-02
     2504000000   -1.439239383e-01   -5.243813246e-02
     2504750000   -1.402694732e-01   -6.661378592e-02
     2505500000   -1.341651082e-01   -7.696038485e-02
     2506250000   -1.289735436e-01   -9.004225582e-02
     2507000000   -1.213183627e-01   -1.014970392e-01
     2507750000   -1.133209765e-01   -1.124206260e-01
     2508500000   -1.033458710e-01   -1.218602881e-01
     2509250000   -9.347441047e-02   -1.329909116e-01
     2510000000   -8.224486560e-02   -1.395020187e-01
     2510750000   -6.951833516e-02   -1.485866010e-01
     2511500000   -5.689077452e-02   -1.549057066e-01
     2512250000   -4.376251996e-02   -1.599622518e-01
     2513000000   -3.019887768e-02   -1.639262140e-01
     2513750000   -1.622358337e-02   -1.667820811e-01
     2514500000   -2.227245364e-03   -1.676428765e-01
     2515250000    1.414025761e-02   -1.695974767e-01
     2516000000    2.878619544e-02   -1.672601402e-01
     2516750000    4.277079552e-02   -1.648543179e-01
     2517500000    5.797888339e-02   -1.616615057e-01
     2518250000    7.141567022e-02   -1.556333154e-01
     2519000000    8.622173965e-02   -1.496673524e-01
     2519750000    9.914118052e-02   -1.411838531e-01
     2520500000    1.126937345e-01   -1.330900937e-01
     2521250000    1.257734895e-01   -1.225539446e-01
     2522000000    1.360918581e-01   -1.107724160e-01
     2522750000    1.461406201e-01   -9.868526459e-02
     2523500000    1.567604244e-01   -8.552064002e-02
     2524250000    1.641510874e-01   -7.038111240e-02
     2525000000    1.719664335e-01   -5.562180281e-02
     2525750000    1.778845936e-01   -3.932893649e-02
     2526500000    1.817662269e-01   -2.315813676e-02
     2527250000    1.854729205e-01   -6.219550502e-03
     2528000000    1.870660633e-01    9.610719047e-03
     2528750000    1.886182874e-01    2.827632986e-02
     2529500000    1.862976700e-01    4.427451640e-02
     2530250000    1.841272414e-01    6.238142401e-02
     2531000000    1.796907037e-01    7.824388891e-02
     2531750000    1.734992117e-01    9.385436773e-02
     2532500000    1.660360694e-01    1.094650254e-01
     2533250000    1.575616598e-01    1.248862594e-01
     2534000000    1.476263255e-01    1.384430230e-01
     2534750000    1.353339106e-01    1.525720656e-01
     2535500000    1.224709377e-01    1.645265669e-01
     2536250000    1.076302454e-01    1.751538962e-01
     2537000000    9.293298423e-02    1.842143238e-01
     2537750000    7.659947127e-02    1.936288029e-01
     2538500000    5.937862396e-02    2.006667852e-01
     2539250000    4.204879329e-02    2.053941190e-01
     2540000000    2.499112673e-02    2.084946185e-01
     2540750000    6.046014838e-03    2.117161304e-01
     2541500000   -1.333251782e-02    2.119405568e-01
     2542250000   -3.210726753e-02    2.104537189e-01
     2543000000   -5.211718380e-02    2.085783035e-01
     2543750000   -6.920903921e-02    2.029908746e-01
     2544500000   -8.791185915e-02    1.973042339e-01
     2545250000   -1.056304798e-01    1.889635175e-01
     2546000000   -1.208994612e-01    1.793561429e-01
     2546750000   -1.383582950e-01    1.675987542e-01
     2547500000   -1.539448798e-01    1.553705633e-01
     2548250000   -1.683495343e-01    1.405135989e-01
     2549000000   -1.792122275e-01    1.260844767e-01
     2549750000   -1.924040616e-01    1.085199341e-01
     2550500000   -2.022621036e-01    9.137681127e-02
     2551250000   -2.119117975e-01    7.191894203e-02
     2552000000   -2.143103778e-01    5.620830879e-02
     2552750000   -2.221535891e-01    3.346381336e-02
     2553500000   -2.264158577e-01    1.216816623e-02
     2554250000   -2.269506007e-01   -8.964171633e-03
     2555000000   -2.268585563e-01   -2.937084995e-02
     2555750000   -2.228852361e-01   -4.851727933e-02
     2556500000   -2.198279947e-01   -7.100327313e-02
     2557250000   -2.136523873e-01   -9.360876679e-02
     2558000000   -2.056287527e-01   -1.100551412e-01
     2558750000   -1.960783601e-01   -1.306231618e-01
     2559500000   -1.842021942e-01   -1.505382508e-01
     2560250000   -1.714564562e-01   -1.664031595e-01
     2561000000   -1.568693966e-01   -1.808940917e-01
     2561750000   -1.400285512e-01   -1.971754879e-01
     2562500000   -1.221872121e-01   -2.129245102e-01
     2563250000   -1.051498950e-01   -2.226651162e-01
     2564000000   -8.418192714e-02   -2.337629497e-01
     2564750000   -6.520409137e-02   -2.407976985e-01
     2565500000   -4.104899615e-02   -2.487249970e-01
     2566250000   -2.262794599e-02   -2.519143522e-01
     2567000000    3.063300159e-03   -2.563347518e-01
     2567750000    2.276626602e-02   -2.551228106e-01
     2568500000    4.741963372e-02   -2.538334429e-01
     2569250000    6.976822764e-02   -2.505747080e-01
     2570000000    9.163045883e-02   -2.448969483e-01
     2570750000    1.125272736e-01   -2.373539060e-01
     2571500000    1.353442222e-01   -2.281245738e-01
     2572250000    1.545393914e-01   -2.163256109e-01
     2573000000    1.721199900e-01   -2.031127810e-01
     2573750000    1.897826791e-01   -1.877304018e-01
     2574500000    2.067924440e-01   -1.695433259e-01
     2575250000    2.201747745e-01   -1.526404172e-01
     2576000000    2.336985916e-01   -1.305744201e-01
     2576750000    2.453284711e-01   -1.107113957e-01
     2577500000    2.546618283e-01   -8.841690421e-02
     2578250000    2.624528110e-01   -6.495259702e-02
     2579000000    2.665922344e-01   -4.080356285e-02
     2579750000    2.710332572e-01   -1.585379429e-02
     2580500000    2.713070214e-01    7.013871800e-03
     2581250000    2.699010372e-01    3.165494651e-02
     2582000000    2.676722109e-01    5.727948621e-02
     2582750000    2.621929944e-01    8.159000427e-02
     2583500000    2.544330657e-01    1.051473320e-01
     2584250000    2.442792952e-01    1.292486340e-01
     2585000000    2.335839421e-01    1.494832486e-01
     2585750000    2.179179937e-01    1.753745377e-01
     2586500000    2.044122964e-01    1.906820834e-01
     2587250000    1.845325083e-01    2.127587646e-01
     2588000000    1.683899760e-01    2.256310731e-01
     2588750000    1.451105922e-01    2.427539676e-01
     2589500000    1.222914234e-01    2.587241232e-01
     2590250000    1.002185792e-01    2.674843669e-01
     2591000000    7.837588340e-02    2.748569846e-01
     2591750000    4.958743230e-02    2.845034599e-01
     2592500000    2.339567430e-02    2.899098992e-01
     2593250000    4.943378735e-04    2.897619009e-01
     2594000000   -2.921215445e-02    2.891122103e-01
     2594750000   -5.359189957e-02    2.862589359e-01
     2595500000   -8.159981668e-02    2.807033062e-01
     2596250000   -1.062644124e-01    2.728469074e-01
     2597000000   -1.290318221e-01    2.644803822e-01
     2597750000   -1.528481543e-01    2.521816194e-01
     2598500000   -1.797243655e-01    2.377801090e-01
     2599250000   -1.998697966e-01    2.210744768e-01
     2600000000   -2.215093076e-01    2.036973536e-01
