! NanoVNA-App
! Date: 2026-05-22 17:32:26
! Start: 2.3GHz Stop: 2.6GHz Points: 401
! S-Parameter data: F S11
# Hz S RI R 50
!     Frequency           S11_Real           S11_Imag
     2300000000    2.178692967e-01    4.091394693e-02
     2300750000    2.102128267e-01    5.894015357e-02
     2301500000    2.020840347e-01    7.474989444e-02
     2302250000    1.926497072e-01    9.037011862e-02
     2303000000    1.808192879e-01    1.057271659e-01
     2303750000    1.692282259e-01    1.192976385e-01
     2304500000    1.546258181e-01    1.328258961e-01
     2305250000    1.427805424e-01    1.418017447e-01
     2306000000    1.283374876e-01    1.514853090e-01
     2306750000    1.122877970e-01    1.604876816e-01
     2307500000    9.726686776e-02    1.667398363e-01
     2308250000    8.034437895e-02    1.726734787e-01
     2309000000    6.572692841e-02    1.763231456e-01
     2309750000    5.051327497e-02    1.784656942e-01
              0    1.578017920e-01    1.031709611e-01
     2311250000    1.738325320e-02    1.794704348e-01
     2312000000    2.418441232e-03    1.777419299e-01
     2312750000   -1.214152202e-02    1.751090586e-01
     2313500000   -2.576074004e-02    1.713112742e-01
     2314250000   -4.121242464e-02    1.655421555e-01
     2315000000   -5.322329327e-02    1.605641991e-01
     2315750000   -6.703972816e-02    1.524851918e-01
     2316500000   -7.877884060e-02    1.444030404e-01
     2317250000   -8.799717575e-02    1.363107413e-01
     2318000000   -9.853002429e-02    1.258570850e-01
     2318750000   -1.067792177e-01    1.170882806e-01
     2319500000   -1.143753305e-01    1.065704003e-01
     2320250000   -1.213947684e-01    9.482751787e-02
     2321000000   -1.274914593e-01    8.291675150e-02
     2321750000   -1.308846623e-01    7.453128695e-02
     2322500000   -1.350870281e-01    5.839487165e-02
     2323250000   -1.367993951e-01    4.957148433e-02
     2324000000   -1.379088163e-01    3.524295986e-02
     2324750000   -1.383626163e-01    2.871986851e-02
     2325500000   -1.371390969e-01    1.173119806e-02
     2326250000   -1.355013549e-01    1.968068071e-03
     2327000000   -1.331968307e-01   -9.046778083e-03
     2327750000   -1.303488463e-01   -1.818023995e-02
     2328500000   -1.246645078e-01   -3.065869398e-02
     2329250000   -1.207950190e-01   -4.017526656e-02
     2330000000   -1.158158854e-01   -4.861548916e-02
     2330750000   -1.094047278e-01   -5.763938650e-02
     2331500000   -1.043867618e-01   -6.405679137e-02
     2332250000   -9.574069083e-02   -7.232533395e-02
     2333000000   -8.881910890e-02   -7.842068374e-02
     2333750000   -8.176755160e-02   -8.440324664e-02
     2334500000   -7.311166078e-02   -8.951251209e-02
     2335250000   -6.629457325e-02   -9.340065718e-02
     2336000000   -5.776223168e-02   -9.693589807e-02
     2336750000   -5.047594011e-02   -9.990756959e-02
     2337500000   -4.189644009e-02   -1.019059047e-01
     2338250000   -3.479371220e-02   -1.038751379e-01
     2339000000   -2.774935961e-02   -1.049010903e-01
     2339750000   -1.914668642e-02   -1.050469577e-01
     2340500000   -1.155786589e-02   -1.048861519e-01
     2341250000   -4.520141520e-03   -1.039426103e-01
     2342000000    2.128213877e-03   -1.028428748e-01
     2342750000    9.559381753e-03   -1.005882844e-01
     2343500000    1.533230674e-02   -9.899356216e-02
     2344250000    2.131729573e-02   -9.625151753e-02
     2345000000    2.791240439e-02   -9.206058830e-02
     2345750000    3.240989521e-02   -8.920047432e-02
     2346500000    3.705458343e-02   -8.733063936e-02
     2347250000    4.223735631e-02   -8.312246948e-02
     2348000000    4.651923850e-02   -7.694637030e-02
     2348750000    5.054745451e-02   -7.482334971e-02
     2349500000    5.403151736e-02   -6.996226311e-02
     2350250000    5.781178921e-02   -6.475076824e-02
     2351000000    6.072441861e-02   -6.112559885e-02
     2351750000    6.329300255e-02   -5.517955869e-02
     2352500000    6.503762305e-02   -5.001093075e-02
     2353250000    6.797330081e-02   -4.517091811e-02
     2354000000    6.904454529e-02   -3.988996148e-02
     2354750000    7.095549256e-02   -3.523743525e-02
     2355500000    7.379560918e-02   -3.112297878e-02
     2356250000    7.483729720e-02   -2.619710565e-02
     2357000000    7.495836914e-02   -2.077403478e-02
     2357750000    7.657041401e-02   -1.593085751e-02
     2358500000    7.840560377e-02   -1.167879999e-02
     2359250000    7.773596793e-02   -6.560428999e-03
     2360000000    7.923629880e-02   -2.174505265e-03
     2360750000    7.891562581e-02    2.957076998e-03
     2361500000    7.895224541e-02    7.544821594e-03
     2362250000    7.851979882e-02    1.155890897e-02
     2363000000    7.867759466e-02    1.667459495e-02
     2363750000    7.734646648e-02    2.055503987e-02
     2364500000    7.796373963e-02    2.548383921e-02
     2365250000    7.630028576e-02    2.991356701e-02
     2366000000    7.488198578e-02    3.415855765e-02
     2366750000    7.325958461e-02    3.862783685e-02
     2367500000    7.138801366e-02    4.240234196e-02
     2368250000    6.932857633e-02    4.687768593e-02
     2369000000    6.668565422e-02    5.115168169e-02
     2369750000    6.443122029e-02    5.604648218e-02
     2370500000    6.134735420e-02    6.063862890e-02
     2371250000    5.750235915e-02    6.468734145e-02
     2372000000    5.376154557e-02    6.844945252e-02
     2372750000    4.976278916e-02    7.360865176e-02
     2373500000    4.524957761e-02    7.641517371e-02
     2374250000    4.067248106e-02    8.080936968e-02
     2375000000    3.521554545e-02    8.458395302e-02
     2375750000    3.036312200e-02    8.771915734e-02
     2376500000    2.456185222e-02    9.117428213e-02
     2377250000    1.879154891e-02    9.416791052e-02
     2378000000    1.272512320e-02    9.638578445e-02
     2378750000    6.549695507e-03    9.819354117e-02
     2379500000   -2.764442761e-04    9.993319958e-02
     2380250000   -6.794661749e-03    1.010994390e-01
     2381000000   -1.463693567e-02    1.018843874e-01
     2381750000   -2.147241868e-02    1.020038873e-01
     2382500000   -2.887745760e-02    1.017569304e-01
     2383250000   -3.647873178e-02    1.005378366e-01
     2384000000   -4.408987984e-02    9.882593900e-02
     2384750000   -5.082266033e-02    9.668230265e-02
     2385500000   -5.958020315e-02    9.334725142e-02
     2386250000   -6.637067348e-02    9.046686441e-02
     2387000000   -7.398261130e-02    8.574814349e-02
     2387750000   -8.097134531e-02    8.133992553e-02
     2388500000   -8.768207580e-02    7.571008801e-02
     2389250000   -9.389652312e-02    6.991342455e-02
     2390000000   -9.993741661e-02    6.317228079e-02
     2390750000   -1.058257595e-01    5.484554917e-02
     2391500000   -1.110021174e-01    4.743706435e-02
     2392250000   -1.155416742e-01    3.936605528e-02
     2393000000   -1.194038764e-01    2.989052422e-02
     2393750000   -1.230378896e-01    1.989634335e-02
     2394500000   -1.257319748e-01    1.030259207e-02
     2395250000   -1.277591437e-01   -6.151714479e-04
     2396000000   -1.289362460e-01   -1.137248706e-02
     2396750000   -1.289435178e-01   -2.247263305e-02
     2397500000   -1.284528524e-01   -3.332876414e-02
     2398250000   -1.270557493e-01   -4.506682232e-02
     2399000000   -1.245950237e-01   -5.621201918e-02
     2399750000   -1.213240623e-01   -6.795247644e-02
     2400500000   -1.167771220e-01   -7.888834178e-02
     2401250000   -1.114204377e-01   -9.025999159e-02
     2402000000   -1.060290188e-01   -1.006576344e-01
     2402750000   -9.837307781e-02   -1.103468910e-01
     2403500000   -9.072014689e-02   -1.198737025e-01
     2404250000   -8.165957034e-02   -1.285851598e-01
     2405000000   -7.240414619e-02   -1.370124370e-01
     2405750000   -6.173390150e-02   -1.444647461e-01
     2406500000   -5.062283203e-02   -1.511875391e-01
     2407250000   -3.876199573e-02   -1.567029059e-01
     2408000000   -2.611807920e-02   -1.609360278e-01
     2408750000   -1.310990378e-02   -1.648528874e-01
     2409500000    2.027805749e-04   -1.669657826e-01
     2410250000    1.419711951e-02   -1.684459001e-01
     2411000000    2.820354700e-02   -1.683318764e-01
     2411750000    4.233598709e-02   -1.674701869e-01
     2412500000    5.619581789e-02   -1.650072485e-01
     2413250000    7.032942772e-02   -1.615110785e-01
     2414000000    8.419095725e-02   -1.566235721e-01
     2414750000    9.789898247e-02   -1.505926102e-01
     2415500000    1.108738109e-01   -1.428506374e-01
     2416250000    1.235181913e-01   -1.346221417e-01
     2417000000    1.356126964e-01   -1.249257624e-01
     2417750000    1.465584934e-01   -1.140906885e-01
     2418500000    1.570041329e-01   -1.022576764e-01
     2419250000    1.662200987e-01   -8.931759745e-02
     2420000000    1.742288917e-01   -7.566382736e-02
     2420750000    1.814373881e-01   -6.137554720e-02
     2421500000    1.866755038e-01   -4.596590996e-02
     2422250000    1.916830689e-01   -2.989014238e-02
     2423000000    1.948933154e-01   -1.335335895e-02
     2423750000    1.962281317e-01    3.322207602e-03
     2424500000    1.962093115e-01    2.028937824e-02
     2425250000    1.956792176e-01    3.735197335e-02
     2426000000    1.929827332e-01    5.443940312e-02
     2426750000    1.882303953e-01    7.160071284e-02
     2427500000    1.833286732e-01    8.857851475e-02
     2428250000    1.759846956e-01    1.052035466e-01
     2429000000    1.671139300e-01    1.201477945e-01
     2429750000    1.564758271e-01    1.355816126e-01
     2430500000    1.459007561e-01    1.508465260e-01
     2431250000    1.331187189e-01    1.638064981e-01
     2432000000    1.189987138e-01    1.760204434e-01
     2432750000    1.036189273e-01    1.874353439e-01
     2433500000    8.746320754e-02    1.977250874e-01
     2434250000    7.060560584e-02    2.055162489e-01
     2435000000    5.346982554e-02    2.121799141e-01
     2435750000    3.441461921e-02    2.172641754e-01
     2436500000    1.512490585e-02    2.224493921e-01
     2437250000   -3.398446366e-03    2.232644260e-01
     2438000000   -2.300242335e-02    2.230094671e-01
     2438750000   -4.347905517e-02    2.221692502e-01
     2439500000   -6.243772432e-02    2.181410789e-01
     2440250000   -8.194673061e-02    2.126373202e-01
     2441000000   -1.014392152e-01    2.061556727e-01
     2441750000   -1.191215441e-01    1.965700984e-01
     2442500000   -1.375793964e-01    1.865734309e-01
     2443250000   -1.533181965e-01    1.741673797e-01
     2444000000   -1.711128056e-01    1.609687954e-01
     2444750000   -1.850129962e-01    1.452765465e-01
     2445500000   -1.987536252e-01    1.285755783e-01
     2446250000   -2.109199911e-01    1.111019179e-01
     2447000000   -2.218403071e-01    9.203635901e-02
     2447750000   -2.312598526e-01    7.194674015e-02
     2448500000   -2.382093668e-01    5.105540529e-02
     2449250000   -2.441450357e-01    2.943427674e-02
     2450000000   -2.477603555e-01    6.980339531e-03
     2450750000   -2.490136921e-01   -1.534163579e-02
     2451500000   -2.490385920e-01   -3.845919669e-02
     2452250000   -2.469961047e-01   -6.109141931e-02
     2453000000   -2.428079396e-01   -8.390714973e-02
     2453750000   -2.362560630e-01   -1.054108143e-01
     2454500000   -2.286332101e-01   -1.276678890e-01
     2455250000   -2.181883156e-01   -1.491663903e-01
     2456000000   -2.063800097e-01   -1.683468819e-01
     2456750000   -1.922823638e-01   -1.865473986e-01
     2457500000   -1.770815402e-01   -2.053294778e-01
     2458250000   -1.599478573e-01   -2.211421877e-01
     2459000000   -1.410649568e-01   -2.360070497e-01
     2459750000   -1.216655001e-01   -2.488507479e-01
     2460500000   -1.000472978e-01   -2.615625560e-01
     2461250000   -7.854571939e-02   -2.697462142e-01
     2462000000   -5.424096063e-02   -2.784458101e-01
     2462750000   -3.244026378e-02   -2.824954689e-01
     2463500000   -7.269583642e-03   -2.868365049e-01
     2464250000    1.610261388e-02   -2.871749401e-01
     2465000000    4.017013311e-02   -2.856625915e-01
     2465750000    6.590342522e-02   -2.828184366e-01
     2466500000    9.119805694e-02   -2.773725092e-01
     2467250000    1.138814986e-01   -2.691601217e-01
     2468000000    1.346895695e-01   -2.590927780e-01
     2468750000    1.598690897e-01   -2.474637330e-01
     2469500000    1.804847419e-01   -2.332895696e-01
     2470250000    1.999019384e-01   -2.167239040e-01
     2471000000    2.187823653e-01   -1.988219619e-01
     2471750000    2.352587283e-01   -1.791068017e-01
     2472500000    2.492298782e-01   -1.590825021e-01
     2473250000    2.639227509e-01   -1.354916841e-01
     2474000000    2.760696709e-01   -1.110175550e-01
     2474750000    2.839183807e-01   -8.647852391e-02
     2475500000    2.903882563e-01   -6.156641990e-02
     2476250000    2.959194481e-01   -3.390398994e-02
     2477000000    2.985219657e-01   -6.520683877e-03
     2477750000    2.970654666e-01    1.891301572e-02
     2478500000    2.948191166e-01    4.596875980e-02
     2479250000    2.903159857e-01    7.345686853e-02
     2480000000    2.829645276e-01    9.966716170e-02
     2480750000    2.731465697e-01    1.263367385e-01
     2481500000    2.610500753e-01    1.511057168e-01
     2482250000    2.464058846e-01    1.738208532e-01
     2483000000    2.301192731e-01    1.967063248e-01
     2483750000    2.126602978e-01    2.183981836e-01
     2484500000    1.916363835e-01    2.378337979e-01
     2485250000    1.696596444e-01    2.561028302e-01
     2486000000    1.465018392e-01    2.706752121e-01
     2486750000    1.211239696e-01    2.850850821e-01
     2487500000    9.536237270e-02    2.952940166e-01
     2488250000    6.853610277e-02    3.046550453e-01
     2489000000    4.112215713e-02    3.106496930e-01
     2489750000    1.356915012e-02    3.133167922e-01
     2490500000   -1.649578847e-02    3.160105646e-01
     2491250000   -4.553660378e-02    3.151041269e-01
     2492000000   -7.367461920e-02    3.107659519e-01
     2492750000   -1.032379046e-01    3.048214912e-01
     2493500000   -1.282312870e-01    2.953085303e-01
     2494250000   -1.563506424e-01    2.840518951e-01
     2495000000   -1.821540743e-01    2.697637081e-01
     2495750000   -2.066686600e-01    2.541114390e-01
     2496500000   -2.274270952e-01    2.355433702e-01
     2497250000   -2.504457235e-01    2.151293755e-01
     2498000000   -2.671923339e-01    1.934916228e-01
     2498750000   -2.852473259e-01    1.684998870e-01
     2499500000   -3.007997870e-01    1.427791417e-01
     2500250000   -3.142456114e-01    1.146786064e-01
     2501000000   -3.233130872e-01    8.656012267e-02
     2501750000   -3.304093182e-01    5.875574797e-02
     2502500000   -3.359199166e-01    2.805528231e-02
     2503250000   -3.368598521e-01    2.457867959e-05
     2504000000   -3.377681077e-01   -3.304814175e-02
     2504750000   -3.337196708e-01   -6.341141462e-02
     2505500000   -3.278993070e-01   -9.445618093e-02
     2506250000   -3.184199631e-01   -1.219474599e-01
     2507000000   -3.064978421e-01   -1.499602050e-01
     2507750000   -2.927772999e-01   -1.769154072e-01
     2508500000   -2.758408189e-01   -2.036757916e-01
     2509250000   -2.565051615e-01   -2.296536863e-01
     2510000000   -2.348145545e-01   -2.537528574e-01
     2510750000   -2.112137079e-01   -2.741401196e-01
     2511500000   -1.875447333e-01   -2.924591303e-01
     2512250000   -1.582865268e-01   -3.107519150e-01
     2513000000   -1.304892451e-01   -3.234620690e-01
     2513750000   -1.015211344e-01   -3.351174295e-01
     2514500000   -7.077476382e-02   -3.447480798e-01
     2515250000   -3.840404004e-02   -3.506702483e-01
     2516000000   -8.596376516e-03   -3.531714082e-01
     2516750000    2.299130894e-02   -3.532879055e-01
     2517500000    5.747458339e-02   -3.512470722e-01
     2518250000    8.920200169e-02   -3.457373381e-01
     2519000000    1.190499291e-01   -3.366725147e-01
     2519750000    1.491235942e-01   -3.259890378e-01
     2520500000    1.782502085e-01   -3.114443719e-01
     2521250000    2.071358562e-01   -2.950754762e-01
     2522000000    2.330882549e-01   -2.757045925e-01
     2522750000    2.569626868e-01   -2.543381453e-01
     2523500000    2.800520658e-01   -2.309453189e-01
     2524250000    3.022452891e-01   -2.041409761e-01
     2525000000    3.200031817e-01   -1.766202897e-01
     2525750000    3.352274299e-01   -1.473012418e-01
     2526500000    3.492958546e-01   -1.163235605e-01
     2527250000    3.594086170e-01   -8.488925546e-02
     2528000000    3.669648468e-01   -5.237160623e-02
     2528750000    3.709729910e-01   -1.904486679e-02
     2529500000    3.719522655e-01    1.441764180e-02
     2530250000    3.706036806e-01    4.754684493e-02
     2531000000    3.658157587e-01    8.056258410e-02
     2531750000    3.582654297e-01    1.132319197e-01
     2532500000    3.477318585e-01    1.460662931e-01
     2533250000    3.342492282e-01    1.772288531e-01
     2534000000    3.172743618e-01    2.051100135e-01
     2534750000    2.979989648e-01    2.333278805e-01
     2535500000    2.757639885e-01    2.597835064e-01
     2536250000    2.515228689e-01    2.842728496e-01
     2537000000    2.249089926e-01    3.059492409e-01
     2537750000    1.968649030e-01    3.259994686e-01
     2538500000    1.669071466e-01    3.441281915e-01
     2539250000    1.352408528e-01    3.576274514e-01
     2540000000    1.020008475e-01    3.697326481e-01
     2540750000    6.950982660e-02    3.767259717e-01
     2541500000    3.536608070e-02    3.817280531e-01
     2542250000   -6.737500080e-04    3.859395385e-01
     2543000000   -3.531584889e-02    3.839317262e-01
     2543750000   -7.182411849e-02    3.811737597e-01
     2544500000   -1.057426482e-01    3.737697601e-01
     2545250000   -1.393109709e-01    3.633968532e-01
     2546000000   -1.735394001e-01    3.513199985e-01
     2546750000   -2.019880861e-01    3.339489996e-01
     2547500000   -2.329107672e-01    3.150538802e-01
     2548250000   -2.624903917e-01    2.933677137e-01
     2549000000   -2.873365283e-01    2.690137923e-01
     2549750000   -3.137198091e-01    2.412369847e-01
     2550500000   -3.349228799e-01    2.138272226e-01
     2551250000   -3.546572030e-01    1.819817126e-01
     2552000000   -3.695423305e-01    1.521941125e-01
     2552750000   -3.830188215e-01    1.170992479e-01
     2553500000   -3.927372694e-01    8.109980077e-02
     2554250000   -4.007656574e-01    4.574934766e-02
     2555000000   -4.036947787e-01    9.862340055e-03
     2555750000   -4.021269083e-01   -2.258268371e-02
     2556500000   -4.014447927e-01   -6.358329207e-02
     2557250000   -3.943507969e-01   -1.008291170e-01
     2558000000   -3.846984506e-01   -1.324625909e-01
     2558750000   -3.717790246e-01   -1.679217517e-01
     2559500000   -3.548309207e-01   -2.015681267e-01
     2560250000   -3.358971775e-01   -2.307285517e-01
     2561000000   -3.133023679e-01   -2.640008330e-01
     2561750000   -2.893563509e-01   -2.901672125e-01
     2562500000   -2.626876235e-01   -3.153409064e-01
     2563250000   -2.344227433e-01   -3.382986188e-01
     2564000000   -2.012567520e-01   -3.609999418e-01
     2564750000   -1.711363941e-01   -3.751717806e-01
     2565500000   -1.323465556e-01   -3.938923180e-01
     2566250000   -1.019946933e-01   -4.028348625e-01
     2567000000   -6.198861077e-02   -4.121892750e-01
     2567750000   -2.756278589e-02   -4.169277549e-01
     2568500000    1.394509058e-02   -4.193271697e-01
     2569250000    4.675237462e-02   -4.167779982e-01
     2570000000    8.735211939e-02   -4.124523699e-01
     2570750000    1.257571876e-01   -4.033928812e-01
     2571500000    1.611114144e-01   -3.927189112e-01
     2572250000    1.950937510e-01   -3.764527440e-01
     2573000000    2.276696116e-01   -3.579129279e-01
     2573750000    2.602036893e-01   -3.364869952e-01
     2574500000    2.917401791e-01   -3.109614253e-01
     2575250000    3.160396814e-01   -2.854610085e-01
     2576000000    3.410515785e-01   -2.563021183e-01
     2576750000    3.629630506e-01   -2.237933725e-01
     2577500000    3.820672929e-01   -1.899777949e-01
     2578250000    3.980343938e-01   -1.549869478e-01
     2579000000    4.079240561e-01   -1.221270412e-01
     2579750000    4.208471775e-01   -8.102846891e-02
     2580500000    4.269655645e-01   -4.192772880e-02
     2581250000    4.279862642e-01   -3.631877480e-03
     2582000000    4.281151891e-01    3.481465206e-02
     2582750000    4.243798554e-01    7.662865520e-02
     2583500000    4.161839485e-01    1.113914326e-01
     2584250000    4.038296938e-01    1.501049846e-01
     2585000000    3.895497024e-01    1.857855469e-01
     2585750000    3.718167841e-01    2.212412953e-01
     2586500000    3.520201445e-01    2.551068068e-01
     2587250000    3.264700174e-01    2.868279219e-01
     2588000000    2.986015975e-01    3.153871894e-01
     2588750000    2.693080604e-01    3.415451646e-01
     2589500000    2.379359007e-01    3.652845621e-01
     2590250000    2.034301311e-01    3.870047629e-01
     2591000000    1.726417094e-01    4.009008408e-01
     2591750000    1.312776655e-01    4.169532955e-01
     2592500000    9.141149372e-02    4.289570153e-01
     2593250000    5.248491466e-02    4.362102747e-01
     2594000000    1.505896263e-02    4.382664859e-01
     2594750000   -2.176122554e-02    4.378358722e-01
     2595500000   -6.593655795e-02    4.349350631e-01
     2596250000   -1.080565974e-01    4.287667274e-01
     2597000000   -1.435837448e-01    4.163811803e-01
     2597750000   -1.783636063e-01    4.038185477e-01
     2598500000   -2.145989090e-01    3.868857026e-01
     2599250000   -2.551640272e-01    3.636152744e-01
     2600000000   -2.878002524e-01    3.409801722e-01
