! NanoVNA-App
! Date: 2026-05-22 17:31:47
! Start: 2.3GHz Stop: 2.6GHz Points: 401
! S-Parameter data: F S11
# Hz S RI R 50
!     Frequency           S11_Real           S11_Imag
     2300000000    2.584441900e-01    9.690753371e-02
     2300750000    2.457230836e-01    1.193900332e-01
     2301500000    2.319479585e-01    1.400043964e-01
     2302250000    2.163442671e-01    1.593681276e-01
     2303000000    2.003447860e-01    1.756228954e-01
     2303750000    1.805158854e-01    1.927797347e-01
     2304500000    1.627959907e-01    2.048445046e-01
     2305250000    1.422930956e-01    2.173620015e-01
     2306000000    1.221915781e-01    2.270498872e-01
     2306750000    9.979692847e-02    2.353255749e-01
     2307500000    7.708837837e-02    2.410577238e-01
     2308250000    5.407743901e-02    2.456488162e-01
     2309000000    3.452320024e-02    2.467580736e-01
     2309750000    1.048522536e-02    2.468514442e-01
     2310500000   -1.177448686e-02    2.447624803e-01
     2311250000   -3.237676248e-02    2.407131344e-01
     2312000000   -5.366244540e-02    2.349372655e-01
     2312750000   -7.342531532e-02    2.270447314e-01
     2313500000   -9.200468659e-02    2.176045030e-01
     2314250000   -1.109078154e-01    2.065939754e-01
     2315000000   -1.273933798e-01    1.941363066e-01
     2315750000   -1.428166777e-01    1.798989624e-01
     2316500000   -1.564323157e-01    1.654455066e-01
     2317250000   -1.682538986e-01    1.501360238e-01
     2318000000   -1.800433695e-01    1.326210052e-01
     2318750000   -1.887583137e-01    1.154482365e-01
     2319500000   -1.971673518e-01    9.522958100e-02
     2320250000   -2.025996298e-01    8.002486080e-02
     2321000000   -2.075249255e-01    5.807364359e-02
     2321750000   -2.090354115e-01    4.404870793e-02
     2322500000   -2.100147903e-01    2.263349667e-02
     2323250000   -2.087385207e-01    3.629247425e-03
     2324000000   -2.059464604e-01   -1.639715396e-02
     2324750000   -2.021729946e-01   -3.045286797e-02
     2325500000   -1.961097121e-01   -4.902084172e-02
     2326250000   -1.883514225e-01   -6.632794440e-02
     2327000000   -1.811185181e-01   -7.889910787e-02
     2327750000   -1.688464284e-01   -9.676848352e-02
     2328500000   -1.567761600e-01   -1.117568612e-01
     2329250000   -1.469620913e-01   -1.211844087e-01
     2330000000   -1.326143444e-01   -1.334038526e-01
     2330750000   -1.202003881e-01   -1.424120367e-01
     2331500000   -1.043853834e-01   -1.510206461e-01
     2332250000   -9.168032557e-02   -1.573762000e-01
     2333000000   -7.226039469e-02   -1.644801050e-01
     2333750000   -5.680876970e-02   -1.687032729e-01
     2334500000   -4.156274721e-02   -1.710266620e-01
     2335250000   -2.588674612e-02   -1.721093953e-01
     2336000000   -9.707084857e-03   -1.720989048e-01
     2336750000    5.714629777e-03   -1.707964540e-01
     2337500000    2.040382288e-02   -1.675712466e-01
     2338250000    3.483340517e-02   -1.638045609e-01
     2339000000    4.753757641e-02   -1.590195596e-01
     2339750000    6.150041148e-02   -1.520009786e-01
     2340500000    7.441262156e-02   -1.443159729e-01
     2341250000    8.548679948e-02   -1.360315382e-01
     2342000000    9.586999565e-02   -1.260436028e-01
     2342750000    1.048782989e-01   -1.167485714e-01
     2343500000    1.139306352e-01   -1.052086875e-01
     2344250000    1.236132234e-01   -9.107382596e-02
     2345000000    1.290992796e-01   -8.075173199e-02
     2345750000    1.337988377e-01   -6.784084439e-02
     2346500000    1.368893981e-01   -5.515348539e-02
     2347250000    1.390614063e-01   -4.555302858e-02
     2348000000    1.403487027e-01   -2.977053076e-02
     2348750000    1.401486546e-01   -1.759698614e-02
     2349500000    1.396887600e-01   -6.404182408e-03
     2350250000    1.369933486e-01    6.172819063e-03
     2351000000    1.342694312e-01    1.582599618e-02
     2351750000    1.294619888e-01    2.903276123e-02
     2352500000    1.239446327e-01    3.943794966e-02
     2353250000    1.183748245e-01    4.951139167e-02
     2354000000    1.096061915e-01    6.028433889e-02
     2354750000    1.051619276e-01    6.640527397e-02
     2355500000    9.618213773e-02    7.506471872e-02
     2356250000    8.550459146e-02    8.300215006e-02
     2357000000    7.841430604e-02    8.827929199e-02
     2357750000    6.863665581e-02    9.390254319e-02
     2358500000    5.989705026e-02    9.755998850e-02
     2359250000    4.998031631e-02    1.004367620e-01
     2360000000    4.172866046e-02    1.030130833e-01
     2360750000    3.184186295e-02    1.044636518e-01
     2361500000    2.114870027e-02    1.049962863e-01
     2362250000    1.388571132e-02    1.048139855e-01
     2363000000    4.487609025e-03    1.037798524e-01
     2363750000   -4.758427851e-03    1.016133726e-01
     2364500000   -1.296438184e-02    9.851221740e-02
     2365250000   -2.121306956e-02    9.476011246e-02
     2366000000   -2.801331878e-02    9.087589383e-02
     2366750000   -3.526707739e-02    8.546031266e-02
     2367500000   -4.117109999e-02    8.106586337e-02
     2368250000   -4.683407396e-02    7.465630770e-02
     2369000000   -5.194140598e-02    6.900279224e-02
     2369750000   -5.671678856e-02    6.252927333e-02
     2370500000   -6.023649126e-02    5.602950230e-02
     2371250000   -6.348834932e-02    4.910280928e-02
     2372000000   -6.625628471e-02    4.082046077e-02
     2372750000   -6.856538355e-02    3.614521772e-02
     2373500000   -7.025012374e-02    2.878681570e-02
     2374250000   -7.105337828e-02    2.162779868e-02
     2375000000   -7.129253447e-02    1.513448451e-02
     2375750000   -7.096756250e-02    9.190232493e-03
     2376500000   -7.053252310e-02    3.294292837e-03
     2377250000   -6.755294651e-02   -4.074829165e-03
     2378000000   -6.655628979e-02   -8.290326223e-03
     2378750000   -6.527717412e-02   -1.252684277e-02
     2379500000   -6.057189032e-02   -1.896002889e-02
     2380250000   -5.867776647e-02   -2.243665047e-02
     2381000000   -5.748848990e-02   -2.489488572e-02
     2381750000   -5.195179209e-02   -2.902524918e-02
     2382500000   -4.829408973e-02   -3.236980364e-02
     2383250000   -4.314592481e-02   -3.481040522e-02
     2384000000   -4.016172513e-02   -3.676335886e-02
     2384750000   -3.700491413e-02   -3.847446665e-02
     2385500000   -3.243765235e-02   -3.939435631e-02
     2386250000   -3.018175066e-02   -4.043524340e-02
     2387000000   -2.408774011e-02   -4.009510949e-02
     2387750000   -2.114857733e-02   -4.012909532e-02
     2388500000   -1.783814467e-02   -4.053626582e-02
     2389250000   -1.356566790e-02   -3.917025402e-02
     2390000000   -1.100704912e-02   -3.904065490e-02
     2390750000   -7.759483531e-03   -3.817474470e-02
     2391500000   -4.201087169e-03   -3.572666645e-02
     2392250000   -1.933132648e-03   -3.478344157e-02
     2393000000    5.099500413e-04   -3.352621570e-02
     2393750000    2.092272975e-03   -3.209432214e-02
     2394500000    4.258929752e-03   -3.127761185e-02
     2395250000    5.592734553e-03   -2.893663384e-02
     2396000000    7.167178672e-03   -2.813615277e-02
     2396750000    8.722518571e-03   -2.635057457e-02
     2397500000    9.750640020e-03   -2.584938705e-02
     2398250000    1.033888292e-02   -2.407372370e-02
     2399000000    1.103897952e-02   -2.273886092e-02
     2399750000    1.133748889e-02   -2.243009955e-02
     2400500000    1.154151745e-02   -2.130612358e-02
     2401250000    1.177427825e-02   -2.026613429e-02
     2402000000    1.226930600e-02   -2.053172886e-02
     2402750000    1.224734075e-02   -2.046837658e-02
     2403500000    1.192062534e-02   -1.989021897e-02
     2404250000    1.164303441e-02   -1.926501654e-02
     2405000000    1.140065677e-02   -1.932999305e-02
     2405750000    1.131954510e-02   -1.926418766e-02
     2406500000    1.218589675e-02   -1.972150430e-02
     2407250000    1.206566487e-02   -1.984235272e-02
     2408000000    1.228227932e-02   -1.967278123e-02
     2408750000    1.306869183e-02   -1.959642395e-02
     2409500000    1.323136128e-02   -1.987956837e-02
     2410250000    1.418784726e-02   -2.019457333e-02
     2411000000    1.589780487e-02   -1.956489496e-02
     2411750000    1.724099740e-02   -1.946724020e-02
     2412500000    1.856225915e-02   -1.918209158e-02
     2413250000    2.006379887e-02   -1.906889491e-02
     2414000000    2.244772203e-02   -1.789455302e-02
     2414750000    2.446566336e-02   -1.754109189e-02
     2415500000    2.609917521e-02   -1.679764688e-02
     2416250000    2.858314849e-02   -1.637895592e-02
     2417000000    3.043227084e-02   -1.497862022e-02
     2417750000    3.308061883e-02   -1.345534995e-02
     2418500000    3.481157869e-02   -1.201334316e-02
     2419250000    3.719471768e-02   -9.750208817e-03
     2420000000    3.932210431e-02   -7.973487489e-03
     2420750000    4.056852311e-02   -4.833685234e-03
     2421500000    4.229062796e-02   -2.196673537e-03
     2422250000    4.415532574e-02    9.464982431e-04
     2423000000    4.539798200e-02    4.300042521e-03
     2423750000    4.592297599e-02    7.861979306e-03
     2424500000    4.641019553e-02    1.149651781e-02
     2425250000    4.664453119e-02    1.528107189e-02
     2426000000    4.737982154e-02    1.917390898e-02
     2426750000    4.580818117e-02    2.339861169e-02
     2427500000    4.536321759e-02    2.744577825e-02
     2428250000    4.314622283e-02    3.197305650e-02
     2429000000    4.172759131e-02    3.578258678e-02
     2429750000    4.028621688e-02    3.964217380e-02
     2430500000    3.630029410e-02    4.350145534e-02
     2431250000    3.470606729e-02    4.748097435e-02
     2432000000    3.068947420e-02    5.066805333e-02
     2432750000    2.650188841e-02    5.382307246e-02
     2433500000    2.311205678e-02    5.750659853e-02
     2434250000    1.742377691e-02    5.893333256e-02
     2435000000    1.306132041e-02    6.193959340e-02
     2435750000    8.187321946e-03    6.403051317e-02
     2436500000    2.146862680e-03    6.433471292e-02
     2437250000   -2.864609472e-03    6.604250520e-02
     2438000000   -8.906927891e-03    6.579613686e-02
     2438750000   -1.461137831e-02    6.551950425e-02
     2439500000   -2.110928297e-02    6.500656158e-02
     2440250000   -2.744032815e-02    6.386773288e-02
     2441000000   -3.342470899e-02    6.156225875e-02
     2441750000   -3.958499059e-02    5.935148150e-02
     2442500000   -4.596535116e-02    5.582757294e-02
     2443250000   -5.244867876e-02    5.350906774e-02
     2444000000   -5.779389292e-02    4.844410345e-02
     2444750000   -6.359083205e-02    4.376783222e-02
     2445500000   -6.878367066e-02    3.799087554e-02
     2446250000   -7.395577431e-02    3.233195841e-02
     2447000000   -7.789391279e-02    2.581824921e-02
     2447750000   -8.257281780e-02    1.890869625e-02
     2448500000   -8.532452583e-02    1.119380165e-02
     2449250000   -8.798158169e-02    3.510534531e-03
     2450000000   -9.030751139e-02   -5.298146047e-03
     2450750000   -9.207869321e-02   -1.331406273e-02
     2451500000   -9.310543537e-02   -2.277146466e-02
     2452250000   -9.292382747e-02   -3.174567968e-02
     2453000000   -9.210414439e-02   -4.084565118e-02
     2453750000   -9.106937051e-02   -5.016938224e-02
     2454500000   -8.848984540e-02   -5.932746828e-02
     2455250000   -8.574563265e-02   -6.877562404e-02
     2456000000   -8.236959577e-02   -7.769036293e-02
     2456750000   -7.715290785e-02   -8.610497415e-02
     2457500000   -7.208201289e-02   -9.443508834e-02
     2458250000   -6.568309665e-02   -1.019876599e-01
     2459000000   -5.822937191e-02   -1.086572260e-01
     2459750000   -5.089521408e-02   -1.157314628e-01
     2460500000   -4.255786166e-02   -1.209211051e-01
     2461250000   -3.318349645e-02   -1.246248335e-01
     2462000000   -2.330494858e-02   -1.299535334e-01
     2462750000   -1.354226936e-02   -1.333168298e-01
     2463500000   -2.718018135e-03   -1.348177791e-01
     2464250000    7.697829045e-03   -1.361335814e-01
     2465000000    1.937102899e-02   -1.374178380e-01
     2465750000    3.030830994e-02   -1.358109862e-01
     2466500000    4.145298526e-02   -1.345658749e-01
     2467250000    5.176607147e-02   -1.310433894e-01
     2468000000    6.350724399e-02   -1.287415028e-01
     2468750000    7.427720726e-02   -1.235497445e-01
     2469500000    8.318651468e-02   -1.170053259e-01
     2470250000    9.287144244e-02   -1.096301079e-01
     2471000000    1.045990065e-01   -1.025415063e-01
     2471750000    1.114774346e-01   -9.300569445e-02
     2472500000    1.204021201e-01   -8.387053013e-02
     2473250000    1.267025471e-01   -7.282073796e-02
     2474000000    1.328168809e-01   -6.131915748e-02
     2474750000    1.390454918e-01   -4.994878918e-02
     2475500000    1.428762972e-01   -3.682329506e-02
     2476250000    1.446243823e-01   -2.454338782e-02
     2477000000    1.489377469e-01   -1.056179497e-02
     2477750000    1.489942819e-01    2.643430606e-03
     2478500000    1.487804055e-01    1.651422493e-02
     2479250000    1.478741616e-01    3.039422818e-02
     2480000000    1.441861540e-01    4.300891608e-02
     2480750000    1.403430700e-01    5.715383217e-02
     2481500000    1.359214187e-01    7.043556869e-02
     2482250000    1.290504485e-01    8.308793604e-02
     2483000000    1.214165315e-01    9.463957697e-02
     2483750000    1.125759259e-01    1.063795015e-01
     2484500000    1.026955098e-01    1.170528382e-01
     2485250000    9.192521125e-02    1.267652363e-01
     2486000000    7.991931587e-02    1.361211538e-01
     2486750000    6.664463878e-02    1.440792978e-01
     2487500000    5.358039215e-02    1.504171193e-01
     2488250000    3.883410618e-02    1.555472910e-01
     2489000000    2.441161871e-02    1.602581739e-01
     2489750000    8.626980707e-03    1.635832638e-01
     2490500000   -6.234921515e-03    1.652767360e-01
     2491250000   -2.253394760e-02    1.665708274e-01
     2492000000   -3.634257242e-02    1.643002778e-01
     2492750000   -5.255366862e-02    1.621816456e-01
     2493500000   -6.745586544e-02    1.578967422e-01
     2494250000   -8.161935210e-02    1.525473595e-01
     2495000000   -9.803679585e-02    1.463155895e-01
     2495750000   -1.105313003e-01    1.374065578e-01
     2496500000   -1.249159798e-01    1.276287138e-01
     2497250000   -1.358290017e-01    1.171622798e-01
     2498000000   -1.452776194e-01    1.056191251e-01
     2498750000   -1.577861458e-01    9.132210165e-02
     2499500000   -1.675800532e-01    7.759208232e-02
     2500250000   -1.733270437e-01    6.314082444e-02
     2501000000   -1.815926135e-01    4.624591395e-02
     2501750000   -1.845421493e-01    3.187000006e-02
     2502500000   -1.890825480e-01    1.418127958e-02
     2503250000   -1.914613098e-01   -4.127393942e-03
     2504000000   -1.920540333e-01   -2.145103551e-02
     2504750000   -1.913158745e-01   -3.945123777e-02
     2505500000   -1.882205009e-01   -5.541165546e-02
     2506250000   -1.840363890e-01   -7.362890989e-02
     2507000000   -1.776302755e-01   -9.103465080e-02
     2507750000   -1.699018925e-01   -1.067343205e-01
     2508500000   -1.619735509e-01   -1.232509091e-01
     2509250000   -1.507094949e-01   -1.371467412e-01
     2510000000   -1.389665902e-01   -1.509858668e-01
     2510750000   -1.251879185e-01   -1.640309095e-01
     2511500000   -1.112973318e-01   -1.758498847e-01
     2512250000   -9.537780285e-02   -1.858775318e-01
     2513000000   -7.968121767e-02   -1.951958239e-01
     2513750000   -6.224262714e-02   -2.031987160e-01
     2514500000   -4.400080442e-02   -2.090576440e-01
     2515250000   -2.455569804e-02   -2.134843171e-01
     2516000000   -5.646722391e-03   -2.163749039e-01
     2516750000    1.279004943e-02   -2.169328332e-01
     2517500000    3.360268846e-02   -2.163634896e-01
     2518250000    5.347014219e-02   -2.131947577e-01
     2519000000    7.190787792e-02   -2.087142318e-01
     2519750000    8.988842368e-02   -2.014152110e-01
     2520500000    1.098058671e-01   -1.941612959e-01
     2521250000    1.279357374e-01   -1.834330261e-01
     2522000000    1.445606351e-01   -1.721911579e-01
     2522750000    1.611040533e-01   -1.586637050e-01
     2523500000    1.756228656e-01   -1.443933249e-01
     2524250000    1.897719353e-01   -1.281860024e-01
     2525000000    2.008986622e-01   -1.108046174e-01
     2525750000    2.128822356e-01   -9.171880037e-02
     2526500000    2.214521617e-01   -7.354727387e-02
     2527250000    2.289203405e-01   -5.335195735e-02
     2528000000    2.352902889e-01   -3.222315013e-02
     2528750000    2.391567528e-01   -1.173709426e-02
     2529500000    2.412367016e-01    1.048371196e-02
     2530250000    2.413779497e-01    3.330104426e-02
     2531000000    2.385818958e-01    5.270311236e-02
     2531750000    2.349749207e-01    7.537660748e-02
     2532500000    2.294265032e-01    9.624783695e-02
     2533250000    2.216635048e-01    1.172314063e-01
     2534000000    2.116926312e-01    1.369804442e-01
     2534750000    1.998416632e-01    1.556400061e-01
     2535500000    1.863509566e-01    1.728004962e-01
     2536250000    1.711445898e-01    1.884105355e-01
     2537000000    1.546102166e-01    2.046408355e-01
     2537750000    1.363402605e-01    2.178502828e-01
     2538500000    1.169223487e-01    2.296968102e-01
     2539250000    9.574357420e-02    2.407837659e-01
     2540000000    7.552195340e-02    2.489852756e-01
     2540750000    5.196485668e-02    2.557363212e-01
     2541500000    2.770748548e-02    2.617552876e-01
     2542250000    6.261066068e-03    2.629686296e-01
     2543000000   -1.841747575e-02    2.632012069e-01
     2543750000   -4.126862064e-02    2.608717680e-01
     2544500000   -6.554891169e-02    2.568430305e-01
     2545250000   -8.847397566e-02    2.509391308e-01
     2546000000   -1.081356183e-01    2.416721582e-01
     2546750000   -1.315405816e-01    2.313735783e-01
     2547500000   -1.543014795e-01    2.192919701e-01
     2548250000   -1.732948869e-01    2.052100748e-01
     2549000000   -1.898920685e-01    1.895544529e-01
     2549750000   -2.108206153e-01    1.707647741e-01
     2550500000   -2.245093882e-01    1.517929584e-01
     2551250000   -2.396885157e-01    1.302986443e-01
     2552000000   -2.506993711e-01    1.098987460e-01
     2552750000   -2.608273029e-01    8.638319373e-02
     2553500000   -2.700456679e-01    6.090172753e-02
     2554250000   -2.742365003e-01    3.657009825e-02
     2555000000   -2.772212625e-01    1.311774179e-02
     2555750000   -2.782027125e-01   -1.215578988e-02
     2556500000   -2.783972025e-01   -4.061814025e-02
     2557250000   -2.748398483e-01   -6.479246914e-02
     2558000000   -2.689114213e-01   -8.848522604e-02
     2558750000   -2.606859505e-01   -1.125992537e-01
     2559500000   -2.494697720e-01   -1.399018019e-01
     2560250000   -2.382322252e-01   -1.599377394e-01
     2561000000   -2.234418839e-01   -1.856097430e-01
     2561750000   -2.070471793e-01   -2.041023672e-01
     2562500000   -1.889498234e-01   -2.242474705e-01
     2563250000   -1.700036377e-01   -2.418098003e-01
     2564000000   -1.486356109e-01   -2.553403676e-01
     2564750000   -1.264414042e-01   -2.705281377e-01
     2565500000   -1.019578874e-01   -2.819482386e-01
     2566250000   -7.818882912e-02   -2.910562158e-01
     2567000000   -4.966267571e-02   -2.989638448e-01
     2567750000   -2.550690994e-02   -3.032829762e-01
     2568500000    3.208743641e-03   -3.063483834e-01
     2569250000    2.996961959e-02   -3.055111766e-01
     2570000000    5.647392198e-02   -3.034379482e-01
     2570750000    8.370471001e-02   -2.994134426e-01
     2571500000    1.108495444e-01   -2.911793888e-01
     2572250000    1.354500353e-01   -2.818935215e-01
     2573000000    1.595881581e-01   -2.695927024e-01
     2573750000    1.823451221e-01   -2.543858588e-01
     2574500000    2.068773359e-01   -2.372057438e-01
     2575250000    2.250723541e-01   -2.182418704e-01
     2576000000    2.430125028e-01   -1.975210756e-01
     2576750000    2.610327899e-01   -1.765486449e-01
     2577500000    2.758044004e-01   -1.513755471e-01
     2578250000    2.887326181e-01   -1.263427436e-01
     2579000000    2.979358137e-01   -1.020464227e-01
     2579750000    3.065698147e-01   -7.457719743e-02
     2580500000    3.134809732e-01   -4.565749690e-02
     2581250000    3.169997036e-01   -1.625075750e-02
     2582000000    3.174400926e-01    1.250154525e-02
     2582750000    3.157915473e-01    4.295570403e-02
     2583500000    3.107373714e-01    6.997210532e-02
     2584250000    3.034897149e-01    9.687814116e-02
     2585000000    2.936394513e-01    1.269481778e-01
     2585750000    2.811104953e-01    1.537821144e-01
     2586500000    2.673901320e-01    1.777651012e-01
     2587250000    2.505263984e-01    2.036751807e-01
     2588000000    2.310562283e-01    2.255475074e-01
     2588750000    2.101250440e-01    2.468597144e-01
     2589500000    1.872353256e-01    2.671959102e-01
     2590250000    1.621081680e-01    2.835761309e-01
     2591000000    1.374161839e-01    2.959859669e-01
     2591750000    1.105350330e-01    3.086971343e-01
     2592500000    8.139980584e-02    3.183668256e-01
     2593250000    5.077753216e-02    3.268271983e-01
     2594000000    2.155845240e-02    3.310933411e-01
     2594750000   -1.072676387e-02    3.327841163e-01
     2595500000   -3.669153154e-02    3.300964534e-01
     2596250000   -7.123586535e-02    3.280882239e-01
     2597000000   -9.832312167e-02    3.222102821e-01
     2597750000   -1.268768013e-01    3.132753074e-01
     2598500000   -1.561224014e-01    3.004442751e-01
     2599250000   -1.852387339e-01    2.855719924e-01
     2600000000   -2.099465281e-01    2.684662044e-01
