! NanoVNA-App
! Date: 2026-05-22 18:27:34
! Start: 2.3GHz Stop: 2.6GHz Points: 401
! S-Parameter data: F S11
# Hz S RI R 50
!     Frequency           S11_Real           S11_Imag
     2300000000    7.344689220e-02    1.301078647e-01
     2300750000    6.573387980e-02    1.340347826e-01
     2301500000    5.523135886e-02    1.396562010e-01
     2302250000    4.433286563e-02    1.444255561e-01
     2303000000    3.417345509e-02    1.473147869e-01
     2303750000    2.542193420e-02    1.480863839e-01
     2304500000    1.269438490e-02    1.503047794e-01
     2305250000    2.638827078e-03    1.505134553e-01
     2306000000   -1.039316412e-02    1.508425772e-01
     2306750000   -2.166708000e-02    1.497499645e-01
     2307500000   -3.273170441e-02    1.474862844e-01
     2308250000   -4.436307028e-02    1.448292136e-01
     2309000000   -5.442286655e-02    1.410965770e-01
     2309750000   -6.578508765e-02    1.366634816e-01
     2310500000   -7.655066997e-02    1.311117411e-01
     2311250000   -8.591905236e-02    1.255183965e-01
     2312000000   -9.603213519e-02    1.190962493e-01
     2312750000   -1.057047769e-01    1.114701703e-01
     2313500000   -1.134644002e-01    1.032747999e-01
     2314250000   -1.222322807e-01    9.393391758e-02
     2315000000   -1.292266399e-01    8.452744037e-02
     2315750000   -1.365892887e-01    7.345455885e-02
     2316500000   -1.431084126e-01    6.210971624e-02
     2317250000   -1.472538710e-01    5.106006563e-02
     2318000000   -1.508283019e-01    4.102091119e-02
     2318750000   -1.544755846e-01    2.743688412e-02
     2319500000   -1.569536030e-01    1.613672636e-02
     2320250000   -1.583621949e-01    2.501717536e-03
     2321000000   -1.588424742e-01   -1.005520672e-02
     2321750000   -1.580391526e-01   -2.366929874e-02
     2322500000   -1.566799134e-01   -3.560528159e-02
     2323250000   -1.535319835e-01   -4.953832179e-02
     2324000000   -1.499738246e-01   -6.170324236e-02
     2324750000   -1.454804093e-01   -7.466539741e-02
     2325500000   -1.399972439e-01   -8.600149304e-02
     2326250000   -1.332073063e-01   -9.730598330e-02
     2327000000   -1.244617701e-01   -1.107398272e-01
     2327750000   -1.165122315e-01   -1.202910915e-01
     2328500000   -1.064582467e-01   -1.304313391e-01
     2329250000   -9.656997770e-02   -1.393169463e-01
     2330000000   -8.614655584e-02   -1.470725238e-01
     2330750000   -7.519996911e-02   -1.541818976e-01
     2331500000   -5.930531025e-02   -1.628364325e-01
     2332250000   -4.812124372e-02   -1.671305150e-01
     2333000000   -3.387928754e-02   -1.721448451e-01
     2333750000   -2.117096074e-02   -1.755007356e-01
     2334500000   -5.976933520e-03   -1.776554734e-01
     2335250000    8.985764347e-03   -1.790367365e-01
     2336000000    2.324720472e-02   -1.790954322e-01
     2336750000    3.759318590e-02   -1.781540662e-01
     2337500000    5.285469443e-02   -1.755279154e-01
     2338250000    6.681679934e-02   -1.724888831e-01
     2339000000    8.120582998e-02   -1.670683771e-01
     2339750000    9.559429437e-02   -1.609001160e-01
     2340500000    1.094414145e-01   -1.540262252e-01
     2341250000    1.220571622e-01   -1.464546472e-01
     2342000000    1.340309232e-01   -1.371019185e-01
     2342750000    1.456969082e-01   -1.275190115e-01
     2343500000    1.576135159e-01   -1.140907332e-01
     2344250000    1.655183285e-01   -1.051719263e-01
     2345000000    1.754578650e-01   -9.069815278e-02
     2345750000    1.829517037e-01   -7.633685321e-02
     2346500000    1.899960786e-01   -6.264374405e-02
     2347250000    1.954052746e-01   -4.642816260e-02
     2348000000    1.992907077e-01   -3.410799429e-02
     2348750000    2.022268474e-01   -1.493066922e-02
     2349500000    2.035236657e-01    6.987286615e-04
     2350250000    2.036442012e-01    1.600726880e-02
     2351000000    2.028680593e-01    3.037150949e-02
     2351750000    1.991925389e-01    4.835835472e-02
     2352500000    1.933541149e-01    6.623772532e-02
     2353250000    1.891269833e-01    7.982727140e-02
     2354000000    1.816847920e-01    9.540871531e-02
     2354750000    1.739244163e-01    1.094736308e-01
     2355500000    1.631337106e-01    1.245887578e-01
     2356250000    1.531448066e-01    1.373282075e-01
     2357000000    1.416259855e-01    1.495595276e-01
     2357750000    1.267541945e-01    1.625339091e-01
     2358500000    1.114473268e-01    1.730793715e-01
     2359250000    9.898309410e-02    1.820577383e-01
     2360000000    8.205762506e-02    1.903028637e-01
     2360750000    6.544152647e-02    1.975501776e-01
     2361500000    4.872325435e-02    2.030894309e-01
     2362250000    2.954774164e-02    2.069641799e-01
     2363000000    1.509439573e-02    2.106914520e-01
     2363750000   -4.885291681e-03    2.112421095e-01
     2364500000   -2.336797118e-02    2.109899372e-01
     2365250000   -4.160633311e-02    2.092103511e-01
     2366000000   -5.937030166e-02    2.059970498e-01
     2366750000   -7.646385580e-02    2.014674991e-01
     2367500000   -9.386188537e-02    1.948108673e-01
     2368250000   -1.100985408e-01    1.871046275e-01
     2369000000   -1.261556298e-01    1.784864962e-01
     2369750000   -1.410562098e-01    1.678686142e-01
     2370500000   -1.553528458e-01    1.553598642e-01
     2371250000   -1.679830998e-01    1.430879682e-01
     2372000000   -1.799091697e-01    1.286486834e-01
     2372750000   -1.907714456e-01    1.121710837e-01
     2373500000   -1.996630281e-01    9.735107422e-02
     2374250000   -2.071758062e-01    7.868398726e-02
     2375000000   -2.138070166e-01    6.151555851e-02
     2375750000   -2.179346979e-01    4.142066091e-02
     2376500000   -2.212135792e-01    2.378653549e-02
     2377250000   -2.230655104e-01    4.333278164e-03
     2378000000   -2.228904814e-01   -1.492341328e-02
     2378750000   -2.215777189e-01   -3.334937245e-02
     2379500000   -2.175594717e-01   -5.371202528e-02
     2380250000   -2.115034163e-01   -7.337483019e-02
     2381000000   -2.073933333e-01   -8.980701864e-02
     2381750000   -1.967580169e-01   -1.092357785e-01
     2382500000   -1.874179244e-01   -1.257819831e-01
     2383250000   -1.772330552e-01   -1.420856863e-01
     2384000000   -1.640180349e-01   -1.572046280e-01
     2384750000   -1.489568800e-01   -1.715818793e-01
     2385500000   -1.349441111e-01   -1.844905317e-01
     2386250000   -1.201028749e-01   -1.958152801e-01
     2387000000   -9.889297932e-02   -2.060035020e-01
     2387750000   -8.126058429e-02   -2.143676430e-01
     2388500000   -6.337232888e-02   -2.216752917e-01
     2389250000   -4.378461465e-02   -2.265641242e-01
     2390000000   -2.370715886e-02   -2.300139219e-01
     2390750000   -2.566710114e-03   -2.316781729e-01
     2391500000    1.879131980e-02   -2.309901416e-01
     2392250000    3.826305643e-02   -2.288409472e-01
     2393000000    6.038134173e-02   -2.242582440e-01
     2393750000    7.889339328e-02   -2.201247960e-01
     2394500000    9.900796413e-02   -2.117548734e-01
     2395250000    1.180763021e-01   -2.023912519e-01
     2396000000    1.352867484e-01   -1.936154217e-01
     2396750000    1.540218443e-01   -1.792186946e-01
     2397500000    1.700274944e-01   -1.648890525e-01
     2398250000    1.849595159e-01   -1.489885300e-01
     2399000000    1.987717301e-01   -1.332433671e-01
     2399750000    2.112896591e-01   -1.147311255e-01
     2400500000    2.222030312e-01   -9.788978845e-02
     2401250000    2.311001718e-01   -7.499803603e-02
     2402000000    2.388023585e-01   -5.699519441e-02
     2402750000    2.437321544e-01   -3.426177427e-02
     2403500000    2.473953515e-01   -1.332852617e-02
     2404250000    2.493516356e-01    7.802440319e-03
     2405000000    2.484144419e-01    3.153727949e-02
     2405750000    2.457056195e-01    5.348375812e-02
     2406500000    2.427572757e-01    7.378553599e-02
     2407250000    2.354001850e-01    9.542987496e-02
     2408000000    2.279703468e-01    1.154041290e-01
     2408750000    2.181206942e-01    1.352720261e-01
     2409500000    2.059927434e-01    1.541893184e-01
     2410250000    1.923580617e-01    1.721814424e-01
     2411000000    1.759812832e-01    1.893142164e-01
     2411750000    1.606674045e-01    2.044924498e-01
     2412500000    1.413345635e-01    2.191750705e-01
     2413250000    1.229241639e-01    2.315535992e-01
     2414000000    1.024234593e-01    2.420258671e-01
     2414750000    8.063589036e-02    2.513779402e-01
     2415500000    5.874596909e-02    2.586462498e-01
     2416250000    3.546925262e-02    2.636764944e-01
     2417000000    1.156676468e-02    2.668684125e-01
     2417750000   -1.140837464e-02    2.682298422e-01
     2418500000   -3.546963632e-02    2.671430111e-01
     2419250000   -5.866177380e-02    2.645070851e-01
     2420000000   -8.211104572e-02    2.593686283e-01
     2420750000   -1.047258601e-01    2.523747981e-01
     2421500000   -1.272319704e-01    2.424131036e-01
     2422250000   -1.488187760e-01    2.320988476e-01
     2423000000   -1.656001806e-01    2.204403877e-01
     2423750000   -1.855901033e-01    2.048548013e-01
     2424500000   -2.032166123e-01    1.900245547e-01
     2425250000   -2.200931460e-01    1.711423099e-01
     2426000000   -2.352002412e-01    1.517285109e-01
     2426750000   -2.486374974e-01    1.306878328e-01
     2427500000   -2.600125074e-01    1.104186475e-01
     2428250000   -2.698982656e-01    8.619867265e-02
     2429000000   -2.767218351e-01    6.069229543e-02
     2429750000   -2.832315862e-01    3.900823370e-02
     2430500000   -2.861411870e-01    1.296508778e-02
     2431250000   -2.864403427e-01   -1.336245425e-02
     2432000000   -2.853249311e-01   -3.860214353e-02
     2432750000   -2.837419212e-01   -6.216332316e-02
     2433500000   -2.769200206e-01   -8.857353032e-02
     2434250000   -2.689242363e-01   -1.130139008e-01
     2435000000   -2.593156397e-01   -1.366141438e-01
     2435750000   -2.490541041e-01   -1.590176672e-01
     2436500000   -2.326529920e-01   -1.819353253e-01
     2437250000   -2.166546136e-01   -2.022433728e-01
     2438000000   -2.000070661e-01   -2.213286161e-01
     2438750000   -1.806303263e-01   -2.386463881e-01
     2439500000   -1.577273309e-01   -2.550112307e-01
     2440250000   -1.370192021e-01   -2.685712576e-01
     2441000000   -1.120106056e-01   -2.803324163e-01
     2441750000   -8.852417767e-02   -2.901186645e-01
     2442500000   -6.226024404e-02   -2.975794971e-01
     2443250000   -3.775892034e-02   -3.035112917e-01
     2444000000   -9.392055683e-03   -3.055936694e-01
     2444750000    1.723030768e-02   -3.063557744e-01
     2445500000    4.386623204e-02   -3.047743440e-01
     2446250000    7.101922482e-02   -2.997483611e-01
     2447000000    9.702074528e-02   -2.934973240e-01
     2447750000    1.238443255e-01   -2.834855914e-01
     2448500000    1.483301073e-01   -2.728580236e-01
     2449250000    1.725989431e-01   -2.586227059e-01
     2450000000    1.955035776e-01   -2.437173426e-01
     2450750000    2.168533653e-01   -2.262729257e-01
     2451500000    2.370235920e-01   -2.066329867e-01
     2452250000    2.555630505e-01   -1.864210665e-01
     2453000000    2.720112205e-01   -1.622114629e-01
     2453750000    2.864925563e-01   -1.383662671e-01
     2454500000    2.988642454e-01   -1.131848991e-01
     2455250000    3.088116646e-01   -8.744762838e-02
     2456000000    3.170902729e-01   -5.969529226e-02
     2456750000    3.227590621e-01   -3.155953065e-02
     2457500000    3.245766759e-01   -3.141166642e-03
     2458250000    3.254009187e-01    2.517750300e-02
     2459000000    3.244883418e-01    5.306370184e-02
     2459750000    3.171673119e-01    8.315359801e-02
     2460500000    3.120120764e-01    1.088721529e-01
     2461250000    3.017543554e-01    1.362700760e-01
     2462000000    2.888328433e-01    1.634674221e-01
     2462750000    2.759405971e-01    1.876680851e-01
     2463500000    2.567339838e-01    2.120124400e-01
     2464250000    2.406222224e-01    2.337110639e-01
     2465000000    2.188475281e-01    2.545472682e-01
     2465750000    1.969856769e-01    2.737218142e-01
     2466500000    1.716589630e-01    2.901238501e-01
     2467250000    1.458177418e-01    3.047740757e-01
     2468000000    1.189941466e-01    3.172791302e-01
     2468750000    9.129385650e-02    3.268755078e-01
     2469500000    6.246360764e-02    3.346063495e-01
     2470250000    3.124397621e-02    3.391109407e-01
     2471000000    1.792646479e-03    3.417760432e-01
     2471750000   -2.740334719e-02    3.417531550e-01
     2472500000   -5.793940648e-02    3.383615017e-01
     2473250000   -8.760491759e-02    3.332832456e-01
     2474000000   -1.170911640e-01    3.249936998e-01
     2474750000   -1.460115612e-01    3.145253956e-01
     2475500000   -1.737439930e-01    3.007498384e-01
     2476250000   -1.992167979e-01    2.855057418e-01
     2477000000   -2.248120010e-01    2.678244114e-01
     2477750000   -2.484095991e-01    2.478723973e-01
     2478500000   -2.698836625e-01    2.254743129e-01
     2479250000   -2.891519666e-01    2.021831125e-01
     2480000000   -3.066457510e-01    1.760499030e-01
     2480750000   -3.220010996e-01    1.482727975e-01
     2481500000   -3.346837461e-01    1.204797775e-01
     2482250000   -3.448537290e-01    9.100907296e-02
     2483000000   -3.528748155e-01    6.131311506e-02
     2483750000   -3.571947813e-01    2.970255353e-02
     2484500000   -3.599465489e-01   -1.725077047e-03
     2485250000   -3.603782356e-01   -3.187834099e-02
     2486000000   -3.561112583e-01   -6.541811675e-02
     2486750000   -3.510649800e-01   -9.531610459e-02
     2487500000   -3.418600559e-01   -1.265311241e-01
     2488250000   -3.307889998e-01   -1.563343406e-01
     2489000000   -3.166223168e-01   -1.852875948e-01
     2489750000   -3.006135225e-01   -2.130508870e-01
     2490500000   -2.821673453e-01   -2.383751273e-01
     2491250000   -2.612293065e-01   -2.623072267e-01
     2492000000   -2.387264669e-01   -2.845487297e-01
     2492750000   -2.141055167e-01   -3.041555882e-01
     2493500000   -1.868543625e-01   -3.221245110e-01
     2494250000   -1.593551338e-01   -3.376718760e-01
     2495000000   -1.290456802e-01   -3.504267037e-01
     2495750000   -9.886012226e-02   -3.607287407e-01
     2496500000   -6.624392420e-02   -3.675415814e-01
     2497250000   -3.572239727e-02   -3.726993203e-01
     2498000000   -4.719944205e-03   -3.740300834e-01
     2498750000    2.821296826e-02   -3.742122054e-01
     2499500000    6.255356967e-02   -3.686257303e-01
     2500250000    9.357938170e-02   -3.628154993e-01
     2501000000    1.256837249e-01   -3.529365957e-01
     2501750000    1.551845968e-01   -3.407004476e-01
     2502500000    1.838300377e-01   -3.268868327e-01
     2503250000    2.123196125e-01   -3.092499673e-01
     2504000000    2.389054894e-01   -2.882763147e-01
     2504750000    2.637522221e-01   -2.664779723e-01
     2505500000    2.865827978e-01   -2.428710163e-01
     2506250000    3.056491911e-01   -2.185683697e-01
     2507000000    3.251855969e-01   -1.870100647e-01
     2507750000    3.404566050e-01   -1.600784957e-01
     2508500000    3.528423011e-01   -1.289360374e-01
     2509250000    3.634512424e-01   -9.681634605e-02
     2510000000    3.705965281e-01   -6.468640268e-02
     2510750000    3.759364486e-01   -3.113106266e-02
     2511500000    3.769304156e-01    2.709441120e-03
     2512250000    3.761321902e-01    3.544902429e-02
     2513000000    3.708480299e-01    6.881504506e-02
     2513750000    3.638928831e-01    1.020410582e-01
     2514500000    3.546960354e-01    1.329140663e-01
     2515250000    3.408351243e-01    1.651974469e-01
     2516000000    3.262830377e-01    1.946592778e-01
     2516750000    3.077188134e-01    2.224489599e-01
     2517500000    2.867239714e-01    2.498279810e-01
     2518250000    2.641668320e-01    2.741945088e-01
     2519000000    2.393287718e-01    2.967435420e-01
     2519750000    2.120485157e-01    3.175325394e-01
     2520500000    1.830930114e-01    3.351525962e-01
     2521250000    1.529172361e-01    3.507626951e-01
     2522000000    1.211070940e-01    3.635187745e-01
     2522750000    8.979367465e-02    3.732435703e-01
     2523500000    5.573644489e-02    3.801797926e-01
     2524250000    2.177509479e-02    3.842630386e-01
     2525000000   -1.139649469e-02    3.852580786e-01
     2525750000   -4.605613276e-02    3.834125996e-01
     2526500000   -7.971401513e-02    3.785460293e-01
     2527250000   -1.133817658e-01    3.706244826e-01
     2528000000   -1.462215930e-01    3.584173918e-01
     2528750000   -1.767559946e-01    3.456670940e-01
     2529500000   -2.073630691e-01    3.293151855e-01
     2530250000   -2.355038524e-01    3.110399246e-01
     2531000000   -2.622661889e-01    2.889178693e-01
     2531750000   -2.872028351e-01    2.653264105e-01
     2532500000   -3.095808327e-01    2.395693958e-01
     2533250000   -3.303092420e-01    2.111884505e-01
     2534000000   -3.474929333e-01    1.820363998e-01
     2534750000   -3.628952801e-01    1.512052566e-01
     2535500000   -3.748210967e-01    1.191897914e-01
     2536250000   -3.839741349e-01    8.509220183e-02
     2537000000   -3.898558319e-01    5.158966407e-02
     2537750000   -3.930411041e-01    1.738185436e-02
     2538500000   -3.936814070e-01   -1.773525588e-02
     2539250000   -3.902980089e-01   -5.195369944e-02
     2540000000   -3.848617077e-01   -8.612034470e-02
     2540750000   -3.757721782e-01   -1.200870723e-01
     2541500000   -3.638463020e-01   -1.523193568e-01
     2542250000   -3.487222493e-01   -1.847727299e-01
     2543000000   -3.314005733e-01   -2.152158320e-01
     2543750000   -3.116920292e-01   -2.435165644e-01
     2544500000   -2.897037566e-01   -2.704425156e-01
     2545250000   -2.638323903e-01   -2.959463000e-01
     2546000000   -2.383553535e-01   -3.168444633e-01
     2546750000   -2.082401961e-01   -3.383445740e-01
     2547500000   -1.787916273e-01   -3.551952839e-01
     2548250000   -1.476428509e-01   -3.694469929e-01
     2549000000   -1.142038330e-01   -3.814462721e-01
     2549750000   -7.901620120e-02   -3.906104565e-01
     2550500000   -4.547143355e-02   -3.952786922e-01
     2551250000   -1.108540874e-02   -3.980985880e-01
     2552000000    2.447653934e-02   -3.979304731e-01
     2552750000    5.841783434e-02   -3.943622410e-01
     2553500000    9.381715208e-02   -3.877238631e-01
     2554250000    1.285832822e-01   -3.770492971e-01
     2555000000    1.602059454e-01   -3.649578989e-01
     2555750000    1.910997927e-01   -3.491976559e-01
     2556500000    2.233432233e-01   -3.296654224e-01
     2557250000    2.497128099e-01   -3.102844357e-01
     2558000000    2.773802578e-01   -2.854982913e-01
     2558750000    2.999891043e-01   -2.619992495e-01
     2559500000    3.238206506e-01   -2.328879982e-01
     2560250000    3.433364332e-01   -2.020431757e-01
     2561000000    3.597391248e-01   -1.718290597e-01
     2561750000    3.741841018e-01   -1.382157952e-01
     2562500000    3.846380711e-01   -1.053583249e-01
     2563250000    3.922405541e-01   -7.188455015e-02
     2564000000    3.977482021e-01   -3.595531732e-02
     2564750000    3.988750875e-01   -3.900861484e-04
     2565500000    3.981449604e-01    3.431975842e-02
     2566250000    3.933317959e-01    6.900449097e-02
     2567000000    3.854928315e-01    1.055273488e-01
     2567750000    3.754269183e-01    1.381144971e-01
     2568500000    3.623678982e-01    1.704371125e-01
     2569250000    3.456117213e-01    2.026021928e-01
     2570000000    3.265024126e-01    2.321637869e-01
     2570750000    3.044622540e-01    2.602992952e-01
     2571500000    2.811590135e-01    2.853887975e-01
     2572250000    2.549462616e-01    3.094054759e-01
     2573000000    2.263895571e-01    3.305493891e-01
     2573750000    1.963730007e-01    3.495507538e-01
     2574500000    1.644757688e-01    3.658987880e-01
     2575250000    1.316962540e-01    3.782161474e-01
     2576000000    9.830527753e-02    3.882403970e-01
     2576750000    6.315147877e-02    3.957690299e-01
     2577500000    2.803869918e-02    3.991686702e-01
     2578250000   -7.366152946e-03    3.999314904e-01
     2579000000   -4.289045930e-02    3.970644772e-01
     2579750000   -7.827179879e-02    3.914183974e-01
     2580500000   -1.118654683e-01    3.822878897e-01
     2581250000   -1.455385089e-01    3.703345954e-01
     2582000000   -1.791044176e-01    3.557670116e-01
     2582750000   -2.077828795e-01    3.385494649e-01
     2583500000   -2.394866794e-01    3.171549439e-01
     2584250000   -2.648958862e-01    2.959917784e-01
     2585000000   -2.918750644e-01    2.699798346e-01
     2585750000   -3.148025274e-01    2.423232943e-01
     2586500000   -3.344140649e-01    2.146160603e-01
     2587250000   -3.521404862e-01    1.831295639e-01
     2588000000   -3.682121933e-01    1.510413587e-01
     2588750000   -3.799921274e-01    1.167275757e-01
     2589500000   -3.877354860e-01    8.349958062e-02
     2590250000   -3.948121965e-01    4.669567198e-02
     2591000000   -3.966467381e-01    1.250744704e-02
     2591750000   -3.966464102e-01   -2.247113548e-02
     2592500000   -3.931228220e-01   -5.934797600e-02
     2593250000   -3.866326213e-01   -9.283674508e-02
     2594000000   -3.761327267e-01   -1.281978786e-01
     2594750000   -3.631030917e-01   -1.620945930e-01
     2595500000   -3.477033973e-01   -1.933787465e-01
     2596250000   -3.290529251e-01   -2.237194926e-01
     2597000000   -3.086512089e-01   -2.518189847e-01
     2597750000   -2.851779163e-01   -2.775375545e-01
     2598500000   -2.577630579e-01   -3.048677742e-01
     2599250000   -2.309423834e-01   -3.246365786e-01
     2600000000   -2.013424933e-01   -3.444728851e-01
