! NanoVNA-App
! Date: 2026-05-22 18:49:25
! Start: 4.8GHz Stop: 6GHz Points: 401
! S-Parameter data: F S11
# Hz S RI R 50
!     Frequency           S11_Real           S11_Imag
     4800000000    4.905234873e-01   -6.072602868e-01
     4803000000    6.831860542e-01   -3.823027313e-01
     4806000000    7.735263705e-01   -1.121921912e-01
     4809000000    7.620196939e-01    1.800782233e-01
     4812000000    6.412765980e-01    4.499252141e-01
     4815000000    4.331215322e-01    6.510019302e-01
     4818000000    1.645245552e-01    7.647357583e-01
     4821000000   -1.239375919e-01    7.715875506e-01
     4824000000   -4.011299014e-01    6.736318469e-01
     4827000000   -6.206659675e-01    4.776733816e-01
     4830000000   -7.517369390e-01    2.189860940e-01
     4833000000   -7.800819278e-01   -7.371369749e-02
     4836000000   -6.996270418e-01   -3.516721725e-01
     4839000000   -5.225582123e-01   -5.825184584e-01
     4842000000   -2.697361708e-01   -7.344583273e-01
     4845000000    1.534422394e-02   -7.827361822e-01
     4848000000    3.029345870e-01   -7.223340869e-01
     4851000000    5.483546853e-01   -5.612933040e-01
     4854000000    7.113258243e-01   -3.259940743e-01
     4857000000    7.818411589e-01   -4.037678242e-02
     4860000000    7.436504960e-01    2.492962629e-01
     4863000000    5.990137458e-01    5.026761889e-01
     4866000000    3.724621832e-01    6.915360093e-01
     4869000000    9.752688557e-02    7.752401829e-01
     4872000000   -1.869446486e-01    7.571693063e-01
     4875000000   -4.609919190e-01    6.332999468e-01
     4878000000   -6.635110974e-01    4.156115949e-01
     4881000000   -7.654333115e-01    1.553373933e-01
     4884000000   -7.721467614e-01   -1.401937157e-01
     4887000000   -6.636520624e-01   -4.115413129e-01
     4890000000   -4.688630104e-01   -6.236627698e-01
     4893000000   -2.053543925e-01   -7.525920272e-01
     4896000000    7.917791605e-02   -7.715768218e-01
     4899000000    3.634101748e-01   -6.907387376e-01
     4902000000    5.899293423e-01   -5.095435977e-01
     4905000000    7.350296974e-01   -2.573621273e-01
     4908000000    7.797615528e-01    3.141493723e-02
     4911000000    7.153188586e-01    3.157569170e-01
     4914000000    5.473305583e-01    5.595998168e-01
     4917000000    3.141054511e-01    7.121084332e-01
     4920000000    2.332228236e-02    7.772337794e-01
     4923000000   -2.640381455e-01    7.328848243e-01
     4926000000   -5.155364275e-01    5.828768015e-01
     4929000000   -6.911897063e-01    3.576408625e-01
     4932000000   -7.711388469e-01    8.731533587e-02
     4935000000   -7.513357997e-01   -2.094566226e-01
     4938000000   -6.212992668e-01   -4.703178108e-01
     4941000000   -4.004259408e-01   -6.708602905e-01
     4944000000   -1.443825364e-01   -7.588413954e-01
     4947000000    1.520449072e-01   -7.670736909e-01
     4950000000    4.240693152e-01   -6.494380832e-01
     4953000000    6.327697039e-01   -4.517206848e-01
     4956000000    7.572376132e-01   -1.896962523e-01
     4959000000    7.694859505e-01    9.529441595e-02
     4962000000    6.815356016e-01    3.711273074e-01
     4965000000    4.986546338e-01    5.940565467e-01
     4968000000    2.459238172e-01    7.357415557e-01
     4971000000   -4.880726710e-02    7.781673670e-01
     4974000000   -3.210135698e-01    7.049176693e-01
     4977000000   -5.592461228e-01    5.357634425e-01
     4980000000   -7.148024440e-01    2.946156561e-01
     4983000000   -7.727554440e-01    1.039201301e-02
     4986000000   -7.212833166e-01   -2.627231777e-01
     4989000000   -5.733236074e-01   -5.164893866e-01
     4992000000   -3.440595269e-01   -6.888358593e-01
     4995000000   -6.236705184e-02   -7.721698880e-01
     4998000000    2.229235172e-01   -7.402204275e-01
     5001000000    4.752142131e-01   -6.029077768e-01
     5004000000    6.538408995e-01   -3.921424150e-01
     5007000000    7.627748847e-01   -1.192351729e-01
     5010000000    7.515997291e-01    1.612381786e-01
     5013000000    6.347284317e-01    4.392399788e-01
     5016000000    4.391344786e-01    6.297097206e-01
     5019000000    1.749982983e-01    7.499920726e-01
     5022000000   -1.147722900e-01    7.626066804e-01
     5025000000   -3.880987465e-01    6.672469974e-01
     5028000000   -5.959601998e-01    4.829088449e-01
     5031000000   -7.340492606e-01    2.324551046e-01
     5034000000   -7.667893767e-01   -5.568062514e-02
     5037000000   -6.902707219e-01   -3.250571191e-01
     5040000000   -5.192398429e-01   -5.669245124e-01
     5043000000   -2.770205736e-01   -7.167505622e-01
     5046000000    4.764383775e-04   -7.677619457e-01
     5049000000    2.777301669e-01   -7.130751014e-01
     5052000000    5.241483450e-01   -5.601187944e-01
     5055000000    6.938403249e-01   -3.301146030e-01
     5058000000    7.683722377e-01   -4.996922240e-02
     5061000000    7.336332202e-01    2.298068851e-01
     5064000000    6.001027822e-01    4.737490416e-01
     5067000000    3.799290061e-01    6.637752056e-01
     5070000000    1.112366244e-01    7.582705021e-01
     5073000000   -1.740988195e-01    7.471739054e-01
     5076000000   -4.378935695e-01    6.309074163e-01
     5079000000   -6.381476521e-01    4.288346767e-01
     5082000000   -7.508993745e-01    1.631095409e-01
     5085000000   -7.609063387e-01   -1.221889257e-01
     5088000000   -6.643127799e-01   -3.972456753e-01
     5091000000   -4.801458716e-01   -5.976337194e-01
     5094000000   -2.242935598e-01   -7.346358299e-01
     5097000000    6.802434474e-02   -7.660841346e-01
     5100000000    3.291959465e-01   -6.884579659e-01
     5103000000    5.813496113e-01   -5.094822645e-01
     5106000000    7.135276198e-01   -2.838026583e-01
     5109000000    7.718449235e-01    9.666169062e-03
     5112000000    7.156189680e-01    2.792816162e-01
     5115000000    5.599041581e-01    5.259150267e-01
     5118000000    3.275072873e-01    7.026587725e-01
     5121000000    6.367946416e-02    7.615982890e-01
     5124000000   -2.213790268e-01    7.311390042e-01
     5127000000   -4.892574847e-01    5.980224609e-01
     5130000000   -6.674729586e-01    3.802363276e-01
     5133000000   -7.602255344e-01    1.126501933e-01
     5136000000   -7.494881153e-01   -1.716975868e-01
     5139000000   -6.320948005e-01   -4.406516254e-01
     5142000000   -4.294720590e-01   -6.443161964e-01
     5145000000   -1.666530371e-01   -7.534325123e-01
     5148000000    1.226454005e-01   -7.652115822e-01
     5151000000    3.940620720e-01   -6.698008180e-01
     5154000000    6.028984189e-01   -4.793092608e-01
     5157000000    7.373273969e-01   -2.248531431e-01
     5160000000    7.717240453e-01    6.364078820e-02
     5163000000    6.956598163e-01    3.226898313e-01
     5166000000    5.191417933e-01    5.718879104e-01
     5169000000    2.829624116e-01    7.217954993e-01
     5172000000   -5.014558788e-03    7.735179663e-01
     5175000000   -2.717949748e-01    7.192755938e-01
     5178000000   -5.400431156e-01    5.638486147e-01
     5181000000   -6.937654018e-01    3.345130980e-01
     5184000000   -7.713880539e-01    6.088387594e-02
     5187000000   -7.395892143e-01   -2.338734567e-01
     5190000000   -6.048537493e-01   -4.706224501e-01
     5193000000   -3.936649561e-01   -6.700659394e-01
     5196000000   -1.404147893e-01   -7.555656433e-01
     5199000000    1.816911846e-01   -7.600480318e-01
     5202000000    4.284035861e-01   -6.457206011e-01
     5205000000    6.347505450e-01   -4.428079724e-01
     5208000000    7.579242587e-01   -1.758689284e-01
     5211000000    7.660935521e-01    1.096063405e-01
     5214000000    6.751263142e-01    3.886634111e-01
     5217000000    4.904230237e-01    6.023545861e-01
     5220000000    2.370679975e-01    7.369461656e-01
     5223000000   -4.760286584e-02    7.714759707e-01
     5226000000   -3.231555521e-01    7.032012343e-01
     5229000000   -5.631375313e-01    5.346478224e-01
     5232000000   -7.161964178e-01    2.961928546e-01
     5235000000   -7.781752944e-01    4.145388026e-03
     5238000000   -7.263441682e-01   -2.731139958e-01
     5241000000   -5.794810653e-01   -5.207228065e-01
     5244000000   -3.442653120e-01   -6.985484958e-01
     5247000000   -6.981030852e-02   -7.712807059e-01
     5250000000    2.188740671e-01   -7.507414818e-01
     5253000000    4.778656960e-01   -6.163225770e-01
     5256000000    6.688873768e-01   -4.030382931e-01
     5259000000    7.730844021e-01   -1.345663369e-01
     5262000000    7.668956518e-01    1.696711779e-01
     5265000000    6.533594131e-01    4.407383502e-01
     5268000000    4.555465579e-01    6.408853531e-01
     5271000000    1.987569183e-01    7.564085126e-01
     5274000000   -9.826668352e-02    7.777411342e-01
     5277000000   -3.643398881e-01    6.939547062e-01
     5280000000   -6.177911162e-01    4.963858724e-01
     5283000000   -7.402995229e-01    2.597280741e-01
     5286000000   -7.845558524e-01   -3.060895018e-02
     5289000000   -7.195033431e-01   -3.253111541e-01
     5292000000   -5.535746813e-01   -5.601947904e-01
     5295000000   -3.114268482e-01   -7.192675471e-01
     5298000000   -2.782261372e-02   -7.865285277e-01
     5301000000    2.611182928e-01   -7.447887063e-01
     5304000000    5.123628974e-01   -5.972390175e-01
     5307000000    6.934180260e-01   -3.739684820e-01
     5310000000    7.864264846e-01   -8.135454357e-02
     5313000000    7.657605410e-01    1.984041035e-01
     5316000000    6.341477036e-01    4.642762542e-01
     5319000000    4.210006893e-01    6.692863703e-01
     5322000000    1.439058930e-01    7.766919732e-01
     5325000000   -1.372801363e-01    7.738856673e-01
     5328000000   -4.077939391e-01    6.729363799e-01
     5331000000   -6.269962192e-01    4.715482295e-01
     5334000000   -7.576222420e-01    2.099992484e-01
     5337000000   -7.835881114e-01   -8.702513576e-02
     5340000000   -7.007923722e-01   -3.586608171e-01
     5343000000   -5.178182125e-01   -5.874122381e-01
     5346000000   -2.722699940e-01   -7.385883331e-01
     5349000000    1.982244290e-02   -7.862453461e-01
     5352000000    3.001676500e-01   -7.256880999e-01
     5355000000    5.486552119e-01   -5.645611286e-01
     5358000000    7.168214917e-01   -3.246145844e-01
     5361000000    7.903965712e-01   -3.782004118e-02
     5364000000    7.417967916e-01    2.645288110e-01
     5367000000    6.052432656e-01    4.920067489e-01
     5370000000    3.610692322e-01    7.062322497e-01
     5373000000    1.307511330e-01    7.717690468e-01
     5376000000   -1.793688983e-01    7.625486255e-01
     5379000000   -4.644552767e-01    6.390183568e-01
     5382000000   -6.519762874e-01    4.362893999e-01
     5385000000   -7.607448101e-01    1.726644635e-01
     5388000000   -7.750560641e-01   -1.351584047e-01
     5391000000   -6.692393422e-01   -4.109359086e-01
     5394000000   -4.829533100e-01   -6.245124340e-01
     5397000000   -2.259527147e-01   -7.491185665e-01
     5400000000    5.942713469e-02   -7.810205221e-01
     5403000000    3.471492827e-01   -7.002827525e-01
     5406000000    5.761719346e-01   -5.246842504e-01
     5409000000    7.354289889e-01   -2.636350691e-01
     5412000000    7.778277993e-01   -2.773385961e-03
     5415000000    7.173928618e-01    3.110027909e-01
     5418000000    5.692957640e-01    5.265910625e-01
     5421000000    3.188990653e-01    7.124388218e-01
     5424000000    7.476088405e-02    7.729226947e-01
     5427000000   -2.637937367e-01    7.349333167e-01
     5430000000   -4.774803519e-01    6.119117141e-01
     5433000000   -6.845347881e-01    3.648024797e-01
     5436000000   -7.593181729e-01    1.318795979e-01
     5439000000   -7.516559362e-01   -1.943605393e-01
     5442000000   -6.288404465e-01   -4.574844241e-01
     5445000000   -4.564050436e-01   -6.253843307e-01
     5448000000   -1.517571360e-01   -7.628211975e-01
     5451000000    1.174969450e-01   -7.655003071e-01
     5454000000    3.869698644e-01   -6.693360209e-01
     5457000000    6.048111916e-01   -4.792374969e-01
     5460000000    7.327761054e-01   -2.341757268e-01
     5463000000    7.625133395e-01    7.087592781e-02
     5466000000    6.928540468e-01    3.324895203e-01
     5469000000    5.315141082e-01    5.501590967e-01
     5472000000    2.659843266e-01    7.182935476e-01
     5475000000    9.654338472e-03    7.620500326e-01
     5478000000   -2.956371009e-01    7.036206126e-01
     5481000000   -5.204153657e-01    5.528418422e-01
     5484000000   -6.860425472e-01    3.330911696e-01
     5487000000   -7.604659200e-01    4.053961486e-02
     5490000000   -7.291728854e-01   -2.207780033e-01
     5493000000   -5.790298581e-01   -4.933913648e-01
     5496000000   -3.869893551e-01   -6.504767537e-01
     5499000000   -1.019309983e-01   -7.483387589e-01
     5502000000    1.675251424e-01   -7.361482978e-01
     5505000000    4.194876254e-01   -6.300880313e-01
     5508000000    6.286891699e-01   -4.164144695e-01
     5511000000    7.341066003e-01   -1.696713418e-01
     5514000000    7.436532974e-01    1.160038263e-01
     5517000000    6.591218114e-01    3.630826175e-01
     5520000000    4.640209377e-01    5.871068239e-01
     5523000000    2.101268917e-01    7.189151049e-01
     5526000000   -5.117155984e-02    7.508364916e-01
     5529000000   -3.266997933e-01    6.712664962e-01
     5532000000   -5.442280173e-01    5.121086836e-01
     5535000000   -6.940374970e-01    2.855213284e-01
     5538000000   -7.420044541e-01    2.451966284e-03
     5541000000   -6.798613071e-01   -2.950656116e-01
     5544000000   -5.530096292e-01   -4.945710599e-01
     5547000000   -3.194329441e-01   -6.698816419e-01
     5550000000   -4.702018946e-02   -7.406826615e-01
     5553000000    2.374759316e-01   -6.971696019e-01
     5556000000    4.604817033e-01   -5.778013468e-01
     5559000000    6.393414140e-01   -3.650381267e-01
     5562000000    7.322730422e-01   -1.056939140e-01
     5565000000    7.146981359e-01    1.754026860e-01
     5568000000    5.972597003e-01    4.271112084e-01
     5571000000    4.184612930e-01    6.096872687e-01
     5574000000    1.584901810e-01    7.176734209e-01
     5577000000   -1.187864020e-01    7.235284448e-01
     5580000000   -3.753022254e-01    6.319640279e-01
     5583000000   -5.756402612e-01    4.527141452e-01
     5586000000   -6.988205314e-01    2.128778249e-01
     5589000000   -7.278761268e-01   -5.862944573e-02
     5592000000   -6.570475698e-01   -3.209948540e-01
     5595000000   -4.987798035e-01   -5.375162363e-01
     5598000000   -2.673020363e-01   -6.849657893e-01
     5601000000    1.305299927e-03   -7.331680655e-01
     5604000000    2.760609686e-01   -6.781315207e-01
     5607000000    5.050379038e-01   -5.276833773e-01
     5610000000    6.574273109e-01   -3.195490539e-01
     5613000000    7.321331501e-01   -6.351916492e-02
     5616000000    6.888045073e-01    2.261576802e-01
     5619000000    5.580657125e-01    4.600206614e-01
     5622000000    3.603211343e-01    6.267291307e-01
     5625000000    9.647250921e-02    7.114623785e-01
     5628000000   -1.547259837e-01    7.101340890e-01
     5631000000   -4.110870659e-01    5.896192193e-01
     5634000000   -5.967822671e-01    4.023588300e-01
     5637000000   -7.001398206e-01    1.473901123e-01
     5640000000   -7.104955316e-01   -1.128169447e-01
     5643000000   -6.233038306e-01   -3.580327034e-01
     5646000000   -4.630965292e-01   -5.605083704e-01
     5649000000   -1.972530931e-01   -6.845512390e-01
     5652000000    4.597263038e-02   -7.171314955e-01
     5655000000    3.027196527e-01   -6.519521475e-01
     5658000000    5.289714932e-01   -4.654365480e-01
     5661000000    6.616262794e-01   -2.614601254e-01
     5664000000    7.114846706e-01   -3.794891993e-03
     5667000000    6.679104567e-01    2.462054044e-01
     5670000000    5.198469162e-01    4.796491265e-01
     5673000000    3.128383160e-01    6.344624758e-01
     5676000000    4.495932162e-02    7.000769377e-01
     5679000000   -1.978415251e-01    6.802641749e-01
     5682000000   -4.398828149e-01    5.474206805e-01
     5685000000   -6.049864292e-01    3.570968211e-01
     5688000000   -6.914172769e-01    1.127525270e-01
     5691000000   -6.841941476e-01   -1.495419592e-01
     5694000000   -5.799704194e-01   -3.921731412e-01
     5697000000   -3.917732239e-01   -5.763212442e-01
     5700000000   -1.722900122e-01   -6.810475588e-01
     5703000000    1.079942659e-01   -6.832274199e-01
     5706000000    3.532123268e-01   -5.999914408e-01
     5709000000    5.392981768e-01   -4.581415653e-01
     5712000000    6.625323296e-01   -2.017218322e-01
     5715000000    6.967723370e-01    3.790832683e-02
     5718000000    6.228702068e-01    2.988697886e-01
     5721000000    4.790404737e-01    5.018166900e-01
     5724000000    2.652174830e-01    6.434499621e-01
     5727000000    9.636870585e-03    6.885555387e-01
     5730000000   -2.455832362e-01    6.436318755e-01
     5733000000   -4.626204967e-01    5.037155151e-01
     5736000000   -6.151873469e-01    3.127842546e-01
     5739000000   -6.793369651e-01    5.593547970e-02
     5742000000   -6.569261551e-01   -1.902994812e-01
     5745000000   -5.443000197e-01   -4.176565409e-01
     5748000000   -3.440040350e-01   -5.865263343e-01
     5751000000   -1.144590378e-01   -6.724508405e-01
     5754000000    1.510080993e-01   -6.573610306e-01
     5757000000    3.716155887e-01   -5.814850330e-01
     5760000000    5.569202304e-01   -3.896988034e-01
     5763000000    6.569929719e-01   -1.489257067e-01
     5766000000    6.671780944e-01    9.803727269e-02
     5769000000    6.022337675e-01    3.284178078e-01
     5772000000    4.436846375e-01    5.249792337e-01
     5775000000    2.062332332e-01    6.449497342e-01
     5778000000   -3.145817295e-02    6.854759455e-01
     5781000000   -2.844006121e-01    6.131927371e-01
     5784000000   -4.889697134e-01    4.651314616e-01
     5787000000   -6.264349222e-01    2.636237442e-01
     5790000000   -6.786618233e-01    1.718217880e-02
     5793000000   -6.334315538e-01   -2.321302146e-01
     5796000000   -5.082877278e-01   -4.465425611e-01
     5799000000   -3.120142519e-01   -6.004855633e-01
     5802000000   -6.928405166e-02   -6.707665324e-01
     5805000000    1.810321808e-01   -6.454194188e-01
     5808000000    4.028770328e-01   -5.319668651e-01
     5811000000    5.712177753e-01   -3.594097793e-01
     5814000000    6.585254669e-01   -1.199268550e-01
     5817000000    6.482359767e-01    1.346491277e-01
     5820000000    5.655313730e-01    3.597984314e-01
     5823000000    3.925180733e-01    5.401594639e-01
     5826000000    1.707347333e-01    6.472737789e-01
     5829000000   -7.853683829e-02    6.631444097e-01
     5832000000   -3.148947954e-01    5.901708603e-01
     5835000000   -5.074708462e-01    4.351237118e-01
     5838000000   -6.317641735e-01    2.189046890e-01
     5841000000   -6.664825678e-01   -2.434857003e-02
     5844000000   -6.111407280e-01   -2.652416527e-01
     5847000000   -4.729218483e-01   -4.688124657e-01
     5850000000   -2.715352178e-01   -6.092287898e-01
     5853000000   -2.476685122e-02   -6.592470407e-01
     5856000000    2.091898471e-01   -6.331725121e-01
     5859000000    4.249772727e-01   -5.068253279e-01
     5862000000    5.823047161e-01   -3.199027777e-01
     5865000000    6.564325690e-01   -8.578597009e-02
     5868000000    6.411887407e-01    1.628250927e-01
     5871000000    5.344578624e-01    3.826768696e-01
     5874000000    3.655608296e-01    5.506754518e-01
     5877000000    1.317798495e-01    6.403174400e-01
     5880000000   -1.043906361e-01    6.521043777e-01
     5883000000   -3.341370523e-01    5.635238886e-01
     5886000000   -5.152405500e-01    3.962077498e-01
     5889000000   -6.328536272e-01    1.925971657e-01
     5892000000   -6.459473372e-01   -5.891292542e-02
     5895000000   -5.830713511e-01   -2.860193253e-01
     5898000000   -4.412493110e-01   -4.797331691e-01
     5901000000   -2.362284809e-01   -6.070329547e-01
     5904000000    3.466714639e-03   -6.486539841e-01
     5907000000    2.372683436e-01   -6.079615355e-01
     5910000000    4.372194707e-01   -4.713422358e-01
     5913000000    5.841190219e-01   -2.825619578e-01
     5916000000    6.424532533e-01   -5.321112275e-02
     5919000000    6.187961698e-01    1.873914003e-01
     5922000000    5.058771372e-01    3.979750276e-01
     5925000000    3.272565305e-01    5.531004667e-01
     5928000000    1.031564698e-01    6.314007044e-01
     5931000000   -1.330692321e-01    6.304132938e-01
     5934000000   -3.530276716e-01    5.330948234e-01
     5937000000   -5.195706487e-01    3.651022613e-01
     5940000000   -6.178964972e-01    1.526752710e-01
     5943000000   -6.297839284e-01   -8.506107330e-02
     5946000000   -5.602101088e-01   -3.035068810e-01
     5949000000   -4.030538797e-01   -4.840806127e-01
     5952000000   -1.988321990e-01   -5.991723537e-01
     5955000000    2.859997004e-02   -6.283996701e-01
     5958000000    2.581303418e-01   -5.736831427e-01
     5961000000    4.502057731e-01   -4.391771257e-01
     5964000000    5.766295791e-01   -2.460678369e-01
     5967000000    6.253005266e-01   -1.841258630e-02
     5970000000    5.883215070e-01    2.078404725e-01
     5973000000    4.747258127e-01    4.074630439e-01
     5976000000    2.895190716e-01    5.509477258e-01
     5979000000    6.928689033e-02    6.177793741e-01
     5982000000   -1.581450552e-01    6.011528969e-01
     5985000000   -3.652796447e-01    4.993845224e-01
     5988000000   -5.203105807e-01    3.337626457e-01
     5991000000   -6.043324471e-01    1.206509471e-01
     5994000000   -6.063178182e-01   -1.074521169e-01
     5997000000   -5.256899595e-01   -3.200059235e-01
     6000000000   -3.757823110e-01   -4.853478968e-01
