! NanoVNA-App
! Date: 2026-05-22 18:49:12
! Start: 2.3GHz Stop: 2.6GHz Points: 401
! S-Parameter data: F S11
# Hz S RI R 50
!     Frequency           S11_Real           S11_Imag
     2300000000    3.368450999e-01   -3.836724162e-01
     2300750000    3.722865582e-01   -3.500538468e-01
     2301500000    4.035422206e-01   -3.154791892e-01
     2302250000    4.321723580e-01   -2.742441893e-01
     2303000000    4.571171403e-01   -2.331304401e-01
     2303750000    4.759331048e-01   -1.922873408e-01
     2304500000    4.928207397e-01   -1.457685083e-01
     2305250000    5.043976903e-01   -9.864997119e-02
     2306000000    5.122770071e-01   -5.557307228e-02
     2306750000    5.148091912e-01   -4.783518612e-03
     2307500000    5.137678981e-01    4.279049858e-02
     2308250000    5.076361895e-01    8.942074329e-02
     2309000000    4.970871210e-01    1.374743134e-01
     2309750000    4.825398922e-01    1.821762770e-01
     2310500000    4.636840820e-01    2.263173163e-01
     2311250000    4.412270486e-01    2.686590254e-01
     2312000000    4.139147103e-01    3.081699014e-01
     2312750000    3.819095492e-01    3.460776508e-01
     2313500000    3.495628238e-01    3.797117472e-01
     2314250000    3.131084740e-01    4.097398520e-01
     2315000000    2.720395625e-01    4.381660819e-01
     2315750000    2.318312824e-01    4.611470997e-01
     2316500000    1.870372742e-01    4.803472459e-01
     2317250000    1.400619298e-01    4.956722558e-01
     2318000000    9.675047547e-02    5.072522163e-01
     2318750000    4.632334411e-02    5.135791302e-01
     2319500000   -9.753344930e-04    5.152621269e-01
     2320250000   -4.524372518e-02    5.138658881e-01
     2321000000   -9.416792542e-02    5.074554682e-01
     2321750000   -1.402796805e-01    4.937587082e-01
     2322500000   -1.874065697e-01    4.771317542e-01
     2323250000   -2.313580513e-01    4.560810626e-01
     2324000000   -2.722115517e-01    4.334081113e-01
     2324750000   -3.100571930e-01    4.069465399e-01
     2325500000   -3.455209434e-01    3.775863945e-01
     2326250000   -3.827880323e-01    3.375927806e-01
     2327000000   -4.089120626e-01    3.069413006e-01
     2327750000   -4.361851811e-01    2.630610764e-01
     2328500000   -4.578254819e-01    2.222687006e-01
     2329250000   -4.765360653e-01    1.808273196e-01
     2330000000   -4.905419946e-01    1.328635067e-01
     2330750000   -5.004032254e-01    8.649797738e-02
     2331500000   -5.057786107e-01    3.924677521e-02
     2332250000   -5.071520209e-01   -6.685303990e-03
     2333000000   -5.029616356e-01   -5.605620891e-02
     2333750000   -4.950393140e-01   -1.022268832e-01
     2334500000   -4.832682312e-01   -1.477548778e-01
     2335250000   -4.667118192e-01   -1.934432685e-01
     2336000000   -4.457641840e-01   -2.364143580e-01
     2336750000   -4.214914739e-01   -2.760745883e-01
     2337500000   -3.943734765e-01   -3.144027591e-01
     2338250000   -3.618481159e-01   -3.508647382e-01
     2339000000   -3.255735934e-01   -3.837918639e-01
     2339750000   -2.898919284e-01   -4.117918611e-01
     2340500000   -2.487979680e-01   -4.376254380e-01
     2341250000   -2.062751502e-01   -4.591252208e-01
     2342000000   -1.630222648e-01   -4.762333333e-01
     2342750000   -1.161359921e-01   -4.894516766e-01
     2343500000   -6.885626167e-02   -4.988405704e-01
     2344250000   -2.162970416e-02   -5.029939413e-01
     2345000000    2.433445118e-02   -5.029748082e-01
     2345750000    7.165461034e-02   -4.987826943e-01
     2346500000    1.204102486e-01   -4.891532063e-01
     2347250000    1.626238227e-01   -4.771857262e-01
     2348000000    2.066448927e-01   -4.601069093e-01
     2348750000    2.494039387e-01   -4.393873215e-01
     2349500000    2.901093662e-01   -4.132054150e-01
     2350250000    3.299922347e-01   -3.826357424e-01
     2351000000    3.627122939e-01   -3.524460495e-01
     2351750000    3.939126432e-01   -3.172213435e-01
     2352500000    4.204502404e-01   -2.827511430e-01
     2353250000    4.482697845e-01   -2.353750020e-01
     2354000000    4.673383534e-01   -1.958659738e-01
     2354750000    4.839605093e-01   -1.534838080e-01
     2355500000    4.965111613e-01   -1.053545475e-01
     2356250000    5.038005710e-01   -5.612071231e-02
     2357000000    5.068939328e-01   -1.337009016e-02
     2357750000    5.057479143e-01    3.547941521e-02
     2358500000    5.016473532e-01    7.967711240e-02
     2359250000    4.890689850e-01    1.296835542e-01
     2360000000    4.765840769e-01    1.718636751e-01
     2360750000    4.573645890e-01    2.173939347e-01
     2361500000    4.364620149e-01    2.567864954e-01
     2362250000    4.109284878e-01    2.963885963e-01
     2363000000    3.801112473e-01    3.341774642e-01
     2363750000    3.466395438e-01    3.687123954e-01
     2364500000    3.108976483e-01    3.990103006e-01
     2365250000    2.728354037e-01    4.261499643e-01
     2366000000    2.307491302e-01    4.495643973e-01
     2366750000    1.869994253e-01    4.693233073e-01
     2367500000    1.442054659e-01    4.846212566e-01
     2368250000    9.706732631e-02    4.955857396e-01
     2369000000    5.161009729e-02    5.024088025e-01
     2369750000    3.181091975e-03    5.048844218e-01
     2370500000   -4.259060323e-02    5.033228397e-01
     2371250000   -8.830914646e-02    4.977829754e-01
     2372000000   -1.351724565e-01    4.861626029e-01
     2372750000   -1.802081913e-01    4.721865654e-01
     2373500000   -2.232664824e-01    4.520306885e-01
     2374250000   -2.637172639e-01    4.301646948e-01
     2375000000   -3.045600653e-01    4.013261199e-01
     2375750000   -3.394438326e-01    3.720971346e-01
     2376500000   -3.729300499e-01    3.393607438e-01
     2377250000   -4.035391808e-01    3.028010130e-01
     2378000000   -4.296976924e-01    2.639390230e-01
     2378750000   -4.524229467e-01    2.245841473e-01
     2379500000   -4.718524218e-01    1.781960130e-01
     2380250000   -4.863736331e-01    1.344542950e-01
     2381000000   -4.974041581e-01    9.336651117e-02
     2381750000   -5.029444695e-01    4.219874740e-02
     2382500000   -5.047088861e-01   -2.614860190e-03
     2383250000   -5.027264357e-01   -5.024242774e-02
     2384000000   -4.960373342e-01   -9.553968161e-02
     2384750000   -4.824351072e-01   -1.443823725e-01
     2385500000   -4.692729115e-01   -1.854857057e-01
     2386250000   -4.501681328e-01   -2.284955382e-01
     2387000000   -4.256051481e-01   -2.697679102e-01
     2387750000   -3.982196152e-01   -3.078702390e-01
     2388500000   -3.715883195e-01   -3.422304392e-01
     2389250000   -3.334790766e-01   -3.764174581e-01
     2390000000   -2.987818122e-01   -4.052674770e-01
     2390750000   -2.571086586e-01   -4.322133958e-01
     2391500000   -2.168519348e-01   -4.537268877e-01
     2392250000   -1.747056395e-01   -4.708525538e-01
     2393000000   -1.301099658e-01   -4.850914180e-01
     2393750000   -8.258721977e-02   -4.947748780e-01
     2394500000   -4.076905549e-02   -5.003190041e-01
     2395250000    7.289994974e-03   -5.012114644e-01
     2396000000    5.247929692e-02   -4.986819923e-01
     2396750000    9.905947000e-02   -4.906725287e-01
     2397500000    1.448684186e-01   -4.785289466e-01
     2398250000    1.872478127e-01   -4.638592601e-01
     2399000000    2.299675047e-01   -4.429226220e-01
     2399750000    2.700397968e-01   -4.197612405e-01
     2400500000    3.080585003e-01   -3.932880759e-01
     2401250000    3.426319361e-01   -3.624003828e-01
     2402000000    3.736950755e-01   -3.295857906e-01
     2402750000    4.024051726e-01   -2.938178778e-01
     2403500000    4.277898669e-01   -2.546749413e-01
     2404250000    4.486136138e-01   -2.155084163e-01
     2405000000    4.661300182e-01   -1.701351255e-01
     2405750000    4.797138572e-01   -1.272886097e-01
     2406500000    4.889349639e-01   -8.231601864e-02
     2407250000    4.934363365e-01   -3.731974214e-02
     2408000000    4.941323698e-01    9.462198243e-03
     2408750000    4.904027283e-01    5.546366796e-02
     2409500000    4.819928110e-01    1.013112664e-01
     2410250000    4.705420732e-01    1.453124285e-01
     2411000000    4.552608728e-01    1.857079566e-01
     2411750000    4.347966909e-01    2.283099145e-01
     2412500000    4.113520682e-01    2.672263086e-01
     2413250000    3.843494058e-01    3.034863472e-01
     2414000000    3.546454906e-01    3.372691572e-01
     2414750000    3.189286590e-01    3.696250618e-01
     2415500000    2.835862637e-01    3.968389332e-01
     2416250000    2.449907511e-01    4.206665456e-01
     2417000000    2.046864331e-01    4.410901964e-01
     2417750000    1.630558372e-01    4.579080641e-01
     2418500000    1.191580817e-01    4.705186188e-01
     2419250000    7.603655756e-02    4.789761901e-01
     2420000000    3.035919368e-02    4.833209515e-01
     2420750000   -1.419030689e-02    4.833409488e-01
     2421500000   -5.956702679e-02    4.792426825e-01
     2422250000   -1.022723764e-01    4.722130299e-01
     2423000000   -1.475488693e-01    4.589541852e-01
     2423750000   -1.901357174e-01    4.423673153e-01
     2424500000   -2.296086252e-01    4.224806130e-01
     2425250000   -2.661421299e-01    4.008216858e-01
     2426000000   -3.022940457e-01    3.739033341e-01
     2426750000   -3.362049162e-01    3.425826132e-01
     2427500000   -3.649406731e-01    3.111019731e-01
     2428250000   -3.916761577e-01    2.768404782e-01
     2429000000   -4.149898589e-01    2.392129600e-01
     2429750000   -4.351672828e-01    1.965389699e-01
     2430500000   -4.502242208e-01    1.592768580e-01
     2431250000   -4.620448351e-01    1.154972538e-01
     2432000000   -4.702453315e-01    7.135655731e-02
     2432750000   -4.746641815e-01    3.084890358e-02
     2433500000   -4.723047614e-01   -1.724445261e-02
     2434250000   -4.697906673e-01   -5.560187250e-02
     2435000000   -4.598617852e-01   -1.014370993e-01
     2435750000   -4.468880594e-01   -1.430483609e-01
     2436500000   -4.324659407e-01   -1.816945076e-01
     2437250000   -4.119122624e-01   -2.211756110e-01
     2438000000   -3.869155347e-01   -2.590002120e-01
     2438750000   -3.623940647e-01   -2.912122905e-01
     2439500000   -3.302970529e-01   -3.249137104e-01
     2440250000   -2.994692028e-01   -3.530990779e-01
     2441000000   -2.624648213e-01   -3.786109984e-01
     2441750000   -2.269363105e-01   -4.004034698e-01
     2442500000   -1.863864809e-01   -4.190071821e-01
     2443250000   -1.489706635e-01   -4.339586198e-01
     2444000000   -1.061134264e-01   -4.447427988e-01
     2444750000   -6.400733441e-02   -4.523384571e-01
     2445500000   -2.126708440e-02   -4.556759894e-01
     2446250000    2.129269950e-02   -4.541468322e-01
     2447000000    6.203971058e-02   -4.498257935e-01
     2447750000    1.050429493e-01   -4.406794310e-01
     2448500000    1.448646337e-01   -4.289204478e-01
     2449250000    1.853119582e-01   -4.116456211e-01
     2450000000    2.227733731e-01   -3.918179572e-01
     2450750000    2.561867833e-01   -3.699887097e-01
     2451500000    2.896426916e-01   -3.430075049e-01
     2452250000    3.200964928e-01   -3.143659532e-01
     2453000000    3.467820287e-01   -2.835366130e-01
     2453750000    3.711369634e-01   -2.479265779e-01
     2454500000    3.919953704e-01   -2.124285102e-01
     2455250000    4.092814922e-01   -1.760883480e-01
     2456000000    4.228287637e-01   -1.347550899e-01
     2456750000    4.332452416e-01   -9.351763874e-02
     2457500000    4.387485385e-01   -5.519194901e-02
     2458250000    4.411928654e-01   -1.345546544e-02
     2459000000    4.393649399e-01    2.816894278e-02
     2459750000    4.332209826e-01    6.973309815e-02
     2460500000    4.269380271e-01    1.060415208e-01
     2461250000    4.128525853e-01    1.457883567e-01
     2462000000    3.952797651e-01    1.855323464e-01
     2462750000    3.767801523e-01    2.196618766e-01
     2463500000    3.542782366e-01    2.517368495e-01
     2464250000    3.300579190e-01    2.828368545e-01
     2465000000    2.981073558e-01    3.124467432e-01
     2465750000    2.683776319e-01    3.377339244e-01
     2466500000    2.373621017e-01    3.589458168e-01
     2467250000    2.002750635e-01    3.789579570e-01
     2468000000    1.656660885e-01    3.939455152e-01
     2468750000    1.269948334e-01    4.057221413e-01
     2469500000    9.012860805e-02    4.147440493e-01
     2470250000    5.132352561e-02    4.194288552e-01
     2471000000    9.010990150e-03    4.199319780e-01
     2471750000   -2.880683355e-02    4.177537858e-01
     2472500000   -6.640136987e-02    4.117273092e-01
     2473250000   -1.045719609e-01    4.021213949e-01
     2474000000   -1.436500102e-01    3.865508437e-01
     2474750000   -1.773415655e-01    3.719209433e-01
     2475500000   -2.116711289e-01    3.516057432e-01
     2476250000   -2.425700277e-01    3.282468915e-01
     2477000000   -2.708857954e-01    3.041754663e-01
     2477750000   -2.981404960e-01    2.748387456e-01
     2478500000   -3.211233020e-01    2.454601377e-01
     2479250000   -3.411942124e-01    2.125497013e-01
     2480000000   -3.580259979e-01    1.786623597e-01
     2480750000   -3.729406595e-01    1.438129842e-01
     2481500000   -3.831901848e-01    1.073846668e-01
     2482250000   -3.905937672e-01    6.993080676e-02
     2483000000   -3.942099214e-01    3.260298818e-02
     2483750000   -3.935786784e-01   -4.731027875e-03
     2484500000   -3.900915384e-01   -4.225087538e-02
     2485250000   -3.830546439e-01   -7.859294116e-02
     2486000000   -3.718180060e-01   -1.147170514e-01
     2486750000   -3.583416939e-01   -1.488697976e-01
     2487500000   -3.411300480e-01   -1.813519001e-01
     2488250000   -3.204800189e-01   -2.125741243e-01
     2489000000   -2.977909148e-01   -2.412320524e-01
     2489750000   -2.709435523e-01   -2.689560950e-01
     2490500000   -2.440354824e-01   -2.923202515e-01
     2491250000   -2.132084072e-01   -3.134777248e-01
     2492000000   -1.810553223e-01   -3.321726620e-01
     2492750000   -1.486756802e-01   -3.468474150e-01
     2493500000   -1.158721372e-01   -3.591454327e-01
     2494250000   -7.925041765e-02   -3.673763573e-01
     2495000000   -4.367073998e-02   -3.730118275e-01
     2495750000   -7.143759634e-03   -3.747688830e-01
     2496500000    3.082717210e-02   -3.717096150e-01
     2497250000    6.428774446e-02   -3.678855300e-01
     2498000000    9.755688906e-02   -3.591786921e-01
     2498750000    1.325434893e-01   -3.484763801e-01
     2499500000    1.644102633e-01   -3.331377208e-01
     2500250000    1.963980049e-01   -3.130660355e-01
     2501000000    2.231703699e-01   -2.959473133e-01
     2501750000    2.502323389e-01   -2.711466551e-01
     2502500000    2.748229504e-01   -2.431323081e-01
     2503250000    2.958950698e-01   -2.179941088e-01
     2504000000    3.147007227e-01   -1.869880855e-01
     2504750000    3.307713866e-01   -1.574339420e-01
     2505500000    3.431669474e-01   -1.243660673e-01
     2506250000    3.524566293e-01   -9.092110395e-02
     2507000000    3.587133288e-01   -5.450120568e-02
     2507750000    3.629343808e-01   -2.299143560e-02
     2508500000    3.612678349e-01    1.311271824e-02
     2509250000    3.583214283e-01    4.787385836e-02
     2510000000    3.512433171e-01    8.048259467e-02
     2510750000    3.415762484e-01    1.141537428e-01
     2511500000    3.263261616e-01    1.469518989e-01
     2512250000    3.115848005e-01    1.761274487e-01
     2513000000    2.936470807e-01    2.037990540e-01
     2513750000    2.712704539e-01    2.311978489e-01
     2514500000    2.473984361e-01    2.549786866e-01
     2515250000    2.209998071e-01    2.770943940e-01
     2516000000    1.943294406e-01    2.967399359e-01
     2516750000    1.636136174e-01    3.117381632e-01
     2517500000    1.323972493e-01    3.259544969e-01
     2518250000    9.963835031e-02    3.360159397e-01
     2519000000    6.734362245e-02    3.430195451e-01
     2519750000    3.432386741e-02    3.473699987e-01
     2520500000   -1.458312036e-04    3.475641310e-01
     2521250000   -3.343714774e-02    3.449196517e-01
     2522000000   -6.708130985e-02    3.391617835e-01
     2522750000   -9.861454368e-02    3.304127455e-01
     2523500000   -1.306894124e-01    3.176129758e-01
     2524250000   -1.597819626e-01    3.036557138e-01
     2525000000   -1.880932003e-01    2.865394056e-01
     2525750000   -2.150411159e-01    2.656182945e-01
     2526500000   -2.395641506e-01    2.428777516e-01
     2527250000   -2.614877820e-01    2.190284282e-01
     2528000000   -2.810993493e-01    1.927922815e-01
     2528750000   -2.980040908e-01    1.631442755e-01
     2529500000   -3.125317395e-01    1.331960112e-01
     2530250000   -3.231163025e-01    1.028039232e-01
     2531000000   -3.311693072e-01    7.056652009e-02
     2531750000   -3.359296620e-01    3.717937693e-02
     2532500000   -3.378960192e-01    4.823660944e-03
     2533250000   -3.363052607e-01   -2.822088450e-02
     2534000000   -3.318278491e-01   -6.137376279e-02
     2534750000   -3.240485489e-01   -9.256424755e-02
     2535500000   -3.132603467e-01   -1.237560734e-01
     2536250000   -2.995852530e-01   -1.539424807e-01
     2537000000   -2.835628390e-01   -1.817437559e-01
     2537750000   -2.640266716e-01   -2.086237967e-01
     2538500000   -2.418921888e-01   -2.334957570e-01
     2539250000   -2.191067040e-01   -2.553158700e-01
     2540000000   -1.925642788e-01   -2.757456005e-01
     2540750000   -1.649397612e-01   -2.934719026e-01
     2541500000   -1.350327134e-01   -3.081545532e-01
     2542250000   -1.050024033e-01   -3.200396895e-01
     2543000000   -7.380240411e-02   -3.296380043e-01
     2543750000   -4.238091037e-02   -3.356660306e-01
     2544500000   -1.015965454e-02   -3.383710086e-01
     2545250000    2.202458680e-02   -3.384638727e-01
     2546000000    5.424609408e-02   -3.352780044e-01
     2546750000    8.656396717e-02   -3.283772171e-01
     2547500000    1.171172187e-01   -3.193574250e-01
     2548250000    1.467783451e-01   -3.077595830e-01
     2549000000    1.750505567e-01   -2.919892371e-01
     2549750000    2.032359689e-01   -2.732054889e-01
     2550500000    2.268047631e-01   -2.538167238e-01
     2551250000    2.497848868e-01   -2.308724821e-01
     2552000000    2.697010040e-01   -2.055917829e-01
     2552750000    2.876648307e-01   -1.789035201e-01
     2553500000    3.032445610e-01   -1.501384377e-01
     2554250000    3.156794012e-01   -1.203347519e-01
     2555000000    3.247074485e-01   -9.072786570e-02
     2555750000    3.319705725e-01   -5.663441867e-02
     2556500000    3.355724216e-01   -2.575118281e-02
     2557250000    3.351344764e-01    6.025172304e-03
     2558000000    3.340725899e-01    3.801781684e-02
     2558750000    3.285688162e-01    6.908106059e-02
     2559500000    3.193105459e-01    1.014118344e-01
     2560250000    3.076035678e-01    1.315797716e-01
     2561000000    2.938313186e-01    1.604916453e-01
     2561750000    2.744717300e-01    1.893929690e-01
     2562500000    2.557871044e-01    2.143099457e-01
     2563250000    2.343405783e-01    2.374942005e-01
     2564000000    2.113440335e-01    2.590987086e-01
     2564750000    1.840243191e-01    2.779463232e-01
     2565500000    1.568544209e-01    2.947781682e-01
     2566250000    1.280301809e-01    3.089182079e-01
     2567000000    9.509868175e-02    3.196973503e-01
     2567750000    6.624643505e-02    3.280810416e-01
     2568500000    3.317426145e-02    3.323633969e-01
     2569250000    1.372426748e-03    3.347605169e-01
     2570000000   -3.048411757e-02    3.342855275e-01
     2570750000   -6.257804483e-02    3.294138908e-01
     2571500000   -9.461133927e-02    3.211431801e-01
     2572250000   -1.236928627e-01    3.126560152e-01
     2573000000   -1.540459543e-01    2.983389199e-01
     2573750000   -1.820369810e-01    2.828210294e-01
     2574500000   -2.087186426e-01    2.636302412e-01
     2575250000   -2.335613817e-01    2.432527393e-01
     2576000000   -2.560715675e-01    2.206885517e-01
     2576750000   -2.761423886e-01    1.950820684e-01
     2577500000   -2.927695513e-01    1.685073078e-01
     2578250000   -3.081292212e-01    1.405717880e-01
     2579000000   -3.209230900e-01    1.104121283e-01
     2579750000   -3.302040696e-01    8.018577844e-02
     2580500000   -3.358037472e-01    4.844005033e-02
     2581250000   -3.391636610e-01    1.534013823e-02
     2582000000   -3.398421407e-01   -1.515047718e-02
     2582750000   -3.370073736e-01   -4.745837301e-02
     2583500000   -3.302592635e-01   -7.929992676e-02
     2584250000   -3.212490678e-01   -1.103103161e-01
     2585000000   -3.097991049e-01   -1.400814801e-01
     2585750000   -2.951345444e-01   -1.690444350e-01
     2586500000   -2.775460780e-01   -1.960340440e-01
     2587250000   -2.580111325e-01   -2.216458172e-01
     2588000000   -2.370271981e-01   -2.442761213e-01
     2588750000   -2.094730437e-01   -2.663358152e-01
     2589500000   -1.863980442e-01   -2.850294411e-01
     2590250000   -1.580875814e-01   -3.003920615e-01
     2591000000   -1.281636208e-01   -3.143949509e-01
     2591750000   -9.788243473e-02   -3.250791132e-01
     2592500000   -6.721404195e-02   -3.327879608e-01
     2593250000   -3.596178815e-02   -3.372968435e-01
     2594000000   -6.646180409e-04   -3.376230896e-01
     2594750000    2.981464379e-02   -3.368155360e-01
     2595500000    6.119958684e-02   -3.336637914e-01
     2596250000    9.365274757e-02   -3.244623840e-01
     2597000000    1.227902398e-01   -3.148388267e-01
     2597750000    1.524962336e-01   -3.018482327e-01
     2598500000    1.811234057e-01   -2.846259773e-01
     2599250000    2.069594264e-01   -2.657630742e-01
     2600000000    2.307805270e-01   -2.455182821e-01
