! NanoVNA-App
! Date: 2026-05-22 18:56:02
! Start: 2.3GHz Stop: 2.6GHz Points: 401
! S-Parameter data: F S11
# Hz S RI R 50
!     Frequency           S11_Real           S11_Imag
     2300000000    3.407279849e-01   -3.982801139e-01
     2300750000    3.765912652e-01   -3.641354442e-01
     2301500000    4.083505273e-01   -3.289240897e-01
     2302250000    4.368300736e-01   -2.900994718e-01
     2303000000    4.627549052e-01   -2.470583767e-01
     2303750000    4.830648303e-01   -2.041561007e-01
     2304500000    4.999688566e-01   -1.581289619e-01
     2305250000    5.121782422e-01   -1.142771393e-01
     2306000000    5.207033157e-01   -6.555867940e-02
     2306750000    5.244504809e-01   -1.762520894e-02
     2307500000    5.229489803e-01    3.306995332e-02
     2308250000    5.185058117e-01    7.830047607e-02
     2309000000    5.087560415e-01    1.270136237e-01
     2309750000    4.945594668e-01    1.728173792e-01
              0    1.578017920e-01    1.031709611e-01
              0    1.573183537e-01    1.039381847e-01
     2312000000    4.273713231e-01    3.010373414e-01
     2312750000    3.968086243e-01    3.396115601e-01
     2313500000    3.646634221e-01    3.740893602e-01
     2314250000    3.292677701e-01    4.048282206e-01
     2315000000    2.900232971e-01    4.338717759e-01
     2315750000    2.483471781e-01    4.586642981e-01
     2316500000    2.063665688e-01    4.783755243e-01
     2317250000    1.606448740e-01    4.952214360e-01
     2318000000    1.162032709e-01    5.079162717e-01
     2318750000    6.633894891e-02    5.155053735e-01
     2319500000    2.351603657e-02    5.189396143e-01
     2320250000   -2.966445312e-02    5.166565180e-01
     2321000000   -7.493247092e-02    5.123433471e-01
     2321750000   -1.196917742e-01    5.027673841e-01
     2322500000   -1.655851603e-01    4.885551035e-01
     2323250000   -2.106862962e-01    4.682156742e-01
     2324000000   -2.512890995e-01    4.474567473e-01
     2324750000   -2.893851101e-01    4.222981334e-01
     2325500000   -3.281075358e-01    3.908898830e-01
     2326250000   -3.622379601e-01    3.592207730e-01
     2327000000   -3.931806386e-01    3.231374621e-01
     2327750000   -4.214414060e-01    2.807455659e-01
     2328500000   -4.428175092e-01    2.441679239e-01
     2329250000   -4.634478390e-01    1.997568160e-01
     2330000000   -4.793033898e-01    1.532862484e-01
     2330750000   -4.907909930e-01    1.073957160e-01
     2331500000   -4.977619350e-01    6.257516146e-02
     2332250000   -5.004297495e-01    1.683384180e-02
     2333000000   -4.982742071e-01   -3.256403655e-02
     2333750000   -4.916301966e-01   -7.951232046e-02
     2334500000   -4.816613793e-01   -1.250937432e-01
     2335250000   -4.667553306e-01   -1.709979475e-01
     2336000000   -4.482422471e-01   -2.137465626e-01
     2336750000   -4.253085554e-01   -2.548089921e-01
     2337500000   -3.982431889e-01   -2.945064008e-01
     2338250000   -3.709261715e-01   -3.290201724e-01
     2339000000   -3.362225592e-01   -3.635362983e-01
     2339750000   -3.013945222e-01   -3.927621245e-01
     2340500000   -2.622950077e-01   -4.203263819e-01
     2341250000   -2.219470441e-01   -4.426778555e-01
     2342000000   -1.804429442e-01   -4.612950683e-01
     2342750000   -1.349463165e-01   -4.758495688e-01
     2343500000   -9.277044982e-02   -4.866743088e-01
     2344250000   -4.265203699e-02   -4.926268458e-01
     2345000000    1.805969747e-03   -4.945352077e-01
     2345750000    4.858458787e-02   -4.916326106e-01
     2346500000    9.387695789e-02   -4.856724441e-01
     2347250000    1.386944503e-01   -4.739270210e-01
     2348000000    1.816456467e-01   -4.590722024e-01
     2348750000    2.240183800e-01   -4.404221177e-01
     2349500000    2.628983259e-01   -4.186208844e-01
     2350250000    3.037185371e-01   -3.888030946e-01
     2351000000    3.356089890e-01   -3.620683849e-01
     2351750000    3.667711616e-01   -3.296577036e-01
     2352500000    3.962798119e-01   -2.921313941e-01
     2353250000    4.227901697e-01   -2.521412671e-01
     2354000000    4.438588917e-01   -2.113409489e-01
     2354750000    4.616566002e-01   -1.725509912e-01
     2355500000    4.758650064e-01   -1.262161881e-01
     2356250000    4.852131605e-01   -8.416493237e-02
     2357000000    4.884424508e-01   -3.347025439e-02
     2357750000    4.913381040e-01    4.933754914e-03
     2358500000    4.877614379e-01    5.335823819e-02
     2359250000    4.783561826e-01    1.001906916e-01
     2360000000    4.672776163e-01    1.432787180e-01
     2360750000    4.520221651e-01    1.855235994e-01
     2361500000    4.315080345e-01    2.261262983e-01
     2362250000    4.095886946e-01    2.643059492e-01
     2363000000    3.818573058e-01    3.018449843e-01
     2363750000    3.511894941e-01    3.362965882e-01
     2364500000    3.175975084e-01    3.670706153e-01
     2365250000    2.825450003e-01    3.942753971e-01
     2366000000    2.420783788e-01    4.190825224e-01
     2366750000    2.017497867e-01    4.396044612e-01
     2367500000    1.605986655e-01    4.566802084e-01
     2368250000    1.162207201e-01    4.687578976e-01
     2369000000    7.331669331e-02    4.776474237e-01
     2369750000    2.971211448e-02    4.829790890e-01
     2370500000   -1.712155715e-02    4.824124575e-01
     2371250000   -6.310075521e-02    4.780702293e-01
     2372000000   -1.030088589e-01    4.714010954e-01
     2372750000   -1.501740515e-01    4.575928152e-01
     2373500000   -1.914638877e-01    4.409962893e-01
     2374250000   -2.298977375e-01    4.222654700e-01
     2375000000   -2.698866129e-01    3.964882791e-01
     2375750000   -3.049498200e-01    3.694365025e-01
     2376500000   -3.370366096e-01    3.403357863e-01
     2377250000   -3.686727881e-01    3.053227067e-01
     2378000000   -3.941571712e-01    2.714841068e-01
     2378750000   -4.183236361e-01    2.319702357e-01
     2379500000   -4.379881620e-01    1.898991019e-01
     2380250000   -4.528281093e-01    1.512938738e-01
     2381000000   -4.649457335e-01    1.084792316e-01
     2381750000   -4.727734625e-01    6.430324167e-02
     2382500000   -4.759300351e-01    2.122544497e-02
     2383250000   -4.751486182e-01   -2.785167657e-02
     2384000000   -4.711348712e-01   -6.894657016e-02
     2384750000   -4.630785882e-01   -1.100986823e-01
     2385500000   -4.496743977e-01   -1.552841067e-01
     2386250000   -4.317320287e-01   -1.970984489e-01
     2387000000   -4.111416936e-01   -2.373111993e-01
     2387750000   -3.895849884e-01   -2.721224129e-01
     2388500000   -3.615005612e-01   -3.080430627e-01
     2389250000   -3.300912976e-01   -3.401233852e-01
     2390000000   -2.983934879e-01   -3.683167100e-01
     2390750000   -2.613057792e-01   -3.950472474e-01
     2391500000   -2.225562036e-01   -4.178253412e-01
     2392250000   -1.855438948e-01   -4.350306392e-01
     2393000000   -1.416052580e-01   -4.508166909e-01
     2393750000   -9.909275919e-02   -4.619658291e-01
     2394500000   -5.783269554e-02   -4.682680070e-01
     2395250000   -1.218879409e-02   -4.712191224e-01
     2396000000    3.003446944e-02   -4.702569544e-01
     2396750000    7.257649302e-02   -4.657555819e-01
     2397500000    1.175787300e-01   -4.547597766e-01
     2398250000    1.574548334e-01   -4.427132905e-01
     2399000000    1.982251704e-01   -4.257625937e-01
     2399750000    2.370579690e-01   -4.049212337e-01
     2400500000    2.734827697e-01   -3.811749518e-01
     2401250000    3.068860471e-01   -3.543083072e-01
     2402000000    3.378831744e-01   -3.234042525e-01
     2402750000    3.659617305e-01   -2.907341123e-01
     2403500000    3.903512359e-01   -2.575729489e-01
     2404250000    4.118741155e-01   -2.176472843e-01
     2405000000    4.301114380e-01   -1.790767759e-01
     2405750000    4.445102513e-01   -1.380348057e-01
     2406500000    4.546730518e-01   -9.670336545e-02
     2407250000    4.602095187e-01   -5.366797373e-02
     2408000000    4.627796412e-01   -1.157160569e-02
     2408750000    4.612089694e-01    3.121550381e-02
     2409500000    4.551453590e-01    7.420285791e-02
     2410250000    4.454617202e-01    1.163299233e-01
     2411000000    4.317284822e-01    1.561494172e-01
     2411750000    4.163677394e-01    1.945804656e-01
     2412500000    3.933501244e-01    2.336173058e-01
     2413250000    3.705058992e-01    2.677304149e-01
     2414000000    3.433212042e-01    3.007833958e-01
     2414750000    3.123378754e-01    3.313416243e-01
     2415500000    2.815364003e-01    3.578936458e-01
     2416250000    2.463287711e-01    3.815324306e-01
     2417000000    2.095781416e-01    4.021255970e-01
     2417750000    1.703975499e-01    4.194073677e-01
     2418500000    1.294740438e-01    4.331434071e-01
     2419250000    8.916116506e-02    4.423247278e-01
     2420000000    4.716071114e-02    4.483645558e-01
     2420750000    5.865537096e-03    4.504876435e-01
     2421500000   -3.686419874e-02    4.479381740e-01
     2422250000   -7.703042030e-02    4.428548813e-01
     2423000000   -1.178207844e-01    4.334526062e-01
     2423750000   -1.568566710e-01    4.203753769e-01
     2424500000   -1.956111193e-01    4.027683139e-01
     2425250000   -2.316867709e-01    3.822557628e-01
     2426000000   -2.655119598e-01    3.589352965e-01
     2426750000   -2.974376976e-01    3.320768774e-01
     2427500000   -3.255053759e-01    3.032915294e-01
     2428250000   -3.518898487e-01    2.718243599e-01
     2429000000   -3.743173182e-01    2.382275164e-01
     2429750000   -3.948117793e-01    1.998789012e-01
     2430500000   -4.103264809e-01    1.658345163e-01
     2431250000   -4.231069088e-01    1.271013916e-01
     2432000000   -4.321218431e-01    8.680716902e-02
     2432750000   -4.369750023e-01    4.442197084e-02
     2433500000   -4.380452037e-01    4.346290138e-03
     2434250000   -4.367034435e-01   -3.289257362e-02
     2435000000   -4.290784001e-01   -7.455676794e-02
     2435750000   -4.192312360e-01   -1.140135899e-01
     2436500000   -4.056409597e-01   -1.518769413e-01
     2437250000   -3.898870349e-01   -1.872315854e-01
     2438000000   -3.691918552e-01   -2.218070030e-01
     2438750000   -3.438949585e-01   -2.559002340e-01
     2439500000   -3.201597631e-01   -2.846027911e-01
     2440250000   -2.913528681e-01   -3.128368258e-01
     2441000000   -2.593266666e-01   -3.373956680e-01
     2441750000   -2.250803262e-01   -3.587236404e-01
     2442500000   -1.927281767e-01   -3.770697713e-01
     2443250000   -1.540901363e-01   -3.927517235e-01
     2444000000   -1.169121712e-01   -4.037038386e-01
     2444750000   -7.934705168e-02   -4.125108421e-01
     2445500000   -3.780329973e-02   -4.166091084e-01
     2446250000   -9.297862998e-04   -4.176177382e-01
     2447000000    3.884378821e-02   -4.139851332e-01
     2447750000    7.697156072e-02   -4.081848264e-01
     2448500000    1.141148955e-01   -3.978908360e-01
     2449250000    1.504592150e-01   -3.848319650e-01
     2450000000    1.847776175e-01   -3.692592680e-01
     2450750000    2.177278996e-01   -3.483008444e-01
     2451500000    2.491620034e-01   -3.246588111e-01
     2452250000    2.777410150e-01   -3.002375960e-01
     2453000000    3.033635020e-01   -2.720442116e-01
     2453750000    3.269068599e-01   -2.422808409e-01
     2454500000    3.469918072e-01   -2.095663100e-01
     2455250000    3.637603819e-01   -1.761196852e-01
     2456000000    3.783329725e-01   -1.408217251e-01
     2456750000    3.890033066e-01   -1.051462293e-01
     2457500000    3.953265846e-01   -6.762257963e-02
     2458250000    3.998771906e-01   -3.215346858e-02
     2459000000    3.996105194e-01    6.837381516e-03
     2459750000    3.953769803e-01    4.543979838e-02
     2460500000    3.898184299e-01    8.007101715e-02
     2461250000    3.803506792e-01    1.152302027e-01
     2462000000    3.669265509e-01    1.500699967e-01
     2462750000    3.491094112e-01    1.841810644e-01
     2463500000    3.302934468e-01    2.145901620e-01
     2464250000    3.096287251e-01    2.421503514e-01
     2465000000    2.849073708e-01    2.692710459e-01
     2465750000    2.573624551e-01    2.942972481e-01
     2466500000    2.272560894e-01    3.153955042e-01
     2467250000    1.964075714e-01    3.345792294e-01
     2468000000    1.656971127e-01    3.491635919e-01
     2468750000    1.306247860e-01    3.611000478e-01
     2469500000    9.915484488e-02    3.708531559e-01
     2470250000    6.176630408e-02    3.762044013e-01
     2471000000    2.549722604e-02    3.781351745e-01
     2471750000   -7.737252861e-03    3.780906498e-01
     2472500000   -4.223746061e-02    3.734665513e-01
     2473250000   -7.769703865e-02    3.657163382e-01
     2474000000   -1.107871681e-01    3.548887372e-01
     2474750000   -1.424150765e-01    3.425543308e-01
     2475500000   -1.742590517e-01    3.239448369e-01
     2476250000   -2.020545453e-01    3.053033650e-01
     2477000000   -2.283149213e-01    2.844489217e-01
     2477750000   -2.533849478e-01    2.590867579e-01
     2478500000   -2.754645050e-01    2.318946719e-01
     2479250000   -2.945923507e-01    2.046710551e-01
     2480000000   -3.108685911e-01    1.748699844e-01
     2480750000   -3.246775270e-01    1.440535188e-01
     2481500000   -3.348073661e-01    1.113053486e-01
     2482250000   -3.427199125e-01    7.784121484e-02
     2483000000   -3.475945592e-01    4.566993192e-02
     2483750000   -3.478620648e-01    1.150422916e-02
     2484500000   -3.455511034e-01   -2.281151339e-02
     2485250000   -3.409897387e-01   -5.509898439e-02
     2486000000   -3.324367702e-01   -8.737338334e-02
     2486750000   -3.215799928e-01   -1.183528453e-01
     2487500000   -3.068999350e-01   -1.484836936e-01
     2488250000   -2.906652689e-01   -1.762382090e-01
     2489000000   -2.710508108e-01   -2.028169036e-01
     2489750000   -2.497388273e-01   -2.278535366e-01
     2490500000   -2.260518223e-01   -2.495308220e-01
     2491250000   -1.999770403e-01   -2.691857815e-01
     2492000000   -1.717011929e-01   -2.869187295e-01
     2492750000   -1.434727013e-01   -3.009055853e-01
     2493500000   -1.133355945e-01   -3.130056560e-01
     2494250000   -8.413146436e-02   -3.219488263e-01
     2495000000   -5.217493325e-02   -3.279641867e-01
     2495750000   -1.984703355e-02   -3.298879564e-01
     2496500000    1.100880653e-02   -3.302991092e-01
     2497250000    4.154212400e-02   -3.270751834e-01
     2498000000    7.211295515e-02   -3.198448718e-01
     2498750000    1.030155942e-01   -3.111789823e-01
     2499500000    1.312418133e-01   -2.985191643e-01
     2500250000    1.586672217e-01   -2.837989628e-01
     2501000000    1.840269268e-01   -2.668208182e-01
     2501750000    2.074796557e-01   -2.464747578e-01
     2502500000    2.293860018e-01   -2.256120145e-01
     2503250000    2.491893917e-01   -2.015947551e-01
     2504000000    2.656993568e-01   -1.763125211e-01
     2504750000    2.798874974e-01   -1.478557140e-01
     2505500000    2.917881310e-01   -1.217512190e-01
     2506250000    3.000015020e-01   -9.322275221e-02
     2507000000    3.066764176e-01   -6.055879593e-02
     2507750000    3.111080825e-01   -3.346606344e-02
     2508500000    3.103187978e-01   -1.760005252e-03
     2509250000    3.078729212e-01    2.892042696e-02
     2510000000    3.023796082e-01    5.731490999e-02
     2510750000    2.936456203e-01    8.777301759e-02
     2511500000    2.827918231e-01    1.151984259e-01
     2512250000    2.702079713e-01    1.409275085e-01
     2513000000    2.543330789e-01    1.666446924e-01
     2513750000    2.353051603e-01    1.900992990e-01
     2514500000    2.164987475e-01    2.114233971e-01
     2515250000    1.931364834e-01    2.316226512e-01
     2516000000    1.697256565e-01    2.483996600e-01
     2516750000    1.443657875e-01    2.628317475e-01
     2517500000    1.168970987e-01    2.754356861e-01
     2518250000    8.990411460e-02    2.847428024e-01
     2519000000    6.266652048e-02    2.920726538e-01
     2519750000    3.301786259e-02    2.954682708e-01
     2520500000    3.631823231e-03    2.962306142e-01
     2521250000   -2.423020825e-02    2.951431274e-01
     2522000000   -5.244882777e-02    2.918221653e-01
     2522750000   -8.067960292e-02    2.827747762e-01
     2523500000   -1.075078472e-01    2.735270262e-01
     2524250000   -1.327527165e-01    2.619817853e-01
     2525000000   -1.575489044e-01    2.456682771e-01
     2525750000   -1.801403016e-01    2.290720195e-01
     2526500000   -2.012301534e-01    2.102514207e-01
     2527250000   -2.202446163e-01    1.891872883e-01
     2528000000   -2.372304499e-01    1.665526330e-01
     2528750000   -2.512691319e-01    1.420473605e-01
     2529500000   -2.640904188e-01    1.174462140e-01
     2530250000   -2.734042406e-01    9.084091336e-02
     2531000000   -2.798410058e-01    6.316319108e-02
     2531750000   -2.847264409e-01    3.555035219e-02
     2532500000   -2.860990167e-01    7.467201911e-03
     2533250000   -2.843931019e-01   -2.080578916e-02
     2534000000   -2.812720835e-01   -4.864227399e-02
     2534750000   -2.740638256e-01   -7.571695745e-02
     2535500000   -2.652542889e-01   -1.023110598e-01
     2536250000   -2.539916635e-01   -1.277135611e-01
     2537000000   -2.399070114e-01   -1.518528461e-01
     2537750000   -2.240124643e-01   -1.744258702e-01
     2538500000   -2.065500319e-01   -1.951152980e-01
     2539250000   -1.857624501e-01   -2.140610218e-01
     2540000000   -1.640571207e-01   -2.311673760e-01
     2540750000   -1.403407156e-01   -2.461972982e-01
     2541500000   -1.156002879e-01   -2.584155202e-01
     2542250000   -8.990193158e-02   -2.686191201e-01
     2543000000   -6.324507296e-02   -2.760508955e-01
     2543750000   -3.674565628e-02   -2.809150815e-01
     2544500000   -1.029244997e-02   -2.828046679e-01
     2545250000    1.775211468e-02   -2.829540074e-01
     2546000000    4.486491159e-02   -2.791385651e-01
     2546750000    7.214248925e-02   -2.731455266e-01
     2547500000    9.802016616e-02   -2.652456164e-01
     2548250000    1.225773841e-01   -2.552710772e-01
     2549000000    1.465925127e-01   -2.423731387e-01
     2549750000    1.700745821e-01   -2.254599184e-01
     2550500000    1.899643987e-01   -2.079596967e-01
     2551250000    2.091306895e-01   -1.890320629e-01
     2552000000    2.257706672e-01   -1.691091955e-01
     2552750000    2.404916734e-01   -1.441310942e-01
     2553500000    2.530925870e-01   -1.209951043e-01
     2554250000    2.637787163e-01   -9.585109353e-02
     2555000000    2.702341080e-01   -6.945690513e-02
     2555750000    2.762985826e-01   -4.289559647e-02
     2556500000    2.773603499e-01   -1.400869526e-02
     2557250000    2.777107060e-01    1.151274703e-02
     2558000000    2.761084139e-01    3.856264055e-02
     2558750000    2.702319026e-01    6.521910429e-02
     2559500000    2.612063289e-01    9.229671210e-02
     2560250000    2.505240440e-01    1.179059446e-01
     2561000000    2.381377965e-01    1.417356730e-01
     2561750000    2.230786979e-01    1.650592238e-01
     2562500000    2.052871138e-01    1.859942675e-01
     2563250000    1.883568615e-01    2.051250488e-01
     2564000000    1.655200422e-01    2.229492813e-01
     2564750000    1.433422863e-01    2.385050505e-01
     2565500000    1.194594875e-01    2.514212132e-01
     2566250000    9.663517028e-02    2.633139193e-01
     2567000000    6.718856096e-02    2.709266245e-01
     2567750000    4.211533070e-02    2.771846354e-01
     2568500000    1.482389960e-02    2.804555595e-01
     2569250000   -1.259473711e-02    2.814049721e-01
     2570000000   -3.997659311e-02    2.792647481e-01
     2570750000   -6.661770493e-02    2.749499679e-01
     2571500000   -9.271257371e-02    2.679717243e-01
     2572250000   -1.176224798e-01    2.592551112e-01
     2573000000   -1.428395063e-01    2.467194498e-01
     2573750000   -1.658280641e-01    2.325106859e-01
     2574500000   -1.876942664e-01    2.161536962e-01
     2575250000   -2.076432407e-01    1.975491494e-01
     2576000000   -2.258292735e-01    1.778297275e-01
     2576750000   -2.418381572e-01    1.561426967e-01
     2577500000   -2.554619610e-01    1.330481172e-01
     2578250000   -2.669058442e-01    1.090076193e-01
     2579000000   -2.760668695e-01    8.313796669e-02
     2579750000   -2.829404175e-01    5.660853535e-02
     2580500000   -2.864984274e-01    3.043924086e-02
     2581250000   -2.878968418e-01    2.716917545e-03
     2582000000   -2.872629464e-01   -2.374228463e-02
     2582750000   -2.825756669e-01   -5.125214532e-02
     2583500000   -2.767256200e-01   -7.748992741e-02
     2584250000   -2.672916949e-01   -1.029899791e-01
     2585000000   -2.565083206e-01   -1.277303249e-01
     2585750000   -2.425413579e-01   -1.518714875e-01
     2586500000   -2.267952412e-01   -1.734998077e-01
     2587250000   -2.096660882e-01   -1.942572147e-01
     2588000000   -1.892387271e-01   -2.133894116e-01
     2588750000   -1.680940986e-01   -2.303168178e-01
     2589500000   -1.455200315e-01   -2.452898473e-01
     2590250000   -1.203705370e-01   -2.569593787e-01
     2591000000   -9.483798593e-02   -2.679069340e-01
     2591750000   -7.041870803e-02   -2.762353718e-01
     2592500000   -4.141946137e-02   -2.797932029e-01
     2593250000   -1.549477968e-02   -2.823902965e-01
     2594000000    1.239585411e-02   -2.833010256e-01
     2594750000    4.002498835e-02   -2.793262601e-01
     2595500000    6.674520671e-02   -2.744773030e-01
     2596250000    9.316151589e-02   -2.663455904e-01
     2597000000    1.174596176e-01   -2.565755844e-01
     2597750000    1.419544518e-01   -2.443348765e-01
     2598500000    1.656918526e-01   -2.282453030e-01
     2599250000    1.864588559e-01   -2.121982127e-01
     2600000000    2.061695158e-01   -1.917506009e-01
