! NanoVNA-App
! Date: 2026-05-22 18:57:07
! Start: 4.8GHz Stop: 6GHz Points: 401
! S-Parameter data: F S11
# Hz S RI R 50
!     Frequency           S11_Real           S11_Imag
     4800000000    4.544515908e-01   -6.062949896e-01
     4803000000    6.445481777e-01   -4.009362161e-01
     4806000000    7.467206120e-01   -1.348858923e-01
     4809000000    7.455275655e-01    1.461841613e-01
     4812000000    6.395608187e-01    4.084880650e-01
     4815000000    4.450071156e-01    6.146782041e-01
     4818000000    1.881049871e-01    7.356877923e-01
     4821000000   -9.720133990e-02    7.537274957e-01
     4824000000   -3.601189256e-01    6.695069671e-01
     4827000000   -5.821613073e-01    4.872522354e-01
     4830000000   -7.216660976e-01    2.408170551e-01
     4833000000   -7.603839636e-01   -4.002438486e-02
     4836000000   -6.934311986e-01   -3.127191067e-01
     4839000000   -5.291908979e-01   -5.485786796e-01
     4842000000   -2.931336761e-01   -7.041859627e-01
     4845000000   -1.316707488e-02   -7.625754476e-01
     4848000000    2.630761564e-01   -7.164823413e-01
     4851000000    5.071873069e-01   -5.693178177e-01
     4854000000    6.780734062e-01   -3.466111720e-01
     4857000000    7.594624162e-01   -7.323309779e-02
     4860000000    7.326543927e-01    2.137146741e-01
     4863000000    6.052447557e-01    4.602228999e-01
     4866000000    3.973290026e-01    6.510723233e-01
     4869000000    1.266669184e-01    7.501702309e-01
     4872000000   -1.581670642e-01    7.463552952e-01
     4875000000   -4.223794639e-01    6.383164525e-01
     4878000000   -6.169798970e-01    4.427297711e-01
     4881000000   -7.409989238e-01    1.833780706e-01
     4884000000   -7.580979466e-01   -1.000526100e-01
     4887000000   -6.642701626e-01   -3.692142367e-01
     4890000000   -4.867047369e-01   -5.842465758e-01
     4893000000   -2.381248623e-01   -7.225173116e-01
     4896000000    4.521081969e-02   -7.572732568e-01
     4899000000    3.147616684e-01   -6.916887760e-01
     4902000000    5.477963090e-01   -5.253877044e-01
     4905000000    7.010772228e-01   -2.880129814e-01
     4908000000    7.595400810e-01   -8.552666754e-03
     4911000000    7.088561058e-01    2.664644420e-01
     4914000000    5.632140636e-01    5.068750978e-01
     4917000000    3.399407268e-01    6.770250201e-01
     4920000000    6.647670269e-02    7.522368431e-01
     4923000000   -2.178484797e-01    7.266050577e-01
     4926000000   -4.568939507e-01    5.969771147e-01
     4929000000   -6.550310254e-01    3.805579543e-01
     4932000000   -7.427082062e-01    1.268666089e-01
     4935000000   -7.377154231e-01   -1.596745253e-01
     4938000000   -6.269877553e-01   -4.187883139e-01
     4941000000   -4.303685427e-01   -6.166602373e-01
     4944000000   -1.793717742e-01   -7.266235948e-01
     4947000000    1.085062698e-01   -7.511348724e-01
     4950000000    3.650864661e-01   -6.530852914e-01
     4953000000    5.950874686e-01   -4.670378566e-01
     4956000000    7.151029706e-01   -2.329671383e-01
     4959000000    7.521703839e-01    4.985231906e-02
     4962000000    6.832037568e-01    3.221190870e-01
     4965000000    5.173090100e-01    5.468499660e-01
     4968000000    2.805139422e-01    6.999126673e-01
     4971000000    5.729521625e-03    7.526317835e-01
     4974000000   -2.699634135e-01    7.031752467e-01
     4977000000   -5.118391514e-01    5.536613464e-01
     4980000000   -6.746506691e-01    3.329695165e-01
     4983000000   -7.498877048e-01    6.166584417e-02
     4986000000   -7.184804082e-01   -2.130839676e-01
     4989000000   -5.891073346e-01   -4.690084755e-01
     4992000000   -3.808325529e-01   -6.494131684e-01
     4995000000   -1.252337843e-01   -7.382245660e-01
     4998000000    1.624086648e-01   -7.349900603e-01
     5001000000    4.077055156e-01   -6.217114329e-01
     5004000000    6.106288433e-01   -4.271031320e-01
     5007000000    7.345584631e-01   -1.711450219e-01
     5010000000    7.437150478e-01    1.093337014e-01
     5013000000    6.503220201e-01    3.639788330e-01
     5016000000    4.779408574e-01    5.727397203e-01
     5019000000    2.266467065e-01    7.169616818e-01
     5022000000   -4.880938306e-02    7.490800619e-01
     5025000000   -3.108454347e-01    6.781664491e-01
     5028000000   -5.402427912e-01    5.166454911e-01
     5031000000   -6.920457482e-01    2.854029536e-01
     5034000000   -7.483173609e-01    1.011906192e-02
     5037000000   -6.977239847e-01   -2.597771883e-01
     5040000000   -5.535485148e-01   -5.058079362e-01
     5043000000   -3.314257860e-01   -6.682807803e-01
     5046000000   -6.913530827e-02   -7.393633127e-01
     5049000000    2.123702019e-01   -7.153173685e-01
     5052000000    4.620978236e-01   -5.864456892e-01
     5055000000    6.325973272e-01   -3.886653483e-01
     5058000000    7.331904173e-01   -1.238847598e-01
     5061000000    7.272198796e-01    1.545910984e-01
     5064000000    6.214231253e-01    4.041314423e-01
     5067000000    4.280574918e-01    6.073151827e-01
     5070000000    1.831586361e-01    7.172710299e-01
     5073000000   -9.139145911e-02    7.369366884e-01
     5076000000   -3.554024994e-01    6.501128078e-01
     5079000000   -5.730393529e-01    4.774436355e-01
     5082000000   -7.007112503e-01    2.388321906e-01
     5085000000   -7.413653731e-01   -3.736069798e-02
     5088000000   -6.773898602e-01   -2.971370816e-01
     5091000000   -5.232685208e-01   -5.292069316e-01
     5094000000   -2.909671068e-01   -6.816724539e-01
     5097000000   -1.990348846e-02   -7.421355247e-01
     5100000000    2.510833442e-01   -6.989333630e-01
     5103000000    4.819442630e-01   -5.581174493e-01
     5106000000    6.562383175e-01   -3.469966650e-01
     5109000000    7.388030887e-01   -7.711533457e-02
     5112000000    7.139118314e-01    1.875638515e-01
     5115000000    5.944854617e-01    4.425236881e-01
     5118000000    3.937088251e-01    6.257616878e-01
     5121000000    1.320201904e-01    7.298725843e-01
     5124000000   -1.359236985e-01    7.269729972e-01
     5127000000   -3.741178811e-01    6.234682202e-01
     5130000000   -5.874807239e-01    4.389430881e-01
     5133000000   -7.135021091e-01    1.917359382e-01
     5136000000   -7.320809960e-01   -7.659999281e-02
     5139000000   -6.507825255e-01   -3.449248970e-01
     5142000000   -4.865715504e-01   -5.547850728e-01
     5145000000   -2.508676052e-01   -6.914461255e-01
     5148000000    2.070181444e-02   -7.357060313e-01
     5151000000    2.796015143e-01   -6.805526614e-01
     5154000000    5.127236843e-01   -5.254539847e-01
     5157000000    6.705890894e-01   -3.024591804e-01
     5160000000    7.306566834e-01   -4.345700145e-02
     5163000000    6.962291598e-01    2.246659994e-01
     5166000000    5.633304715e-01    4.614130855e-01
     5169000000    3.517949283e-01    6.475278139e-01
     5172000000    9.689775109e-02    7.259192467e-01
     5175000000   -1.733943820e-01    7.121821642e-01
     5178000000   -4.130668640e-01    6.024958491e-01
     5181000000   -6.125873923e-01    4.014801383e-01
     5184000000   -7.240221500e-01    1.491422653e-01
     5187000000   -7.190018892e-01   -9.601928294e-02
     5190000000   -6.277112961e-01   -3.745889366e-01
     5193000000   -4.610700309e-01   -5.693561435e-01
     5196000000   -2.117343247e-01   -7.027686238e-01
     5199000000    3.876409680e-02   -7.192365527e-01
     5202000000    3.117073178e-01   -6.592218876e-01
     5205000000    5.345784426e-01   -4.956103563e-01
     5208000000    6.747304797e-01   -2.721986175e-01
     5211000000    7.314781547e-01   -4.278573208e-03
     5214000000    6.804769635e-01    2.650044262e-01
     5217000000    5.393279791e-01    4.881028235e-01
     5220000000    3.256880641e-01    6.510528922e-01
     5223000000    6.995898485e-02    7.209132910e-01
     5226000000   -2.025768012e-01    6.951523423e-01
     5229000000   -4.384597242e-01    5.737047791e-01
     5232000000   -6.178489327e-01    3.751693070e-01
     5235000000   -7.108885646e-01    1.202766523e-01
     5238000000   -7.052422166e-01   -1.476032734e-01
     5241000000   -6.018475294e-01   -3.985863924e-01
     5244000000   -4.214837849e-01   -5.857646465e-01
     5247000000   -1.750019938e-01   -6.991115212e-01
     5250000000    7.604888827e-02   -7.125849128e-01
     5253000000    3.457433283e-01   -6.328773499e-01
     5256000000    5.494025350e-01   -4.656941593e-01
     5259000000    6.687542200e-01   -2.567862272e-01
     5262000000    7.187802196e-01    4.029735178e-02
     5265000000    6.565629244e-01    2.864134312e-01
     5268000000    5.139085054e-01    4.981719255e-01
     5271000000    2.805129290e-01    6.629376411e-01
     5274000000    3.241504356e-02    7.146579027e-01
     5277000000   -2.311856300e-01    6.793380976e-01
     5280000000   -4.604829252e-01    5.450953841e-01
     5283000000   -6.295148134e-01    3.369189501e-01
     5286000000   -7.074012160e-01    8.717542142e-02
     5289000000   -6.910789609e-01   -1.744979769e-01
     5292000000   -5.793620944e-01   -4.174351990e-01
     5295000000   -3.875062764e-01   -5.933762193e-01
     5298000000   -1.420301646e-01   -6.941845417e-01
     5301000000    1.245203838e-01   -7.017840147e-01
     5304000000    3.719436526e-01   -6.069061756e-01
     5307000000    5.596608520e-01   -4.358632863e-01
     5310000000    6.827492714e-01   -1.926762015e-01
     5313000000    7.021727562e-01    5.269278958e-02
     5316000000    6.321731806e-01    3.193143606e-01
     5319000000    4.766550064e-01    5.170382261e-01
     5322000000    2.562459707e-01    6.559095383e-01
     5325000000   -5.428063218e-03    7.066932917e-01
     5328000000   -2.656735182e-01    6.545149684e-01
     5331000000   -4.779259562e-01    5.154031515e-01
     5334000000   -6.308819056e-01    3.118395209e-01
     5337000000   -7.043138146e-01    4.333947971e-02
     5340000000   -6.707370281e-01   -2.136113793e-01
     5343000000   -5.449746251e-01   -4.482777119e-01
     5346000000   -3.527530134e-01   -6.095276475e-01
     5349000000   -1.088927537e-01   -6.914209723e-01
     5352000000    1.558296978e-01   -6.858301759e-01
     5355000000    3.928197026e-01   -5.822513700e-01
     5358000000    5.739477277e-01   -3.950837553e-01
     5361000000    6.866466403e-01   -1.535596997e-01
     5364000000    6.933902502e-01    1.149364188e-01
     5367000000    6.021714211e-01    3.582058847e-01
     5370000000    4.511964619e-01    5.279591680e-01
     5373000000    2.085414678e-01    6.626976728e-01
     5376000000   -5.608627945e-02    6.996638179e-01
     5379000000   -2.966870666e-01    6.269634962e-01
     5382000000   -5.201328397e-01    4.705340266e-01
     5385000000   -6.506695747e-01    2.588567436e-01
     5388000000   -6.935942769e-01    1.243648399e-02
     5391000000   -6.484512091e-01   -2.387212366e-01
     5394000000   -5.190667510e-01   -4.663659334e-01
     5397000000   -3.188777268e-01   -6.130366325e-01
     5400000000   -6.913305074e-02   -6.870839000e-01
     5403000000    1.970951706e-01   -6.663573980e-01
     5406000000    4.203020632e-01   -5.481256247e-01
     5409000000    5.972537398e-01   -3.440181613e-01
     5412000000    6.795892119e-01   -1.134438366e-01
     5415000000    6.753600240e-01    1.379142404e-01
     5418000000    5.740425587e-01    3.766821921e-01
     5421000000    4.007215500e-01    5.575875044e-01
     5424000000    1.460314840e-01    6.729947925e-01
     5427000000   -7.925092429e-02    6.793933511e-01
     5430000000   -3.408870399e-01    5.962751508e-01
     5433000000   -5.283197761e-01    4.404514432e-01
     5436000000   -6.484423280e-01    2.257144749e-01
     5439000000   -6.817455888e-01   -3.965543211e-02
     5442000000   -6.298264861e-01   -2.710319161e-01
     5445000000   -4.632239640e-01   -5.049077868e-01
     5448000000   -2.703607976e-01   -6.306303144e-01
     5451000000   -1.419691183e-02   -6.803196669e-01
     5454000000    2.330815494e-01   -6.389566064e-01
     5457000000    4.600664675e-01   -5.037036538e-01
     5460000000    6.013273001e-01   -3.226354122e-01
     5463000000    6.729341745e-01   -5.848231539e-02
     5466000000    6.568256021e-01    1.761023104e-01
     5469000000    5.540269017e-01    3.959344625e-01
     5472000000    3.566029370e-01    5.765399933e-01
     5475000000    1.012713388e-01    6.654253006e-01
     5478000000   -1.299025118e-01    6.613271832e-01
     5481000000   -3.606691062e-01    5.684406161e-01
     5484000000   -5.338023901e-01    4.119351506e-01
     5487000000   -6.536717415e-01    1.537156850e-01
     5490000000   -6.700929403e-01   -8.102916181e-02
     5493000000   -5.855361223e-01   -3.248188496e-01
     5496000000   -4.413157701e-01   -5.032068491e-01
     5499000000   -2.136833370e-01   -6.309604049e-01
     5502000000    1.256452780e-02   -6.698333621e-01
     5505000000    2.675571442e-01   -6.092385054e-01
     5508000000    4.704271555e-01   -4.715267420e-01
     5511000000    6.093762517e-01   -2.687924206e-01
     5514000000    6.635642648e-01   -2.753209881e-02
     5517000000    6.225218177e-01    2.251823694e-01
     5520000000    5.064151883e-01    4.240144789e-01
     5523000000    3.062170744e-01    5.867796540e-01
     5526000000    7.799597830e-02    6.578160524e-01
     5529000000   -1.679708213e-01    6.375187039e-01
     5532000000   -3.832068741e-01    5.411081314e-01
     5535000000   -5.497377515e-01    3.609713614e-01
     5538000000   -6.411265135e-01    1.320258528e-01
     5541000000   -6.345008612e-01   -1.378687620e-01
     5544000000   -5.652026534e-01   -3.348215520e-01
     5547000000   -4.007330835e-01   -5.222337842e-01
     5550000000   -1.710664034e-01   -6.310321689e-01
     5553000000    7.155898958e-02   -6.475216746e-01
     5556000000    2.946775854e-01   -5.843581557e-01
     5559000000    4.872475266e-01   -4.304861128e-01
     5562000000    6.130130291e-01   -2.213817090e-01
     5565000000    6.532222629e-01    1.282834075e-02
     5568000000    6.015627384e-01    2.478557378e-01
     5571000000    4.692994654e-01    4.510410428e-01
     5574000000    2.694242895e-01    5.878987312e-01
     5577000000    3.426349163e-02    6.439729929e-01
     5580000000   -2.019721568e-01    6.122435331e-01
     5583000000   -4.050534368e-01    4.975979924e-01
     5586000000   -5.612367392e-01    2.977899909e-01
     5589000000   -6.389726400e-01    9.583222866e-02
     5592000000   -6.160701513e-01   -1.642996371e-01
     5595000000   -5.292252302e-01   -3.694837987e-01
     5598000000   -3.595027626e-01   -5.335235000e-01
     5601000000   -1.307165027e-01   -6.289863586e-01
     5604000000    9.408104420e-02   -6.374281049e-01
     5607000000    3.176445961e-01   -5.582741499e-01
     5610000000    5.054229498e-01   -3.871126175e-01
     5613000000    6.139902472e-01   -1.880587041e-01
     5616000000    6.302307844e-01    5.832876638e-02
     5619000000    5.777275562e-01    2.720943093e-01
     5622000000    4.347402751e-01    4.629531205e-01
     5625000000    2.292512506e-01    5.892495513e-01
     5628000000    1.105450653e-02    6.385356188e-01
     5631000000   -2.399327755e-01    5.783694386e-01
     5634000000   -4.227340221e-01    4.738589227e-01
     5637000000   -5.664173961e-01    2.652344108e-01
     5640000000   -6.356950998e-01    6.387142837e-02
     5643000000   -6.081166863e-01   -1.801585406e-01
     5646000000   -5.020776987e-01   -3.860186040e-01
     5649000000   -3.039800823e-01   -5.429261923e-01
     5652000000   -1.131218299e-01   -6.235830188e-01
     5655000000    1.323812008e-01   -6.150594354e-01
     5658000000    3.420764506e-01   -5.271500349e-01
     5661000000    5.076150894e-01   -3.890804648e-01
     5664000000    6.034498811e-01   -1.428729743e-01
     5667000000    6.215035915e-01    7.164828479e-02
     5670000000    5.441511273e-01    2.984960079e-01
     5673000000    3.893297315e-01    4.760795236e-01
     5676000000    2.043996751e-01    5.903991461e-01
     5679000000   -2.820211276e-02    6.226536632e-01
     5682000000   -2.540354729e-01    5.684473515e-01
     5685000000   -4.382783771e-01    4.391988814e-01
     5688000000   -5.662524700e-01    2.422412336e-01
     5691000000   -6.274134517e-01    3.986227140e-02
     5694000000   -5.875763893e-01   -2.013918757e-01
     5697000000   -4.564206302e-01   -4.005752504e-01
     5700000000   -3.105675876e-01   -5.454151630e-01
     5703000000   -6.992467493e-02   -6.088176370e-01
     5706000000    1.543941498e-01   -5.907238722e-01
     5709000000    3.522467017e-01   -5.112183690e-01
     5712000000    5.124406815e-01   -3.397805691e-01
     5715000000    5.946766138e-01   -1.238536015e-01
     5718000000    5.982648730e-01    1.049576551e-01
     5721000000    5.221812129e-01    3.105317950e-01
     5724000000    3.698711991e-01    4.787677824e-01
     5727000000    1.810394377e-01    5.835941434e-01
     5730000000   -4.782820866e-02    6.030768156e-01
     5733000000   -2.640304863e-01    5.430095196e-01
     5736000000   -4.455978572e-01    4.109401107e-01
     5739000000   -5.613577962e-01    2.199137360e-01
     5742000000   -5.999628305e-01   -1.270297449e-03
     5745000000   -5.634639263e-01   -2.146989703e-01
     5748000000   -4.365806282e-01   -4.038081169e-01
     5751000000   -2.609983981e-01   -5.389934778e-01
     5754000000   -4.134633020e-02   -5.879540443e-01
     5757000000    1.701456159e-01   -5.764031410e-01
     5760000000    3.704266846e-01   -4.700093567e-01
     5763000000    5.138082504e-01   -3.022870719e-01
     5766000000    5.894383192e-01   -9.731185436e-02
     5769000000    5.843884945e-01    1.246551797e-01
     5772000000    5.060187578e-01    3.260727823e-01
     5775000000    3.397032320e-01    4.815251231e-01
     5778000000    1.472570151e-01    5.731969476e-01
     5781000000   -7.233384252e-02    5.794665813e-01
     5784000000   -2.804090381e-01    5.151025057e-01
     5787000000   -4.479559660e-01    3.826575875e-01
     5790000000   -5.561214089e-01    1.959253103e-01
     5793000000   -5.847206712e-01   -2.465665713e-02
     5796000000   -5.349950194e-01   -2.346921712e-01
     5799000000   -4.095119238e-01   -4.138164520e-01
     5802000000   -2.314862311e-01   -5.322160721e-01
     5805000000   -2.211975306e-02   -5.796961188e-01
     5808000000    1.910682619e-01   -5.497764349e-01
     5811000000    3.777917027e-01   -4.462061524e-01
     5814000000    5.099752545e-01   -2.752067149e-01
     5817000000    5.743789077e-01   -6.859346479e-02
     5820000000    5.579243898e-01    1.479257941e-01
     5823000000    4.795598388e-01    3.410231769e-01
     5826000000    3.171638250e-01    4.862986803e-01
     5829000000    1.174835116e-01    5.645180345e-01
     5832000000   -9.583265334e-02    5.729007125e-01
     5835000000   -2.966327071e-01    4.973376989e-01
     5838000000   -4.550165236e-01    3.566702306e-01
     5841000000   -5.528261065e-01    1.658199728e-01
     5844000000   -5.760136247e-01   -4.500088096e-02
     5847000000   -5.169588327e-01   -2.517167926e-01
     5850000000   -3.909903169e-01   -4.228886962e-01
     5853000000   -2.081965655e-01   -5.343827009e-01
     5856000000   -1.970962330e-04   -5.703446865e-01
     5859000000    2.053529024e-01   -5.407773852e-01
     5862000000    3.850972652e-01   -4.241920114e-01
     5865000000    5.123171210e-01   -2.562695146e-01
     5868000000    5.683746338e-01   -5.068853870e-02
     5871000000    5.469502807e-01    1.573552638e-01
     5874000000    4.558241665e-01    3.441638350e-01
     5877000000    2.989196777e-01    4.867867827e-01
     5880000000    1.028321236e-01    5.557079315e-01
     5883000000   -1.074062735e-01    5.549019575e-01
     5886000000   -3.020961583e-01    4.715059102e-01
     5889000000   -4.595720470e-01    3.352742791e-01
     5892000000   -5.413366556e-01    1.420800239e-01
     5895000000   -5.645153522e-01   -6.126312912e-02
     5898000000   -5.009897351e-01   -2.606190443e-01
     5901000000   -3.729434013e-01   -4.229700863e-01
     5904000000   -1.908901185e-01   -5.286051631e-01
     5907000000    1.135453675e-02   -5.621999502e-01
     5910000000    2.113470733e-01   -5.210739970e-01
     5913000000    3.844612837e-01   -4.021946490e-01
     5916000000    5.044733286e-01   -2.410390228e-01
     5919000000    5.517105460e-01   -3.751092777e-02
     5922000000    5.288519263e-01    1.681195796e-01
     5925000000    4.327358007e-01    3.466199636e-01
     5928000000    2.784408331e-01    4.783827960e-01
     5931000000    8.608096093e-02    5.471410155e-01
     5934000000   -1.203409508e-01    5.380129814e-01
     5937000000   -3.050770462e-01    4.581563771e-01
     5940000000   -4.490262270e-01    3.161420226e-01
     5943000000   -5.321580768e-01    1.273059845e-01
     5946000000   -5.430954695e-01   -6.842894852e-02
     5949000000   -4.772043228e-01   -2.614186406e-01
     5952000000   -3.492738903e-01   -4.171417654e-01
     5955000000   -1.763470769e-01   -5.140621066e-01
     5958000000    2.535656281e-02   -5.399349332e-01
     5961000000    2.208750099e-01   -4.933969378e-01
     5964000000    3.842724562e-01   -3.826089799e-01
     5967000000    4.963653386e-01   -2.142112553e-01
     5970000000    5.410790443e-01   -2.435602248e-02
     5973000000    5.132247210e-01    1.732310951e-01
     5976000000    4.094690681e-01    3.481867313e-01
     5979000000    2.537156940e-01    4.732863605e-01
     5982000000    6.992247701e-02    5.341556668e-01
     5985000000   -1.293730587e-01    5.207688212e-01
     5988000000   -3.079216182e-01    4.395631552e-01
     5991000000   -4.453176856e-01    2.987352014e-01
     5994000000   -5.230708718e-01    1.183928549e-01
     5997000000   -5.297575593e-01   -7.787394524e-02
     6000000000   -4.651135504e-01   -2.610653937e-01
