! NanoVNA-App
! Date: 2026-05-22 15:32:22
! Start: 2.3GHz Stop: 2.6GHz Points: 401
! S-Parameter data: F S11
# Hz S RI R 50
!     Frequency           S11_Real           S11_Imag
     2300000000    4.142678678e-01   -4.554640055e-01
     2300750000    4.538172483e-01   -4.171464145e-01
     2301500000    4.908952117e-01   -3.729480803e-01
     2302250000    5.246143937e-01   -3.220251501e-01
     2303000000    5.528350472e-01   -2.731799781e-01
     2303750000    5.765073299e-01   -2.161608934e-01
     2304500000    5.941691995e-01   -1.638246328e-01
     2305250000    6.066271067e-01   -1.051956490e-01
     2306000000    6.144589186e-01   -4.446299747e-02
     2306750000    6.165841222e-01    1.014403161e-02
     2307500000    6.130972505e-01    6.974489987e-02
     2308250000    6.046497822e-01    1.255748123e-01
     2309000000    5.899367332e-01    1.844933629e-01
     2309750000    5.691465735e-01    2.412469834e-01
     2310500000    5.457628965e-01    2.911819518e-01
     2311250000    5.174912810e-01    3.408884406e-01
     2312000000    4.831379652e-01    3.882078230e-01
     2312750000    4.445971251e-01    4.322467744e-01
     2313500000    4.016078115e-01    4.729753137e-01
     2314250000    3.587337136e-01    5.068736672e-01
     2315000000    3.066416681e-01    5.405690074e-01
     2315750000    2.550307810e-01    5.669972897e-01
     2316500000    2.007965893e-01    5.886070132e-01
     2317250000    1.441412717e-01    6.051145196e-01
     2318000000    8.714617044e-02    6.168978810e-01
     2318750000    2.940441109e-02    6.224658489e-01
     2319500000   -2.619277872e-02    6.234329343e-01
     2320250000   -9.061571956e-02    6.162078977e-01
     2321000000   -1.451922655e-01    6.073265672e-01
     2321750000   -1.987216026e-01    5.925340652e-01
     2322500000   -2.559641600e-01    5.696323514e-01
     2323250000   -3.055401742e-01    5.442174673e-01
     2324000000   -3.532219827e-01    5.161592960e-01
     2324750000   -3.986616731e-01    4.806233346e-01
     2325500000   -4.464583099e-01    4.350880086e-01
     2326250000   -4.841296077e-01    3.943691552e-01
     2327000000   -5.166516304e-01    3.509824276e-01
     2327750000   -5.467371345e-01    2.989034951e-01
     2328500000   -5.714927912e-01    2.470714748e-01
     2329250000   -5.923967361e-01    1.926231086e-01
     2330000000   -6.076177359e-01    1.336256564e-01
     2330750000   -6.167230010e-01    7.440779358e-02
     2331500000   -6.213809252e-01    2.004487440e-02
     2332250000   -6.195972562e-01   -3.924823925e-02
     2333000000   -6.124311090e-01   -9.709811956e-02
     2333750000   -6.003404856e-01   -1.534865648e-01
     2334500000   -5.827440023e-01   -2.088229358e-01
     2335250000   -5.608153939e-01   -2.623997331e-01
     2336000000   -5.326954722e-01   -3.147750199e-01
     2336750000   -5.006095171e-01   -3.625338674e-01
     2337500000   -4.639412761e-01   -4.080455005e-01
     2338250000   -4.233680367e-01   -4.498637915e-01
     2339000000   -3.775586486e-01   -4.885938466e-01
     2339750000   -3.317116797e-01   -5.206614733e-01
     2340500000   -2.787470520e-01   -5.512313843e-01
     2341250000   -2.269737124e-01   -5.740467906e-01
     2342000000   -1.716891527e-01   -5.925293565e-01
     2342750000   -1.142240912e-01   -6.062529683e-01
     2343500000   -5.777016282e-02   -6.147688031e-01
     2344250000    3.362133866e-04   -6.171627641e-01
     2345000000    5.679796264e-02   -6.147818565e-01
     2345750000    1.190375835e-01   -6.050217748e-01
     2346500000    1.722341627e-01   -5.933290720e-01
     2347250000    2.239488810e-01   -5.763027668e-01
     2348000000    2.785277069e-01   -5.512335896e-01
     2348750000    3.336279392e-01   -5.194161534e-01
     2349500000    3.755357862e-01   -4.916525781e-01
     2350250000    4.237157106e-01   -4.508345425e-01
     2351000000    4.639641941e-01   -4.080424011e-01
     2351750000    4.976741970e-01   -3.662819266e-01
     2352500000    5.315538049e-01   -3.126205504e-01
     2353250000    5.585916638e-01   -2.647307515e-01
     2354000000    5.804513693e-01   -2.092458308e-01
     2354750000    5.979203582e-01   -1.596178263e-01
     2355500000    6.099155545e-01   -9.837098420e-02
     2356250000    6.162095666e-01   -3.466451913e-02
     2357000000    6.167509556e-01    1.881368272e-02
     2357750000    6.130341887e-01    7.407091558e-02
     2358500000    6.038853526e-01    1.315023601e-01
     2359250000    5.893826485e-01    1.856217682e-01
     2360000000    5.681138635e-01    2.426486909e-01
     2360750000    5.416429639e-01    2.960069478e-01
     2361500000    5.144081712e-01    3.421183228e-01
     2362250000    4.779262841e-01    3.910304010e-01
     2363000000    4.397773147e-01    4.339009523e-01
     2363750000    3.946206272e-01    4.747824669e-01
     2364500000    3.511612415e-01    5.084635019e-01
     2365250000    3.007639945e-01    5.391692519e-01
     2366000000    2.482611984e-01    5.650867820e-01
     2366750000    1.939871907e-01    5.854573846e-01
     2367500000    1.387062818e-01    6.013173461e-01
     2368250000    8.350020647e-02    6.115109324e-01
     2369000000    2.419036254e-02    6.162179708e-01
     2369750000   -3.286832199e-02    6.162175536e-01
     2370500000   -9.174524248e-02    6.098706722e-01
     2371250000   -1.504958272e-01    5.979769230e-01
     2372000000   -2.026960552e-01    5.827379823e-01
     2372750000   -2.596841753e-01    5.596805811e-01
     2373500000   -3.090322018e-01    5.340216756e-01
     2374250000   -3.560261726e-01    5.041493177e-01
     2375000000   -4.045474827e-01    4.658164680e-01
     2375750000   -4.444946051e-01    4.277892411e-01
     2376500000   -4.839117229e-01    3.819223642e-01
     2377250000   -5.180819035e-01    3.344842494e-01
     2378000000   -5.454484224e-01    2.894579768e-01
     2378750000   -5.713843703e-01    2.315379232e-01
     2379500000   -5.903079510e-01    1.809373051e-01
     2380250000   -6.040081978e-01    1.230047643e-01
     2381000000   -6.127761602e-01    6.662495434e-02
     2381750000   -6.160115600e-01    7.200770546e-03
     2382500000   -6.139466166e-01   -4.767699912e-02
     2383250000   -6.062690616e-01   -1.092224792e-01
     2384000000   -5.938534737e-01   -1.640091091e-01
     2384750000   -5.751744509e-01   -2.186006606e-01
     2385500000   -5.527442098e-01   -2.723272443e-01
     2386250000   -5.273029804e-01   -3.196978569e-01
     2387000000   -4.928735793e-01   -3.689405620e-01
     2387750000   -4.531523585e-01   -4.159399569e-01
     2388500000   -4.163147211e-01   -4.547415674e-01
     2389250000   -3.700492084e-01   -4.913756847e-01
     2390000000   -3.213078082e-01   -5.244824886e-01
     2390750000   -2.719056010e-01   -5.521803498e-01
     2391500000   -2.176265270e-01   -5.758340955e-01
     2392250000   -1.642403603e-01   -5.923968554e-01
     2393000000   -1.072275564e-01   -6.056205034e-01
     2393750000   -4.950274155e-02   -6.132003665e-01
     2394500000    6.727351807e-03   -6.139405370e-01
     2395250000    6.632232666e-02   -6.107721925e-01
     2396000000    1.228019372e-01   -6.019961834e-01
     2396750000    1.800032556e-01   -5.869684219e-01
     2397500000    2.340165824e-01   -5.679458976e-01
     2398250000    2.868401706e-01   -5.431084037e-01
     2399000000    3.353502154e-01   -5.148109794e-01
     2399750000    3.845645189e-01   -4.793603420e-01
     2400500000    4.272651672e-01   -4.430009127e-01
     2401250000    4.671007991e-01   -4.005778730e-01
     2402000000    5.026783943e-01   -3.533541858e-01
     2402750000    5.333364010e-01   -3.080032170e-01
     2403500000    5.604004860e-01   -2.547054589e-01
     2404250000    5.814883709e-01   -2.030719668e-01
     2405000000    5.985501409e-01   -1.452347040e-01
     2405750000    6.098653674e-01   -8.972852677e-02
     2406500000    6.150480509e-01   -2.958032861e-02
     2407250000    6.152054071e-01    2.546458878e-02
     2408000000    6.103092432e-01    8.389323205e-02
     2408750000    5.990927815e-01    1.418389082e-01
     2409500000    5.837305188e-01    1.963207573e-01
     2410250000    5.636048317e-01    2.488137484e-01
     2411000000    5.382116437e-01    2.997890115e-01
     2411750000    5.070578456e-01    3.496115804e-01
     2412500000    4.706881344e-01    3.972296119e-01
     2413250000    4.319615066e-01    4.393369853e-01
     2414000000    3.908255994e-01    4.768941104e-01
     2414750000    3.457522690e-01    5.113582611e-01
     2415500000    2.955497801e-01    5.416683555e-01
     2416250000    2.439331859e-01    5.661514997e-01
     2417000000    1.890930533e-01    5.869133472e-01
     2417750000    1.357480139e-01    6.018738151e-01
     2418500000    7.523581386e-02    6.116703749e-01
     2419250000    1.942016743e-02    6.162221432e-01
     2420000000   -3.911682591e-02    6.148814559e-01
     2420750000   -9.652310610e-02    6.086591482e-01
     2421500000   -1.525582522e-01    5.969374776e-01
     2422250000   -2.086086869e-01    5.795330405e-01
     2423000000   -2.628510594e-01    5.573240519e-01
     2423750000   -3.133617640e-01    5.302804112e-01
     2424500000   -3.604430258e-01    5.009286404e-01
     2425250000   -4.086121917e-01    4.611929357e-01
     2426000000   -4.483594298e-01    4.235898554e-01
     2426750000   -4.857349992e-01    3.799627423e-01
     2427500000   -5.208941102e-01    3.294128776e-01
     2428250000   -5.487392545e-01    2.813127339e-01
     2429000000   -5.719719529e-01    2.322546095e-01
     2429750000   -5.916947722e-01    1.735563874e-01
     2430500000   -6.049315929e-01    1.188091263e-01
     2431250000   -6.134374738e-01    6.264951825e-02
     2432000000   -6.163464785e-01    4.909931682e-03
     2432750000   -6.143786907e-01   -5.194613710e-02
     2433500000   -6.070091724e-01   -1.086041704e-01
     2434250000   -5.933653712e-01   -1.646689475e-01
     2435000000   -5.743242502e-01   -2.214268893e-01
     2435750000   -5.522102714e-01   -2.735893428e-01
     2436500000   -5.242199898e-01   -3.229393959e-01
     2437250000   -4.901363254e-01   -3.725918829e-01
     2438000000   -4.533008933e-01   -4.165696800e-01
     2438750000   -4.147576988e-01   -4.547401071e-01
     2439500000   -3.680344522e-01   -4.931360781e-01
     2440250000   -3.187895715e-01   -5.260182023e-01
     2441000000   -2.701740563e-01   -5.526547432e-01
     2441750000   -2.183949202e-01   -5.747405887e-01
     2442500000   -1.614076197e-01   -5.929076672e-01
     2443250000   -1.065209657e-01   -6.051947474e-01
     2444000000   -4.979033023e-02   -6.121044159e-01
     2444750000    8.206246421e-03   -6.139415503e-01
     2445500000    6.732907891e-02   -6.097245812e-01
     2446250000    1.226381287e-01   -6.008881927e-01
     2447000000    1.780676842e-01   -5.864563584e-01
     2447750000    2.330207378e-01   -5.664614439e-01
     2448500000    2.839807868e-01   -5.427301526e-01
     2449250000    3.344918191e-01   -5.128210783e-01
     2450000000    3.813512027e-01   -4.781012833e-01
     2450750000    4.223785698e-01   -4.428640604e-01
     2451500000    4.627533555e-01   -3.989634812e-01
     2452250000    4.979367852e-01   -3.545356393e-01
     2453000000    5.288819075e-01   -3.045675159e-01
     2453750000    5.547130108e-01   -2.551465929e-01
     2454500000    5.756636858e-01   -2.018843591e-01
     2455250000    5.917162299e-01   -1.469245553e-01
     2456000000    6.034925580e-01   -9.273038059e-02
     2456750000    6.084993482e-01   -3.322244063e-02
     2457500000    6.092288494e-01    2.117164806e-02
     2458250000    6.033416986e-01    7.993657142e-02
     2459000000    5.938063264e-01    1.362649649e-01
     2459750000    5.770334005e-01    1.933513731e-01
     2460500000    5.595816374e-01    2.417972386e-01
     2461250000    5.306657553e-01    2.975764573e-01
     2462000000    5.022642612e-01    3.445936143e-01
     2462750000    4.674450755e-01    3.900525868e-01
     2463500000    4.299245477e-01    4.309125245e-01
     2464250000    3.862472177e-01    4.707806408e-01
     2465000000    3.431948125e-01    5.032122731e-01
     2465750000    2.882227004e-01    5.351122618e-01
     2466500000    2.436401993e-01    5.581070781e-01
     2467250000    1.896073073e-01    5.782760382e-01
     2468000000    1.323725134e-01    5.939363241e-01
     2468750000    7.354124635e-02    6.025141478e-01
     2469500000    2.620112896e-02    6.086794138e-01
     2470250000   -3.925561532e-02    6.059605479e-01
     2471000000   -9.599969536e-02    5.995462537e-01
     2471750000   -1.457530111e-01    5.906917453e-01
     2472500000   -2.031790316e-01    5.718145370e-01
     2473250000   -2.578180730e-01    5.495043993e-01
     2474000000   -3.066621125e-01    5.237902999e-01
     2474750000   -3.538960814e-01    4.936001599e-01
     2475500000   -3.987768292e-01    4.572978318e-01
     2476250000   -4.400157332e-01    4.165637195e-01
     2477000000   -4.764914215e-01    3.744027913e-01
     2477750000   -5.087661743e-01    3.298569620e-01
     2478500000   -5.377695560e-01    2.797554731e-01
     2479250000   -5.606148243e-01    2.271885574e-01
     2480000000   -5.793560743e-01    1.733202040e-01
     2480750000   -5.927041173e-01    1.210471541e-01
     2481500000   -6.004492640e-01    6.344285607e-02
     2482250000   -6.041325927e-01    8.264509961e-03
     2483000000   -6.015565395e-01   -4.932163283e-02
     2483750000   -5.934181213e-01   -1.047838405e-01
     2484500000   -5.810435414e-01   -1.602342874e-01
     2485250000   -5.633594990e-01   -2.138823718e-01
     2486000000   -5.399326086e-01   -2.657263577e-01
     2486750000   -5.124619603e-01   -3.149544001e-01
     2487500000   -4.806821346e-01   -3.611687124e-01
     2488250000   -4.450021088e-01   -4.040420949e-01
     2489000000   -4.036725760e-01   -4.436964691e-01
     2489750000   -3.601163030e-01   -4.800493717e-01
     2490500000   -3.123659790e-01   -5.114063621e-01
     2491250000   -2.615615726e-01   -5.385048985e-01
     2492000000   -2.126982212e-01   -5.604914427e-01
     2492750000   -1.597780585e-01   -5.769453049e-01
     2493500000   -1.024912223e-01   -5.888160467e-01
     2494250000   -4.810948670e-02   -5.964892507e-01
     2495000000    8.334449492e-03   -5.979585052e-01
     2495750000    6.505829841e-02   -5.945554972e-01
     2496500000    1.206225976e-01   -5.859156847e-01
     2497250000    1.763281375e-01   -5.702651739e-01
     2498000000    2.272797227e-01   -5.517242551e-01
     2498750000    2.787451744e-01   -5.289863944e-01
     2499500000    3.270804584e-01   -5.000975132e-01
     2500250000    3.723380566e-01   -4.667451680e-01
     2501000000    4.118716419e-01   -4.321811199e-01
     2501750000    4.523255527e-01   -3.885693550e-01
     2502500000    4.852815866e-01   -3.481335938e-01
     2503250000    5.171439052e-01   -2.954775989e-01
     2504000000    5.413136482e-01   -2.494838834e-01
     2504750000    5.621853471e-01   -1.986235380e-01
     2505500000    5.781653523e-01   -1.418023109e-01
     2506250000    5.876334906e-01   -8.810441941e-02
     2507000000    5.954434872e-01   -3.607567772e-02
     2507750000    5.936216712e-01    2.394728176e-02
     2508500000    5.882197618e-01    7.935064286e-02
     2509250000    5.793551803e-01    1.318418682e-01
     2510000000    5.620920658e-01    1.855107546e-01
     2510750000    5.422941446e-01    2.389520556e-01
     2511500000    5.169898868e-01    2.875641584e-01
     2512250000    4.857152700e-01    3.360110223e-01
     2513000000    4.543480277e-01    3.777599633e-01
     2513750000    4.149096608e-01    4.190942943e-01
     2514500000    3.743464649e-01    4.555317461e-01
     2515250000    3.274885416e-01    4.893828332e-01
     2516000000    2.814016044e-01    5.177341104e-01
     2516750000    2.319381535e-01    5.411806107e-01
     2517500000    1.779153347e-01    5.600728393e-01
     2518250000    1.239777282e-01    5.742065907e-01
     2519000000    7.197727263e-02    5.840399861e-01
     2519750000    1.472156309e-02    5.875881910e-01
     2520500000   -4.172306135e-02    5.862005353e-01
     2521250000   -9.438509494e-02    5.806629658e-01
     2522000000   -1.499624401e-01    5.680118203e-01
     2522750000   -2.009179741e-01    5.516495705e-01
     2523500000   -2.545207441e-01    5.281293988e-01
     2524250000   -3.015765846e-01    5.033999681e-01
     2525000000   -3.467528522e-01    4.742151797e-01
     2525750000   -3.906539977e-01    4.379998446e-01
     2526500000   -4.308561087e-01    3.979769051e-01
     2527250000   -4.658809304e-01    3.566061854e-01
     2528000000   -4.972458184e-01    3.115395606e-01
     2528750000   -5.241965055e-01    2.644702494e-01
     2529500000   -5.462834835e-01    2.117659599e-01
     2530250000   -5.636833906e-01    1.607876271e-01
     2531000000   -5.767678022e-01    1.078216434e-01
     2531750000   -5.838488340e-01    5.381805077e-02
     2532500000   -5.856416225e-01   -1.707795775e-03
     2533250000   -5.824794769e-01   -5.671998858e-02
     2534000000   -5.748431087e-01   -1.114192903e-01
     2534750000   -5.613613725e-01   -1.644358188e-01
     2535500000   -5.454312563e-01   -2.141035795e-01
     2536250000   -5.205603242e-01   -2.659581602e-01
     2537000000   -4.922664165e-01   -3.140155077e-01
     2537750000   -4.610343277e-01   -3.580571115e-01
     2538500000   -4.255601168e-01   -3.992196023e-01
     2539250000   -3.863975406e-01   -4.364984334e-01
     2540000000   -3.447198868e-01   -4.699780345e-01
     2540750000   -2.965466082e-01   -5.009806156e-01
     2541500000   -2.477317750e-01   -5.264307857e-01
     2542250000   -1.965439618e-01   -5.471718311e-01
     2543000000   -1.450491846e-01   -5.629687905e-01
     2543750000   -9.288185835e-02   -5.735487938e-01
     2544500000   -3.767894953e-02   -5.792025924e-01
     2545250000    1.840570383e-02   -5.795185566e-01
     2546000000    7.104695588e-02   -5.755993128e-01
     2546750000    1.253318042e-01   -5.660398006e-01
     2547500000    1.784596443e-01   -5.507474542e-01
     2548250000    2.301103622e-01   -5.313189626e-01
     2549000000    2.768756747e-01   -5.082854629e-01
     2549750000    3.266204000e-01   -4.779801369e-01
     2550500000    3.667060137e-01   -4.473262131e-01
     2551250000    4.103016853e-01   -4.064672887e-01
     2552000000    4.438149035e-01   -3.726460040e-01
     2552750000    4.785856009e-01   -3.231410980e-01
     2553500000    5.051527023e-01   -2.799057066e-01
     2554250000    5.298274159e-01   -2.286063135e-01
     2555000000    5.480540991e-01   -1.813700497e-01
     2555750000    5.633883476e-01   -1.292104870e-01
     2556500000    5.722240210e-01   -7.484880835e-02
     2557250000    5.756360292e-01   -1.997549273e-02
     2558000000    5.759821534e-01    3.363371640e-02
     2558750000    5.686936975e-01    8.844000846e-02
     2559500000    5.582585931e-01    1.421308517e-01
     2560250000    5.408552885e-01    1.942993104e-01
     2561000000    5.226845145e-01    2.414794117e-01
     2561750000    4.939217269e-01    2.934328318e-01
     2562500000    4.656523764e-01    3.367966712e-01
     2563250000    4.322286248e-01    3.777218759e-01
     2564000000    3.935807347e-01    4.176604748e-01
     2564750000    3.515440524e-01    4.525145590e-01
     2565500000    3.074795008e-01    4.833904207e-01
     2566250000    2.625573575e-01    5.098971725e-01
     2567000000    2.110126913e-01    5.334239602e-01
     2567750000    1.613801718e-01    5.497595668e-01
     2568500000    1.109992564e-01    5.626399517e-01
     2569250000    5.411707610e-02    5.697482824e-01
     2570000000   -1.292042816e-05    5.723131895e-01
     2570750000   -5.239244550e-02    5.691353679e-01
     2571500000   -1.048769057e-01    5.625967979e-01
     2572250000   -1.581532359e-01    5.490515232e-01
     2573000000   -2.099579722e-01    5.308696032e-01
     2573750000   -2.588974237e-01    5.090506673e-01
     2574500000   -3.061835468e-01    4.814490676e-01
     2575250000   -3.499600291e-01    4.512705505e-01
     2576000000   -3.914740086e-01    4.151934981e-01
     2576750000   -4.278943241e-01    3.777126074e-01
     2577500000   -4.615133107e-01    3.360090256e-01
     2578250000   -4.916074276e-01    2.900612652e-01
     2579000000   -5.169539452e-01    2.432340533e-01
     2579750000   -5.368392467e-01    1.939481646e-01
     2580500000   -5.527248979e-01    1.426491886e-01
     2581250000   -5.638455153e-01    8.951430768e-02
     2582000000   -5.690348148e-01    3.625890985e-02
     2582750000   -5.703856349e-01   -1.995541155e-02
     2583500000   -5.667055845e-01   -7.087095827e-02
     2584250000   -5.576117039e-01   -1.235834435e-01
     2585000000   -5.417617559e-01   -1.768415868e-01
     2585750000   -5.229651928e-01   -2.276877016e-01
     2586500000   -5.009989142e-01   -2.733631134e-01
     2587250000   -4.727091193e-01   -3.193476498e-01
     2588000000   -4.401593804e-01   -3.629153371e-01
     2588750000   -4.027547538e-01   -4.038489163e-01
     2589500000   -3.654176593e-01   -4.381993711e-01
     2590250000   -3.205890059e-01   -4.712758362e-01
     2591000000   -2.736382186e-01   -4.999879897e-01
     2591750000   -2.277216464e-01   -5.224855542e-01
     2592500000   -1.763136685e-01   -5.410804152e-01
     2593250000   -1.265559494e-01   -5.546199679e-01
     2594000000   -7.147228718e-02   -5.642902255e-01
     2594750000   -1.871128939e-02   -5.682070851e-01
     2595500000    3.546907380e-02   -5.681408644e-01
     2596250000    8.792474866e-02   -5.615859628e-01
     2597000000    1.412365884e-01   -5.506746173e-01
     2597750000    1.913668662e-01   -5.350810885e-01
     2598500000    2.423873544e-01   -5.145340562e-01
     2599250000    2.897070050e-01   -4.893244803e-01
     2600000000    3.331990540e-01   -4.600085318e-01
