! NanoVNA-App
! Date: 2026-05-23 15:21:54
! Start: 4.8GHz Stop: 6GHz Points: 401
! S-Parameter data: F S11
# Hz S RI R 50
!     Frequency           S11_Real           S11_Imag
     4800000000    5.752070248e-02   -2.056210488e-01
     4803000000    1.213232502e-01   -1.678929478e-01
     4806000000    1.676049381e-01   -1.124133468e-01
     4809000000    1.948068738e-01   -4.621583223e-02
     4812000000    1.871644408e-01    2.286576666e-02
     4815000000    1.670614034e-01    9.012182802e-02
     4818000000    1.223203838e-01    1.383429766e-01
     4821000000    6.584988534e-02    1.678544283e-01
     4824000000    3.014100483e-03    1.749259830e-01
     4827000000   -5.712573603e-02    1.620206535e-01
     4830000000   -1.077425107e-01    1.290618628e-01
     4833000000   -1.451978981e-01    8.191985637e-02
     4836000000   -1.601238698e-01    2.757747471e-02
     4839000000   -1.569346786e-01   -2.987759933e-02
     4842000000   -1.342470795e-01   -7.825323939e-02
     4845000000   -9.653875977e-02   -1.170844957e-01
     4848000000   -4.912071675e-02   -1.425448209e-01
     4851000000    1.849973341e-03   -1.452955455e-01
     4854000000    5.114888027e-02   -1.342965662e-01
     4857000000    9.344406426e-02   -1.070248336e-01
     4860000000    1.204770431e-01   -6.869482994e-02
     4863000000    1.350423545e-01   -2.366112545e-02
     4866000000    1.301090866e-01    2.145109139e-02
     4869000000    1.122370064e-01    6.184258685e-02
     4872000000    8.257555962e-02    9.250062704e-02
     4875000000    4.551438615e-02    1.127668321e-01
     4878000000    3.160359920e-04    1.246859804e-01
     4881000000   -3.596237302e-02    1.096148863e-01
     4884000000   -6.307946891e-02    8.799838275e-02
     4887000000   -9.434668720e-02    5.847817659e-02
     4890000000   -1.085690409e-01    2.333710529e-02
     4893000000   -1.078620031e-01   -1.387177408e-02
     4896000000   -9.261430800e-02   -4.330584407e-02
     4899000000   -7.282554358e-02   -7.267263532e-02
     4902000000   -4.246891290e-02   -9.258021414e-02
     4905000000   -1.091391686e-02   -9.700696915e-02
     4908000000    2.210635133e-02   -9.373641014e-02
     4911000000    4.991105199e-02   -7.757845521e-02
     4914000000    6.912052631e-02   -5.678507313e-02
     4917000000    8.410321176e-02   -2.944364958e-02
     4920000000    8.475282788e-02   -1.013875939e-03
     4923000000    7.914654911e-02    3.054792807e-02
     4926000000    6.309334189e-02    5.427502841e-02
     4929000000    4.327551275e-02    6.754844636e-02
     4932000000    1.271887589e-02    8.273927122e-02
     4935000000   -9.477443993e-03    7.959393412e-02
     4938000000   -2.386686206e-02    7.240510732e-02
     4941000000   -5.993777514e-02    5.334592983e-02
     4944000000   -6.187824160e-02    4.094021767e-02
     4947000000   -7.343824953e-02    1.093907747e-02
     4950000000   -7.148703188e-02   -1.644695364e-02
     4953000000   -6.216126680e-02   -3.800458834e-02
     4956000000   -4.963467643e-02   -5.410997942e-02
     4959000000   -3.066094406e-02   -6.493513286e-02
     4962000000   -5.102409050e-03   -7.020036131e-02
     4965000000    1.710541733e-02   -6.893716007e-02
     4968000000    3.686675802e-02   -5.996817350e-02
     4971000000    5.394556746e-02   -4.547308385e-02
     4974000000    6.426677108e-02   -2.460778132e-02
     4977000000    6.819387525e-02   -4.621220287e-03
     4980000000    6.605915725e-02    1.801201329e-02
     4983000000    5.165670067e-02    4.032745957e-02
     4986000000    4.008239508e-02    5.481606349e-02
     4989000000    2.088460699e-02    6.423018128e-02
     4992000000   -1.165462076e-03    6.814432144e-02
     4995000000   -2.449755743e-02    6.279778481e-02
     4998000000   -4.228616506e-02    5.890080333e-02
     5001000000   -5.779559538e-02    3.460023925e-02
     5004000000   -6.770025939e-02    1.831751876e-02
     5007000000   -6.887384504e-02   -5.033818074e-03
     5010000000   -7.231619954e-02   -2.411416173e-02
     5013000000   -5.157883838e-02   -4.517697170e-02
     5016000000   -3.920628130e-02   -6.110252067e-02
     5019000000   -1.375133358e-02   -6.742146611e-02
     5022000000    7.286938373e-03   -6.881606579e-02
     5025000000    2.979498729e-02   -5.682587996e-02
     5028000000    5.075845122e-02   -5.097865313e-02
     5031000000    6.159614399e-02   -2.781853266e-02
     5034000000    7.060364634e-02   -7.177435327e-03
     5037000000    7.140890509e-02    1.732060686e-02
     5040000000    6.163140386e-02    3.895050660e-02
     5043000000    4.311242327e-02    5.477527529e-02
     5046000000    2.405250072e-02    7.086792588e-02
     5049000000   -1.840302488e-03    7.685710490e-02
     5052000000   -2.647681907e-02    7.096016407e-02
     5055000000   -4.943358898e-02    6.071217731e-02
     5058000000   -6.753834337e-02    4.066306725e-02
     5061000000   -7.865124196e-02    1.816130616e-02
     5064000000   -8.274095505e-02   -1.048020180e-02
     5067000000   -7.480544597e-02   -3.324527293e-02
     5070000000   -5.876059458e-02   -5.655888095e-02
     5073000000   -3.694528341e-02   -7.425091416e-02
     5076000000   -9.709371254e-03   -8.099201322e-02
     5079000000    1.957643405e-02   -8.122877032e-02
     5082000000    4.543382674e-02   -7.037993520e-02
     5085000000    6.808343530e-02   -5.238384008e-02
     5088000000    8.428625017e-02   -2.629351430e-02
     5091000000    8.760824800e-02    1.748903538e-03
     5094000000    8.323354274e-02    3.212140873e-02
     5097000000    6.862053275e-02    5.778182670e-02
     5100000000    4.849062860e-02    7.459285110e-02
     5103000000    1.824355125e-02    8.818560839e-02
     5106000000   -1.283703651e-02    9.156998992e-02
     5109000000   -3.697887436e-02    7.983223349e-02
     5112000000   -6.876870245e-02    6.019989774e-02
     5115000000   -8.245166391e-02    3.476049751e-02
     5118000000   -8.856463432e-02    5.744070280e-03
     5121000000   -8.499285579e-02   -3.109469451e-02
     5124000000   -6.873971224e-02   -6.211289018e-02
     5127000000   -4.879000410e-02   -7.941696048e-02
     5130000000   -1.527212095e-02   -9.417148679e-02
     5133000000    1.627047546e-02   -9.563217312e-02
     5136000000    5.555130541e-02   -8.079952747e-02
     5139000000    7.355149090e-02   -6.468711048e-02
     5142000000    9.299298376e-02   -3.390644118e-02
     5145000000    9.973374754e-02    3.795908997e-03
     5148000000    9.285890311e-02    3.698520362e-02
     5151000000    7.504656166e-02    7.125879824e-02
     5154000000    4.406212643e-02    9.463555366e-02
     5157000000    7.508879527e-03    1.062151268e-01
     5160000000   -2.973407507e-02    1.076038703e-01
     5163000000   -6.575950235e-02    9.221133590e-02
     5166000000   -9.656706452e-02    6.304928660e-02
     5169000000   -1.127223596e-01    2.958358452e-02
     5172000000   -1.177049950e-01   -1.429013815e-02
     5175000000   -1.100280136e-01   -5.334366858e-02
     5178000000   -8.511410654e-02   -8.956133574e-02
     5181000000   -5.337310582e-02   -1.151905432e-01
     5184000000   -1.463045017e-03   -1.231092885e-01
     5187000000    3.756806254e-02   -1.245029420e-01
     5190000000    8.165663481e-02   -9.947389364e-02
     5193000000    1.118142679e-01   -6.656219065e-02
     5196000000    1.322333664e-01   -2.579654939e-02
     5199000000    1.362489760e-01    2.173286863e-02
     5202000000    1.111392081e-01    7.002245635e-02
     5205000000    9.419494867e-02    1.087846979e-01
     5208000000    4.654373601e-02    1.348981708e-01
     5211000000   -5.581103265e-03    1.415434331e-01
     5214000000   -5.289757624e-02    1.389211416e-01
     5217000000   -9.962240607e-02    1.079022512e-01
     5220000000   -1.333279908e-01    6.667124480e-02
     5223000000   -1.543561220e-01    1.760660484e-02
     5226000000   -1.491063237e-01   -3.896830976e-02
     5229000000   -1.260338724e-01   -8.786414564e-02
     5232000000   -9.025229514e-02   -1.306865215e-01
     5235000000   -4.011808336e-02   -1.556198895e-01
     5238000000    1.515439991e-02   -1.647869647e-01
     5241000000    7.310288399e-02   -1.500431895e-01
     5244000000    1.197601706e-01   -1.144992411e-01
     5247000000    1.548207253e-01   -6.564535201e-02
     5250000000    1.730130464e-01   -6.828729995e-03
     5253000000    1.624547392e-01    5.218007416e-02
     5256000000    1.392097920e-01    1.104938388e-01
     5259000000    8.771701157e-02    1.461248994e-01
     5262000000    3.102829680e-02    1.754482239e-01
     5265000000   -3.231791034e-02    1.781308502e-01
     5268000000   -8.861966431e-02    1.519215256e-01
     5271000000   -1.375194937e-01    1.103989407e-01
     5274000000   -1.805812418e-01    5.662357807e-02
     5277000000   -1.729173213e-01   -7.780648302e-03
     5280000000   -1.761495322e-01   -7.985050976e-02
     5283000000   -1.306177080e-01   -1.325197667e-01
     5286000000   -7.761946321e-02   -1.748826653e-01
     5289000000   -1.412954740e-02   -1.861315221e-01
     5292000000    5.615737289e-02   -1.847857237e-01
     5295000000    1.157623455e-01   -1.548280120e-01
     5298000000    1.677566171e-01   -1.034948006e-01
     5301000000    1.914353520e-01   -3.745226189e-02
     5304000000    1.958545446e-01    3.312555701e-02
     5307000000    1.714108735e-01    1.002536491e-01
     5310000000    1.250308305e-01    1.567799151e-01
     5313000000    6.166863441e-02    1.953696907e-01
     5316000000   -9.073153138e-03    2.006257921e-01
     5319000000   -8.178039640e-02    1.853295565e-01
     5322000000   -1.459686905e-01    1.469456404e-01
     5325000000   -1.934825033e-01    8.680445701e-02
     5328000000   -2.087378502e-01    1.396513917e-02
     5331000000   -2.025480121e-01   -6.624198705e-02
     5334000000   -1.658360958e-01   -1.263840497e-01
     5337000000   -1.100622714e-01   -1.831102371e-01
     5340000000   -3.528176993e-02   -2.127666175e-01
     5343000000    3.361225128e-02   -2.053256780e-01
     5346000000    1.148199663e-01   -1.829359680e-01
     5349000000    1.707499176e-01   -1.324134469e-01
     5352000000    2.098362595e-01   -6.341765821e-02
     5355000000    2.250197977e-01    1.773083210e-02
     5358000000    2.030420303e-01    9.829054028e-02
     5361000000    1.543688625e-01    1.669194400e-01
     5364000000    8.650181442e-02    2.148596793e-01
     5367000000    7.832366042e-03    2.302045375e-01
     5370000000   -7.428469509e-02    2.180854231e-01
     5373000000   -1.328242272e-01    1.742706895e-01
     5376000000   -2.273481339e-01    1.056861281e-01
     5379000000   -2.241051793e-01    4.309198633e-02
     5382000000   -2.318259031e-01   -4.776079580e-02
     5385000000   -1.969291568e-01   -1.293692887e-01
     5388000000   -1.343944073e-01   -2.192007303e-01
     5391000000   -5.643970147e-02   -2.426309735e-01
     5394000000    1.438152045e-02   -2.429239154e-01
     5397000000    1.130810231e-01   -2.171621025e-01
     5400000000    1.824338436e-01   -1.638970077e-01
     5403000000    2.288354635e-01   -8.846416324e-02
     5406000000    2.503777444e-01    2.497181762e-03
     5409000000    2.331998050e-01    9.161510319e-02
     5412000000    1.892394274e-01    1.649779975e-01
     5415000000    1.161230281e-01    2.254674137e-01
     5418000000    3.687374294e-02    2.455013394e-01
     5421000000   -6.293053925e-02    2.476942539e-01
     5424000000   -1.488850713e-01    2.108605802e-01
     5427000000   -2.127953172e-01    1.439642459e-01
     5430000000   -2.488387078e-01    5.774951726e-02
     5433000000   -2.577556968e-01   -4.013891146e-02
     5436000000   -2.244219184e-01   -1.314362735e-01
     5439000000   -1.763352752e-01   -1.810194254e-01
     5442000000   -8.097799867e-02   -2.500018775e-01
     5445000000    1.170528773e-02   -2.606362402e-01
     5448000000    9.871578962e-02   -2.432654351e-01
     5451000000    1.821681857e-01   -1.920160651e-01
     5454000000    2.376090586e-01   -1.142153591e-01
     5457000000    2.675223053e-01   -1.211434789e-02
     5460000000    2.559843957e-01    5.385491997e-02
     5463000000    2.049905956e-01    1.797289848e-01
     5466000000    1.379184574e-01    2.329271585e-01
     5469000000    5.221810564e-02    2.644678354e-01
     5472000000   -4.655819759e-02    2.665178776e-01
     5475000000   -1.418907493e-01    2.307912111e-01
     5478000000   -2.060534209e-01    1.729697585e-01
     5481000000   -2.584954798e-01    8.044308424e-02
     5484000000   -2.717618644e-01   -1.855254918e-02
     5487000000   -2.526855767e-01   -1.034174562e-01
     5490000000   -1.869251281e-01   -2.026030421e-01
     5493000000   -1.061028764e-01   -2.529111803e-01
     5496000000   -1.778072678e-02   -2.719775736e-01
     5499000000    9.367539734e-02   -2.598588765e-01
     5502000000    1.694568992e-01   -2.189064175e-01
     5505000000    2.461128533e-01   -1.327172071e-01
     5508000000    2.753966749e-01   -4.618355259e-02
     5511000000    2.729297280e-01    5.981924385e-02
     5514000000    2.356251031e-01    1.552675068e-01
     5517000000    1.701655090e-01    2.277912050e-01
     5520000000    6.880085170e-02    2.756322622e-01
     5523000000   -2.951764129e-02    2.852224410e-01
     5526000000   -1.316010803e-01    2.551823556e-01
     5529000000   -2.106215060e-01    1.974546909e-01
     5532000000   -2.698118091e-01    1.104650646e-01
     5535000000   -2.933484614e-01    8.021583781e-03
     5538000000   -2.790548801e-01   -9.044864774e-02
     5541000000   -2.192032188e-01   -1.957388371e-01
     5544000000   -1.521866471e-01   -2.522932589e-01
     5547000000   -2.941098064e-02   -2.918163240e-01
     5550000000    5.652025715e-02   -2.912755013e-01
     5553000000    1.709870398e-01   -2.386084646e-01
     5556000000    2.373525649e-01   -1.823011488e-01
     5559000000    2.884786725e-01   -5.619934574e-02
     5562000000    2.981313765e-01    2.077460289e-02
     5565000000    2.667502165e-01    1.341392994e-01
     5568000000    2.090894878e-01    2.160272449e-01
     5571000000    1.118365377e-01    2.819348574e-01
     5574000000    8.140612394e-03    3.056370020e-01
     5577000000   -1.059569493e-01    2.848857641e-01
     5580000000   -1.964210123e-01    2.357461452e-01
     5583000000   -2.670346797e-01    1.618907154e-01
     5586000000   -3.007705510e-01    3.644219413e-02
     5589000000   -2.997588515e-01   -6.412080675e-02
     5592000000   -2.636065483e-01   -1.608346254e-01
     5595000000   -1.823153943e-01   -2.458167970e-01
     5598000000   -9.823450446e-02   -2.974354625e-01
     5601000000    3.269051388e-02   -3.003053069e-01
     5604000000    1.213177145e-01   -2.895573974e-01
     5607000000    2.209142148e-01   -2.054015696e-01
     5610000000    2.806200385e-01   -1.239743307e-01
     5613000000    3.095016778e-01   -1.830809377e-02
     5616000000    3.032054305e-01    8.579519391e-02
     5619000000    2.389427871e-01    1.916278601e-01
     5622000000    1.611965299e-01    2.620515227e-01
     5625000000    5.670192093e-02    3.002525866e-01
     5628000000   -4.968622699e-02    3.019056022e-01
     5631000000   -1.517764032e-01    2.612514198e-01
     5634000000   -2.351990640e-01    1.942992061e-01
     5637000000   -2.860896289e-01    8.804812282e-02
     5640000000   -3.122870326e-01   -5.571249872e-03
     5643000000   -2.784641683e-01   -1.186436564e-01
     5646000000   -2.210625261e-01   -2.118758261e-01
     5649000000   -1.374138743e-01   -2.775075734e-01
     5652000000   -2.903366834e-02   -3.075282276e-01
     5655000000    8.744660765e-02   -2.852948010e-01
     5658000000    1.812242568e-01   -2.489671111e-01
     5661000000    2.557372749e-01   -1.641021073e-01
     5664000000    2.968725860e-01   -6.135650352e-02
     5667000000    3.120886683e-01    4.022866860e-02
     5670000000    2.605507970e-01    1.507349461e-01
     5673000000    1.887701601e-01    2.312489152e-01
     5676000000    9.946034849e-02    2.876226306e-01
     5679000000   -1.284497511e-02    2.973134816e-01
     5682000000   -1.172147095e-01    2.793566585e-01
     5685000000   -2.099792659e-01    2.296506763e-01
     5688000000   -2.689169347e-01    1.327737421e-01
     5691000000   -2.987467051e-01    2.575703710e-02
     5694000000   -3.049160540e-01   -7.972743362e-02
     5697000000   -2.434932739e-01   -1.784707457e-01
     5700000000   -1.637589037e-01   -2.549513578e-01
     5703000000   -6.629233062e-02   -3.028452992e-01
     5706000000    4.586680979e-02   -3.063488901e-01
     5709000000    1.501784027e-01   -2.625012398e-01
     5712000000    2.396141142e-01   -2.018935680e-01
     5715000000    2.922803760e-01   -1.019931063e-01
     5718000000    3.153938055e-01    9.349006228e-03
     5721000000    2.928967178e-01    1.189673170e-01
     5724000000    2.263426632e-01    2.119932026e-01
     5727000000    1.394630671e-01    2.809028029e-01
     5730000000    3.036053665e-02    3.140991330e-01
     5733000000   -8.369658142e-02    3.045261502e-01
     5736000000   -1.907470077e-01    2.603533268e-01
     5739000000   -2.622964084e-01    1.745657325e-01
     5742000000   -3.105951846e-01    7.178159803e-02
     5745000000   -3.183313906e-01   -4.346902668e-02
     5748000000   -2.780962288e-01   -1.497582942e-01
     5751000000   -2.122257650e-01   -2.487428784e-01
     5754000000   -1.119716987e-01   -2.935604453e-01
     5757000000    3.785770386e-03   -3.293942511e-01
     5760000000    1.151166856e-01   -2.978620231e-01
     5763000000    2.175253928e-01   -2.441934347e-01
     5766000000    2.875855863e-01   -1.509726942e-01
     5769000000    3.320918679e-01   -3.546316922e-02
     5772000000    3.103930950e-01    7.751206309e-02
     5775000000    2.665545940e-01    1.858690083e-01
     5778000000    1.884235442e-01    2.731025219e-01
     5781000000    8.196949959e-02    3.171075583e-01
     5784000000   -3.940082714e-02    3.281863034e-01
     5787000000   -1.498587877e-01    2.929401994e-01
     5790000000   -2.451382875e-01    2.220313400e-01
     5793000000   -3.060055673e-01    1.212523952e-01
     5796000000   -3.357172608e-01    1.322950702e-03
     5799000000   -3.133504093e-01   -1.155298129e-01
     5802000000   -2.529975474e-01   -2.176805288e-01
     5805000000   -1.592212617e-01   -2.934444547e-01
     5808000000   -4.579118267e-02   -3.321229815e-01
     5811000000    7.389279455e-02   -3.259701729e-01
     5814000000    1.780567318e-01   -2.796074152e-01
     5817000000    2.749451697e-01   -1.947791427e-01
     5820000000    3.187722564e-01   -8.916661143e-02
     5823000000    3.307297230e-01    3.003070317e-02
     5826000000    2.978571057e-01    1.512068361e-01
     5829000000    2.288533896e-01    2.410052866e-01
     5832000000    1.270269156e-01    3.073599041e-01
     5835000000    9.461512789e-03    3.342638314e-01
     5838000000   -1.171258390e-01    3.142541945e-01
     5841000000   -2.201952934e-01    2.546572983e-01
     5844000000   -2.905984819e-01    1.684410274e-01
     5847000000   -3.327497840e-01    4.757854342e-02
     5850000000   -3.280580938e-01   -7.248529792e-02
     5853000000   -2.822113633e-01   -1.839700937e-01
     5856000000   -1.981472373e-01   -2.710593045e-01
     5859000000   -9.009553492e-02   -3.244396746e-01
     5862000000    3.092324920e-02   -3.362541497e-01
     5865000000    1.527416408e-01   -3.004228175e-01
     5868000000    2.507126629e-01   -2.262833416e-01
     5871000000    3.154704273e-01   -1.250715107e-01
     5874000000    3.415349424e-01   -8.972640149e-03
     5877000000    3.182905316e-01    1.161686927e-01
     5880000000    2.595869601e-01    2.196615785e-01
     5883000000    1.685484946e-01    2.989179492e-01
     5886000000    4.511286318e-02    3.369288743e-01
     5889000000   -7.283137739e-02    3.348386288e-01
     5892000000   -1.868900061e-01    2.865378857e-01
     5895000000   -2.735333443e-01    1.958140731e-01
     5898000000   -3.316629827e-01    9.414608777e-02
     5901000000   -3.364827633e-01   -3.282161802e-02
     5904000000   -3.004840016e-01   -1.541632861e-01
     5907000000   -2.304729074e-01   -2.522291243e-01
     5910000000   -1.175748631e-01   -3.121159673e-01
     5913000000   -8.667278598e-05   -3.425070345e-01
     5916000000    1.187759489e-01   -3.224602342e-01
     5919000000    2.286490500e-01   -2.548775673e-01
     5922000000    3.098153770e-01   -1.636401713e-01
     5925000000    3.420177698e-01   -4.254303500e-02
     5928000000    3.385190964e-01    8.096021414e-02
     5931000000    2.889060676e-01    1.967738718e-01
     5934000000    1.950525343e-01    2.833909988e-01
     5937000000    8.298020065e-02    3.374636173e-01
     5940000000   -4.099581391e-02    3.446150124e-01
     5943000000   -1.634329110e-01    2.979867458e-01
     5946000000   -2.653330564e-01    2.320183218e-01
     5949000000   -3.213952780e-01    1.159517989e-01
     5952000000   -3.465763032e-01   -6.812520325e-03
     5955000000   -3.266746998e-01   -1.284651607e-01
     5958000000   -2.543549240e-01   -2.361160070e-01
     5961000000   -1.537395567e-01   -3.103075325e-01
     5964000000   -3.755885363e-02   -3.459800184e-01
     5967000000    9.196603298e-02   -3.419510126e-01
     5970000000    2.084228545e-01   -2.872960865e-01
     5973000000    2.949149013e-01   -1.947355419e-01
     5976000000    3.440195322e-01   -7.096894085e-02
     5979000000    3.408709764e-01    5.412898585e-02
     5982000000    3.046486080e-01    1.755850315e-01
     5985000000    2.229225934e-01    2.775089741e-01
     5988000000    1.109958738e-01    3.368733525e-01
     5991000000   -1.369951200e-02    3.482894301e-01
     5994000000   -1.475513577e-01    3.363425732e-01
     5997000000   -2.489614189e-01    2.569231689e-01
     6000000000   -3.219324946e-01    1.543570757e-01
