! NanoVNA-App
! Date: 2026-05-22 23:29:49
! Start: 4.8GHz Stop: 6GHz Points: 401
! S-Parameter data: F S11
# Hz S RI R 50
!     Frequency           S11_Real           S11_Imag
     4800000000    4.892382771e-02   -2.870093882e-01
     4803000000    1.431998909e-01   -2.484532297e-01
     4806000000    2.241262347e-01   -1.795572937e-01
     4809000000    2.644030452e-01   -9.016438574e-02
     4812000000    2.753152251e-01    9.171968326e-03
     4815000000    2.501922846e-01    1.047773436e-01
     4818000000    1.960647553e-01    1.862326413e-01
     4821000000    1.162721589e-01    2.396124899e-01
     4824000000    2.459822409e-02    2.622140646e-01
     4827000000   -6.781177968e-02    2.497606128e-01
     4830000000   -1.530625522e-01    2.091410011e-01
     4833000000   -2.123076916e-01    1.396394521e-01
     4836000000   -2.439583689e-01    5.664196610e-02
     4839000000   -2.464886308e-01   -3.439645097e-02
     4842000000   -2.160309106e-01   -1.152504385e-01
     4845000000   -1.596814394e-01   -1.818096489e-01
     4848000000   -8.337979764e-02   -2.262066454e-01
     4851000000   -5.706212833e-04   -2.363146544e-01
     4854000000    8.118440956e-02   -2.167281508e-01
     4857000000    1.530498713e-01   -1.739395708e-01
     4860000000    1.966872811e-01   -1.077019274e-01
     4863000000    2.277268618e-01   -2.777565084e-02
     4866000000    2.183401436e-01    5.122525245e-02
     4869000000    1.820558906e-01    1.140353456e-01
     4872000000    1.294644773e-01    1.723840833e-01
     4875000000    5.895254761e-02    2.133498639e-01
     4878000000   -1.017801370e-02    2.038088292e-01
     4881000000   -9.137967974e-02    1.923189014e-01
     4884000000   -1.442516595e-01    1.457483023e-01
     4887000000   -1.799862385e-01    8.325427026e-02
     4890000000   -1.996211708e-01    1.244365331e-02
     4893000000   -1.869257092e-01   -5.564045906e-02
     4896000000   -1.514576524e-01   -1.100300476e-01
     4899000000   -1.006704718e-01   -1.605965048e-01
     4902000000   -3.875600174e-02   -1.810287088e-01
     4905000000    2.600533329e-02   -1.799734831e-01
     4908000000    8.525558561e-02   -1.576532125e-01
     4911000000    1.351303309e-01   -1.150785238e-01
     4914000000    1.622807831e-01   -6.069492921e-02
     4917000000    1.698600948e-01    1.239909208e-03
     4920000000    1.528926790e-01    5.553047359e-02
     4923000000    1.195796505e-01    1.112771407e-01
     4926000000    7.190985978e-02    1.389832199e-01
     4929000000    1.554084755e-02    1.565957069e-01
     4932000000   -3.992228955e-02    1.503636688e-01
     4935000000   -8.809869736e-02    1.250277311e-01
     4938000000   -1.194016561e-01    8.681567758e-02
     4941000000   -1.424562931e-01    3.586970642e-02
     4944000000   -1.352089494e-01   -3.163692076e-03
     4947000000   -1.276974827e-01   -7.028089464e-02
     4950000000   -9.356481582e-02   -1.001015529e-01
     4953000000   -5.141291022e-02   -1.241130084e-01
     4956000000   -5.849426612e-03   -1.295246631e-01
     4959000000    4.726156965e-02   -1.222394407e-01
     4962000000    7.877979428e-02   -9.821155667e-02
     4965000000    1.068631038e-01   -6.268220395e-02
     4968000000    1.196031943e-01   -2.118990198e-02
     4971000000    1.173009351e-01    2.504390106e-02
     4974000000    9.858752787e-02    6.162152439e-02
     4977000000    6.845737994e-02    8.928152919e-02
     4980000000    3.175712749e-02    1.074819416e-01
     4983000000   -1.244004723e-02    1.092288941e-01
     4986000000   -3.793033212e-02    9.543440491e-02
     4989000000   -6.885635108e-02    7.329083234e-02
     4992000000   -9.393082559e-02    3.885049373e-02
     4995000000   -9.545378387e-02    1.004436985e-02
     4998000000   -8.967710286e-02   -3.389535844e-02
     5001000000   -7.382848114e-02   -5.448895320e-02
     5004000000   -4.384235293e-02   -8.032728732e-02
     5007000000   -2.053544670e-02   -8.663988113e-02
     5010000000    1.423858199e-02   -8.580520749e-02
     5013000000    4.258754477e-02   -7.478263229e-02
     5016000000    6.848632544e-02   -4.901080579e-02
     5019000000    7.728848606e-02   -2.458023280e-02
     5022000000    7.733618468e-02   -7.159105968e-03
     5025000000    7.008288056e-02    2.723308839e-02
     5028000000    5.658130720e-02    4.493981972e-02
     5031000000    3.361747786e-02    5.776979402e-02
     5034000000    1.163233537e-02    6.329492480e-02
     5037000000   -1.046624128e-02    6.134947389e-02
     5040000000   -3.202726692e-02    4.843065888e-02
     5043000000   -4.434384033e-02    3.352526948e-02
     5046000000   -5.129151791e-02    2.065787464e-02
     5049000000   -5.216163769e-02   -4.309374839e-03
     5052000000   -4.827328399e-02   -1.610493101e-02
     5055000000   -3.247918561e-02   -3.286463395e-02
     5058000000   -2.104793303e-02   -4.088655114e-02
     5061000000   -3.552119480e-03   -4.102656618e-02
     5064000000    5.985915661e-03   -3.951757029e-02
     5067000000    2.043707669e-02   -2.907942981e-02
     5070000000    2.397855371e-02   -1.995008625e-02
     5073000000    2.703408897e-02   -6.085502915e-03
     5076000000    2.499433607e-02    5.143246148e-03
     5079000000    2.013073303e-02    1.245552767e-02
     5082000000    1.189932786e-02    1.709002815e-02
     5085000000    6.119338330e-03    1.975408196e-02
     5088000000    8.651818644e-05    2.158977091e-02
     5091000000   -5.873602349e-03    1.913620345e-02
     5094000000   -8.362442255e-03    1.883940212e-02
     5097000000   -1.040860172e-02    1.269791927e-02
     5100000000   -1.064544078e-02    5.333647598e-03
     5103000000   -9.977128357e-03    4.115943331e-03
     5106000000   -1.892599161e-03   -1.567228464e-04
     5109000000   -6.643295754e-03    4.637524835e-04
     5112000000   -7.047691382e-03    2.688723907e-05
     5115000000   -1.443419605e-03    4.642583895e-03
     5118000000   -4.055249039e-03    3.598056501e-03
     5121000000   -5.357779097e-03    1.047785743e-03
     5124000000   -3.032185137e-03   -8.154797368e-03
     5127000000   -1.489341259e-03   -8.163487539e-03
     5130000000   -8.882038295e-03   -6.639044732e-03
     5133000000    3.130583325e-03   -1.278927736e-02
     5136000000    7.977541100e-05   -1.685819216e-02
     5139000000    1.463192794e-02   -8.990474045e-03
     5142000000    1.444382872e-02   -1.661686972e-02
     5145000000    2.140204422e-02   -6.672069896e-03
     5148000000    2.510662749e-02    8.993664524e-04
     5151000000    2.332933992e-02    1.202021725e-02
     5154000000    1.983779483e-02    1.950447261e-02
     5157000000    1.092914026e-02    2.850925177e-02
     5160000000    9.382326971e-04    3.398572281e-02
     5163000000   -1.163933519e-02    3.815415129e-02
     5166000000   -2.931567840e-02    2.651419863e-02
     5169000000   -3.957656398e-02    1.919487678e-02
     5172000000   -4.701678455e-02    2.750103595e-03
     5175000000   -4.972505569e-02   -1.356071699e-02
     5178000000   -4.431120306e-02   -3.172592074e-02
     5181000000   -3.468599916e-02   -4.724969715e-02
     5184000000   -2.158277109e-02   -6.223353744e-02
     5187000000    1.223073225e-03   -6.697875261e-02
     5190000000    2.740353160e-02   -6.043167785e-02
     5193000000    4.904898629e-02   -4.830581322e-02
     5196000000    6.753921509e-02   -3.582921252e-02
     5199000000    7.531370968e-02   -7.157899905e-03
     5202000000    8.265812695e-02    1.637517288e-02
     5205000000    6.865438819e-02    4.652530327e-02
     5208000000    5.185365677e-02    7.012212276e-02
     5211000000    1.967922412e-02    8.194483817e-02
     5214000000   -1.147276722e-02    8.842492104e-02
     5217000000   -4.357942939e-02    8.257144690e-02
     5220000000   -7.315706462e-02    6.362215430e-02
     5223000000   -9.069186449e-02    3.213278949e-02
     5226000000   -9.925306588e-02   -1.856451738e-03
     5229000000   -1.008098796e-01   -3.874547035e-02
     5232000000   -7.789378613e-02   -7.232310623e-02
     5235000000   -5.114162713e-02   -9.792490304e-02
     5238000000   -1.367072389e-02   -1.139981672e-01
     5241000000    2.732330561e-02   -1.152367219e-01
     5244000000    6.597589701e-02   -9.511977434e-02
     5247000000    9.529778361e-02   -6.516171992e-02
     5250000000    1.271135360e-01   -3.077146783e-02
     5253000000    1.289728731e-01    1.492232736e-02
     5256000000    1.162250265e-01    5.965578929e-02
     5259000000    9.666033089e-02    1.076136678e-01
     5262000000    4.943957552e-02    1.245067120e-01
     5265000000    4.741883837e-03    1.425897181e-01
     5268000000   -4.755257070e-02    1.407640874e-01
     5271000000   -8.648544550e-02    1.073380187e-01
     5274000000   -1.174894050e-01    6.875955313e-02
     5277000000   -1.456044018e-01    2.147500962e-02
     5280000000   -1.451836973e-01   -3.543133661e-02
     5283000000   -1.199477091e-01   -8.265931159e-02
     5286000000   -8.673734218e-02   -1.304764748e-01
     5289000000   -3.515027091e-02   -1.539521366e-01
     5292000000    2.224108018e-02   -1.607534885e-01
     5295000000    7.752420008e-02   -1.429593563e-01
     5298000000    1.258188933e-01   -1.076431721e-01
     5301000000    1.570263952e-01   -5.865088478e-02
     5304000000    1.745555401e-01    6.068733986e-03
     5307000000    1.601857394e-01    6.538082659e-02
     5310000000    1.247036383e-01    1.141388565e-01
     5313000000    7.517185807e-02    1.550938636e-01
     5316000000    1.395718474e-02    1.752489656e-01
     5319000000   -5.363882333e-02    1.715913564e-01
     5322000000   -1.107165888e-01    1.436215937e-01
     5325000000   -1.613614261e-01    9.728782624e-02
     5328000000   -1.866528243e-01    3.381576762e-02
     5331000000   -1.935317367e-01   -3.967242688e-02
     5334000000   -1.681396216e-01   -1.035584509e-01
     5337000000   -1.198022366e-01   -1.565825045e-01
     5340000000   -5.882345885e-02   -1.892783493e-01
     5343000000    1.602150500e-02   -2.013761997e-01
     5346000000    8.810001612e-02   -1.860941797e-01
     5349000000    1.480065435e-01   -1.443960518e-01
     5352000000    1.917073280e-01   -8.139529824e-02
     5355000000    2.120989561e-01   -8.091022260e-03
     5358000000    2.017319947e-01    7.260317355e-02
     5361000000    1.638433933e-01    1.434163004e-01
     5364000000    1.041822657e-01    1.973383129e-01
     5367000000    2.865250036e-02    2.214495391e-01
     5370000000   -5.625091121e-02    2.178598195e-01
     5373000000   -1.142978743e-01    1.815737933e-01
     5376000000   -2.120189816e-01    1.219102740e-01
     5379000000   -2.263779640e-01    5.582149699e-02
     5382000000   -2.348471731e-01   -2.944653668e-02
     5385000000   -2.045317739e-01   -1.017300189e-01
     5388000000   -1.502398551e-01   -1.913956702e-01
     5391000000   -7.692277431e-02   -2.382183820e-01
     5394000000    2.244252153e-02   -2.562942505e-01
     5397000000    7.832963020e-02   -2.243813872e-01
     5400000000    1.696538180e-01   -1.810491532e-01
     5403000000    2.350016087e-01   -1.073648036e-01
     5406000000    2.729134858e-01   -5.620888551e-04
     5409000000    2.526359558e-01    6.718523800e-02
     5412000000    2.133142203e-01    1.653900146e-01
     5415000000    1.517505795e-01    2.182153463e-01
     5418000000    5.639483035e-02    2.643905282e-01
     5421000000   -3.391505405e-02    2.670757473e-01
     5424000000   -1.477088630e-01    2.362672836e-01
     5427000000   -2.080220580e-01    1.754692793e-01
     5430000000   -2.586260438e-01    8.924873173e-02
     5433000000   -2.711629272e-01    4.376646539e-04
     5436000000   -2.524640560e-01   -1.201106906e-01
     5439000000   -1.990216970e-01   -1.955206096e-01
     5442000000   -1.242648363e-01   -2.468087971e-01
     5445000000   -1.240728423e-02   -2.838328183e-01
     5448000000    9.114369750e-02   -2.728103995e-01
     5451000000    1.762653142e-01   -2.264023274e-01
     5454000000    2.269455194e-01   -1.682320684e-01
     5457000000    2.872967124e-01   -4.232326522e-02
     5460000000    2.834815085e-01    4.560045153e-02
     5463000000    2.485966831e-01    1.492711604e-01
     5466000000    1.721841395e-01    2.344226241e-01
     5469000000    9.617184103e-02    2.710308135e-01
     5472000000   -1.921444014e-02    2.884195745e-01
     5475000000   -1.115833670e-01    2.654541135e-01
     5478000000   -2.079862803e-01    2.017261684e-01
     5481000000   -2.697485983e-01    1.078060716e-01
     5484000000   -2.909211218e-01    2.230196819e-02
     5487000000   -2.765862942e-01   -9.850312024e-02
     5490000000   -2.233091146e-01   -1.930299103e-01
     5493000000   -1.438640356e-01   -2.580580711e-01
     5496000000   -4.437025264e-02   -2.930469811e-01
     5499000000    6.032725051e-02   -2.892348170e-01
     5502000000    1.643614322e-01   -2.485276610e-01
     5505000000    2.403012365e-01   -1.764404327e-01
     5508000000    2.898842990e-01   -7.138361782e-02
     5511000000    2.961220741e-01    3.998354822e-02
     5514000000    2.669069469e-01    1.337560117e-01
     5517000000    1.997990310e-01    2.218537033e-01
     5520000000    1.081180647e-01    2.793309093e-01
     5523000000    8.830393781e-04    2.989802361e-01
     5526000000   -1.029259562e-01    2.832197249e-01
     5529000000   -2.035212964e-01    2.213441879e-01
     5532000000   -2.674991786e-01    1.349767596e-01
     5535000000   -3.005739748e-01    4.527672380e-02
     5538000000   -2.867351472e-01   -8.568029106e-02
     5541000000   -2.412728965e-01   -1.807929128e-01
     5544000000   -1.724442393e-01   -2.500835061e-01
     5547000000   -6.336634606e-02   -2.968840301e-01
     5550000000    4.679011926e-02   -3.035456240e-01
     5553000000    1.558865011e-01   -2.604823709e-01
     5556000000    2.400835603e-01   -1.834593415e-01
     5559000000    2.901873291e-01   -1.133489907e-01
     5562000000    3.081643283e-01    2.261433564e-02
     5565000000    2.870714068e-01    1.176078692e-01
     5568000000    2.252801955e-01    2.109400779e-01
     5571000000    1.197073385e-01    2.810717225e-01
     5574000000    2.114799619e-02    3.090133965e-01
     5577000000   -8.816320449e-02    2.978485823e-01
     5580000000   -1.906559169e-01    2.490890771e-01
     5583000000   -2.653069794e-01    1.657474935e-01
     5586000000   -3.064456284e-01    5.929891020e-02
     5589000000   -3.042591810e-01   -5.720803887e-02
     5592000000   -2.690235972e-01   -1.579099298e-01
     5595000000   -1.996462196e-01   -2.424197644e-01
     5598000000   -8.535113186e-02   -2.948369384e-01
     5601000000    1.640705392e-02   -3.136358559e-01
     5604000000    1.256262064e-01   -2.915163636e-01
     5607000000    2.237500846e-01   -2.151673734e-01
     5610000000    2.862930596e-01   -1.216113493e-01
     5613000000    3.239057958e-01   -3.413757309e-02
     5616000000    2.958596945e-01    9.688124806e-02
     5619000000    2.509608865e-01    1.932572424e-01
     5622000000    1.573788077e-01    2.656614780e-01
     5625000000    6.593343616e-02    3.104384243e-01
     5628000000   -5.476538464e-02    3.098188341e-01
     5631000000   -1.588584483e-01    2.631807327e-01
     5634000000   -2.430386692e-01    1.936706901e-01
     5637000000   -2.974582911e-01    1.031203642e-01
     5640000000   -3.091824651e-01   -1.624666527e-02
     5643000000   -2.852903903e-01   -1.244592741e-01
     5646000000   -2.219996899e-01   -2.181946188e-01
     5649000000   -1.222341806e-01   -2.776105106e-01
     5652000000   -1.284194086e-02   -2.994675636e-01
     5655000000    8.762598783e-02   -3.047699034e-01
     5658000000    1.917741448e-01   -2.285161763e-01
     5661000000    2.649105787e-01   -1.602401733e-01
     5664000000    2.974065244e-01   -4.458294064e-02
     5667000000    2.975193262e-01    5.989855900e-02
     5670000000    2.470209301e-01    1.627212018e-01
     5673000000    1.816428155e-01    2.421441525e-01
     5676000000    9.309541434e-02    3.006905615e-01
     5679000000   -2.370567620e-02    3.054725826e-01
     5682000000   -1.322683841e-01    2.832505107e-01
     5685000000   -2.208964229e-01    2.126619369e-01
     5688000000   -2.752844393e-01    1.149202958e-01
     5691000000   -3.112275004e-01    1.708399877e-02
     5694000000   -2.906405032e-01   -9.531916678e-02
     5697000000   -2.329177856e-01   -1.890051812e-01
     5700000000   -1.569225192e-01   -2.628692985e-01
     5703000000   -4.672781378e-02   -2.929753661e-01
     5706000000    6.009983644e-02   -2.972404659e-01
     5709000000    1.611784846e-01   -2.574172318e-01
     5712000000    2.419737577e-01   -1.816163063e-01
     5715000000    2.968626320e-01   -8.943425119e-02
     5718000000    2.913767397e-01    2.929791063e-02
     5721000000    2.731724083e-01    1.302648187e-01
     5724000000    2.144323587e-01    2.199735343e-01
     5727000000    1.107701436e-01    2.682701945e-01
     5730000000    1.076707710e-02    2.999045253e-01
     5733000000   -9.833513945e-02    2.878313363e-01
     5736000000   -1.958502233e-01    2.323550880e-01
     5739000000   -2.611487806e-01    1.488768905e-01
     5742000000   -2.988597751e-01    4.754194617e-02
     5745000000   -2.950370312e-01   -6.221280620e-02
     5748000000   -2.466570139e-01   -1.567197740e-01
     5751000000   -1.838967204e-01   -2.482270449e-01
     5754000000   -8.268544078e-02   -2.821581960e-01
     5757000000    2.726180293e-02   -3.050941825e-01
     5760000000    1.290109307e-01   -2.686051726e-01
     5763000000    2.199670970e-01   -2.091538459e-01
     5766000000    2.695359588e-01   -1.142903492e-01
     5769000000    3.077103496e-01   -7.476028521e-03
     5772000000    2.798818648e-01    9.454464912e-02
     5775000000    2.274388224e-01    1.891292334e-01
     5778000000    1.524779797e-01    2.668347061e-01
     5781000000    4.997141287e-02    2.883678079e-01
     5784000000   -6.417454779e-02    2.985198498e-01
     5787000000   -1.558143646e-01    2.517252266e-01
     5790000000   -2.322588414e-01    1.794508100e-01
     5793000000   -2.796266377e-01    8.509611338e-02
     5796000000   -2.965171039e-01   -2.487052605e-02
     5799000000   -2.662558854e-01   -1.287795454e-01
     5802000000   -2.030850351e-01   -2.109709084e-01
     5805000000   -1.143011004e-01   -2.722460330e-01
     5808000000   -9.899923578e-03   -2.956124842e-01
     5811000000    9.923384339e-02   -2.812065482e-01
     5814000000    1.826096624e-01   -2.286709994e-01
     5817000000    2.626303136e-01   -1.442656219e-01
     5820000000    2.880973816e-01   -4.800250009e-02
     5823000000    2.881773412e-01    5.691125244e-02
     5826000000    2.481949776e-01    1.586072445e-01
     5829000000    1.772077233e-01    2.349423021e-01
     5832000000    8.230852336e-02    2.811519206e-01
     5835000000   -1.854819432e-02    2.877712250e-01
     5838000000   -1.275721639e-01    2.623178959e-01
     5841000000   -2.134335786e-01    2.004115880e-01
     5844000000   -2.653403878e-01    1.138075814e-01
     5847000000   -2.899684310e-01    8.670919575e-03
     5850000000   -2.735973597e-01   -9.594863653e-02
     5853000000   -2.218327075e-01   -1.879892796e-01
     5856000000   -1.456327885e-01   -2.509892881e-01
     5859000000   -4.337275401e-02   -2.890192866e-01
     5862000000    6.260790676e-02   -2.855309546e-01
     5865000000    1.602222621e-01   -2.460441142e-01
     5868000000    2.358802706e-01   -1.754370928e-01
     5871000000    2.836964726e-01   -8.200412244e-02
     5874000000    2.932612598e-01    3.201286122e-02
     5877000000    2.660207152e-01    1.300237626e-01
     5880000000    2.029100955e-01    2.169021219e-01
     5883000000    1.156078577e-01    2.756671607e-01
     5886000000    7.060657255e-03    2.980500460e-01
     5889000000   -9.826499969e-02    2.842535377e-01
     5892000000   -1.908199489e-01    2.335308343e-01
     5895000000   -2.603060305e-01    1.468961239e-01
     5898000000   -2.964239419e-01    4.814758897e-02
     5901000000   -2.982720435e-01   -5.279390141e-02
     5904000000   -2.565186322e-01   -1.575223356e-01
     5907000000   -1.840485632e-01   -2.371651083e-01
     5910000000   -8.421927691e-02   -2.833219469e-01
     5913000000    1.920740865e-02   -2.997419834e-01
     5916000000    1.191179529e-01   -2.822658122e-01
     5919000000    2.124422193e-01   -2.127133161e-01
     5922000000    2.778590918e-01   -1.276260018e-01
     5925000000    3.003287315e-01   -2.009316161e-02
     5928000000    2.923581600e-01    8.495105803e-02
     5931000000    2.410655767e-01    1.827428788e-01
     5934000000    1.623033136e-01    2.577666342e-01
     5937000000    6.093812361e-02    2.973497510e-01
     5940000000   -4.621765390e-02    2.991150320e-01
     5943000000   -1.503828168e-01    2.600576580e-01
     5946000000   -2.355120927e-01    2.007227689e-01
     5949000000   -2.852890491e-01    1.009894237e-01
     5952000000   -3.060849011e-01   -6.384427194e-03
     5955000000   -2.757545412e-01   -1.090701744e-01
     5958000000   -2.248667479e-01   -2.052396387e-01
     5961000000   -1.369944960e-01   -2.701879144e-01
     5964000000   -3.298886493e-02   -2.900741994e-01
     5967000000    7.363140583e-02   -2.870762646e-01
     5970000000    1.749043316e-01   -2.516269684e-01
     5973000000    2.534332871e-01   -1.736050248e-01
     5976000000    2.919866145e-01   -6.669161469e-02
     5979000000    2.891903222e-01    3.789650649e-02
     5982000000    2.646605372e-01    1.432255805e-01
     5985000000    1.962373257e-01    2.294017673e-01
     5988000000    1.019055098e-01    2.761020064e-01
     5991000000   -2.811406972e-03    2.986508012e-01
     5994000000   -1.076432839e-01    2.772375643e-01
     5997000000   -2.018946558e-01    2.223478854e-01
     6000000000   -2.708425820e-01    1.395713836e-01
