! NanoVNA-App
! Date: 2026-05-22 19:00:35
! Start: 2.3GHz Stop: 0Hz Points: 401
! S-Parameter data: F S11
# Hz S RI R 50
!     Frequency           S11_Real           S11_Imag
     2300000000    4.222212732e-01    3.793699741e-01
     2300750000    3.894007504e-01    4.140320420e-01
     2301500000    3.525016904e-01    4.450412393e-01
     2302250000    3.162480295e-01    4.732506573e-01
     2303000000    2.725168169e-01    5.012860894e-01
     2303750000    2.288449705e-01    5.225402713e-01
     2304500000    1.843685359e-01    5.406826138e-01
     2305250000    1.384157985e-01    5.547437072e-01
     2306000000    9.266636521e-02    5.651366115e-01
     2306750000    4.416343570e-02    5.718649030e-01
     2307500000   -3.034912748e-03    5.746489763e-01
     2308250000   -5.267526209e-02    5.722710490e-01
     2309000000   -9.949651361e-02    5.657019019e-01
     2309750000   -1.471836567e-01    5.548532605e-01
     2310500000   -1.949130148e-01    5.409743190e-01
     2311250000   -2.385629117e-01    5.236693621e-01
     2312000000   -2.822615802e-01    5.012828112e-01
     2312750000   -3.243600130e-01    4.757343829e-01
     2313500000   -3.608847857e-01    4.490934014e-01
     2314250000   -3.989517093e-01    4.153934419e-01
     2315000000   -4.328321218e-01    3.806117177e-01
     2315750000   -4.658257365e-01    3.394752145e-01
     2316500000   -4.892747402e-01    3.035962284e-01
     2317250000   -5.159550309e-01    2.560734153e-01
     2318000000   -5.340930820e-01    2.156113833e-01
     2318750000   -5.498956442e-01    1.718140990e-01
     2319500000   -5.624105334e-01    1.223053709e-01
     2320250000   -5.717342496e-01    7.440401614e-02
     2321000000   -5.749021173e-01    2.838706598e-02
     2321750000   -5.747984648e-01   -2.475302108e-02
     2322500000   -5.715787411e-01   -6.959412992e-02
     2323250000   -5.635682940e-01   -1.194746420e-01
     2324000000   -5.506756902e-01   -1.658079326e-01
     2324750000   -5.360302925e-01   -2.096779346e-01
     2325500000   -5.145828128e-01   -2.551954985e-01
     2326250000   -4.917047620e-01   -2.963718772e-01
     2327000000   -4.657847285e-01   -3.363493383e-01
     2327750000   -4.363180697e-01   -3.728402257e-01
     2328500000   -4.023513198e-01   -4.074784815e-01
     2329250000   -3.658038974e-01   -4.403914809e-01
     2330000000   -3.289837837e-01   -4.678149521e-01
     2330750000   -2.888320982e-01   -4.927647114e-01
     2331500000   -2.457676232e-01   -5.139251947e-01
     2332250000   -2.017212212e-01   -5.321937203e-01
     2333000000   -1.568995565e-01   -5.468958616e-01
     2333750000   -1.100913286e-01   -5.565292239e-01
     2334500000   -6.248379871e-02   -5.628380179e-01
     2335250000   -1.707978174e-02   -5.652809143e-01
     2336000000    3.290938586e-02   -5.632079840e-01
     2336750000    7.884592563e-02   -5.572290421e-01
     2337500000    1.252367049e-01   -5.476646423e-01
     2338250000    1.699040383e-01   -5.342978835e-01
     2339000000    2.123294622e-01   -5.171159506e-01
     2339750000    2.545968592e-01   -4.973339140e-01
     2340500000    2.947408557e-01   -4.731422365e-01
     2341250000    3.328810930e-01   -4.453607202e-01
     2342000000    3.655855954e-01   -4.167818725e-01
     2342750000    3.975792825e-01   -3.845894337e-01
     2343500000    4.295231998e-01   -3.472569287e-01
     2344250000    4.550260901e-01   -3.096427023e-01
     2345000000    4.780122936e-01   -2.696347237e-01
     2345750000    4.974274337e-01   -2.292181104e-01
     2346500000    5.139196515e-01   -1.842287481e-01
     2347250000    5.250424147e-01   -1.457112283e-01
     2348000000    5.338401794e-01   -9.735994041e-02
     2348750000    5.388453007e-01   -5.064237863e-02
     2349500000    5.394445062e-01   -9.693638422e-03
     2350250000    5.371731520e-01    3.346896544e-02
     2351000000    5.296536684e-01    8.142341673e-02
     2351750000    5.202481747e-01    1.223404333e-01
     2352500000    5.060201883e-01    1.635321677e-01
     2353250000    4.914855361e-01    2.009228468e-01
     2354000000    4.683909714e-01    2.440889627e-01
     2354750000    4.424764216e-01    2.836913466e-01
     2355500000    4.189954102e-01    3.135948479e-01
     2356250000    3.905069232e-01    3.460266292e-01
     2357000000    3.561536670e-01    3.774711192e-01
     2357750000    3.267668784e-01    4.006398022e-01
     2358500000    2.871720791e-01    4.265001714e-01
     2359250000    2.506910264e-01    4.461362064e-01
     2360000000    2.135482430e-01    4.627034962e-01
     2360750000    1.759016812e-01    4.758898318e-01
     2361500000    1.337621957e-01    4.863607287e-01
     2362250000    9.002304077e-02    4.931856096e-01
     2363000000    5.411782861e-02    4.969184399e-01
     2363750000    1.017219108e-02    4.969772100e-01
     2364500000   -3.084029071e-02    4.933770001e-01
     2365250000   -7.023725659e-02    4.864496291e-01
     2366000000   -1.090086550e-01    4.768964052e-01
     2366750000   -1.458591372e-01    4.640507996e-01
     2367500000   -1.827808470e-01    4.474715292e-01
     2368250000   -2.167316824e-01    4.289723933e-01
     2369000000   -2.489842027e-01    4.073220193e-01
     2369750000   -2.792712152e-01    3.834835887e-01
     2370500000   -3.079137802e-01    3.557642698e-01
     2371250000   -3.308247328e-01    3.311875165e-01
     2372000000   -3.549596965e-01    2.982164621e-01
     2372750000   -3.750770092e-01    2.673889399e-01
     2373500000   -3.916719556e-01    2.345392257e-01
     2374250000   -4.052249789e-01    2.014000267e-01
     2375000000   -4.170737267e-01    1.643369198e-01
     2375750000   -4.245003760e-01    1.283471435e-01
     2376500000   -4.298309386e-01    9.419818223e-02
     2377250000   -4.317248166e-01    5.859260634e-02
     2378000000   -4.303356111e-01    2.035506815e-02
     2378750000   -4.273562431e-01   -1.162636653e-02
     2379500000   -4.189433455e-01   -4.904375225e-02
     2380250000   -4.100952148e-01   -7.938931882e-02
     2381000000   -3.999287188e-01   -1.094030589e-01
     2381750000   -3.808407784e-01   -1.464082599e-01
     2382500000   -3.688611388e-01   -1.680472344e-01
     2383250000   -3.468097448e-01   -1.988786161e-01
     2384000000   -3.222552538e-01   -2.267961800e-01
     2384750000   -3.009875119e-01   -2.476934195e-01
     2385500000   -2.779262960e-01   -2.682414353e-01
     2386250000   -2.498727441e-01   -2.878940105e-01
     2387000000   -2.234195918e-01   -3.035776317e-01
     2387750000   -1.943263263e-01   -3.176406622e-01
     2388500000   -1.663310379e-01   -3.288405240e-01
     2389250000   -1.364932954e-01   -3.371714056e-01
     2390000000   -1.056393459e-01   -3.432862163e-01
     2390750000   -7.760418952e-02   -3.475420177e-01
     2391500000   -4.640009627e-02   -3.480156660e-01
     2392250000   -1.802031137e-02   -3.462005258e-01
     2393000000    1.124816388e-02   -3.424883187e-01
     2393750000    3.816018254e-02   -3.374240994e-01
     2394500000    6.672841311e-02   -3.273930252e-01
     2395250000    9.310930222e-02   -3.172670603e-01
     2396000000    1.173897684e-01   -3.049163520e-01
     2396750000    1.408882588e-01   -2.910666168e-01
     2397500000    1.626569927e-01   -2.752500176e-01
     2398250000    1.817665845e-01   -2.589515746e-01
     2399000000    1.998042911e-01   -2.413698584e-01
     2399750000    2.167384177e-01   -2.204556763e-01
     2400500000    2.306898087e-01   -2.014903277e-01
     2401250000    2.426009476e-01   -1.804675907e-01
     2402000000    2.515150905e-01   -1.578523666e-01
     2402750000    2.595916986e-01   -1.373984516e-01
     2403500000    2.647073865e-01   -1.136704385e-01
     2404250000    2.681055069e-01   -9.375214577e-02
     2405000000    2.695362866e-01   -7.083181292e-02
     2405750000    2.687434554e-01   -4.923694581e-02
     2406500000    2.665554285e-01   -2.813601308e-02
     2407250000    2.609761953e-01   -6.504204590e-03
     2408000000    2.553531229e-01    1.236143429e-02
     2408750000    2.489854246e-01    3.039138205e-02
     2409500000    2.374912053e-01    4.988818243e-02
     2410250000    2.280855030e-01    6.556413323e-02
     2411000000    2.150847316e-01    8.179424703e-02
     2411750000    2.031044066e-01    9.548304975e-02
     2412500000    1.903325468e-01    1.083818898e-01
     2413250000    1.734379828e-01    1.201109290e-01
     2414000000    1.585537791e-01    1.299152374e-01
     2414750000    1.428537816e-01    1.384230852e-01
     2415500000    1.271452308e-01    1.452059448e-01
     2416250000    1.105075330e-01    1.500577182e-01
     2417000000    9.456266463e-02    1.537269950e-01
     2417750000    7.799562812e-02    1.559990793e-01
     2418500000    6.221753359e-02    1.563557237e-01
     2419250000    4.656698555e-02    1.560709625e-01
     2420000000    3.137343377e-02    1.541021317e-01
     2420750000    1.702060737e-02    1.512148827e-01
     2421500000    3.090004902e-03    1.463621557e-01
     2422250000   -9.642793797e-03    1.411107033e-01
     2423000000   -2.207647823e-02    1.355808526e-01
     2423750000   -3.306616470e-02    1.286903620e-01
     2424500000   -4.301142320e-02    1.212806106e-01
     2425250000   -5.145194009e-02    1.129361540e-01
     2426000000   -5.923845991e-02    1.049237847e-01
     2426750000   -6.571000814e-02    9.614174068e-02
     2427500000   -7.005569339e-02    8.604351431e-02
     2428250000   -7.382676750e-02    7.690039277e-02
     2429000000   -7.713495940e-02    6.847804040e-02
     2429750000   -7.829709351e-02    5.863809958e-02
     2430500000   -7.775830477e-02    4.912498966e-02
     2431250000   -7.753749937e-02    4.052193090e-02
     2432000000   -7.733608782e-02    3.250359744e-02
     2432750000   -7.439571619e-02    2.406951971e-02
     2433500000   -7.146827877e-02    1.655263454e-02
     2434250000   -6.680767983e-02    9.827641770e-03
     2435000000   -6.426654011e-02    3.224891843e-03
     2435750000   -5.756356940e-02   -1.667422010e-03
     2436500000   -5.235965922e-02   -6.139098667e-03
     2437250000   -4.774459079e-02   -1.027311198e-02
     2438000000   -4.200124741e-02   -1.325595099e-02
     2438750000   -3.626322374e-02   -1.544171758e-02
     2439500000   -3.030284122e-02   -1.584422030e-02
     2440250000   -2.502916940e-02   -1.658147015e-02
     2441000000   -1.953024790e-02   -1.608570479e-02
     2441750000   -1.422672160e-02   -1.411385555e-02
     2442500000   -1.006346103e-02   -1.390363649e-02
     2443250000   -5.301761441e-03   -8.918954059e-03
     2444000000   -2.107948763e-03   -6.067999173e-03
     2444750000    9.258072241e-04   -1.710399054e-03
     2445500000    4.385741428e-03    1.017506700e-03
     2446250000    4.957113881e-03    7.569396403e-03
     2447000000    6.146891043e-03    1.247378625e-02
     2447750000    6.512491032e-03    1.775390096e-02
     2448500000    5.894072820e-03    2.304476313e-02
     2449250000    4.865660332e-03    2.816922590e-02
     2450000000    2.993932925e-03    3.293316066e-02
     2450750000   -9.153548745e-04    3.940671310e-02
     2451500000   -3.849452827e-03    4.284301400e-02
     2452250000   -8.190664463e-03    4.796090350e-02
     2453000000   -1.267232187e-02    5.169992894e-02
     2453750000   -1.813987643e-02    5.492717028e-02
     2454500000   -2.438999340e-02    5.702104047e-02
     2455250000   -3.124864213e-02    5.919680744e-02
     2456000000   -3.720556572e-02    6.012758985e-02
     2456750000   -4.479146749e-02    6.011427194e-02
     2457500000   -5.236717686e-02    5.916867033e-02
     2458250000   -6.104557216e-02    5.764031038e-02
     2459000000   -6.685949862e-02    5.623290688e-02
     2459750000   -7.610004395e-02    5.171851814e-02
     2460500000   -8.364333957e-02    4.822731763e-02
     2461250000   -9.092733264e-02    4.271281883e-02
     2462000000   -9.781980515e-02    3.786761686e-02
     2462750000   -1.049432307e-01    3.068150580e-02
     2463500000   -1.106999665e-01    2.207980491e-02
     2464250000   -1.160946414e-01    1.375758648e-02
     2465000000   -1.200826168e-01    7.034931798e-03
     2465750000   -1.235798597e-01   -4.789139144e-03
     2466500000   -1.259584576e-01   -1.429716218e-02
     2467250000   -1.279672235e-01   -2.317999862e-02
     2468000000   -1.279253513e-01   -3.730986267e-02
     2468750000   -1.281200647e-01   -4.697972909e-02
     2469500000   -1.266567558e-01   -5.811287090e-02
     2470250000   -1.235595420e-01   -7.090788335e-02
     2471000000   -1.186493039e-01   -8.214633167e-02
     2471750000   -1.147285774e-01   -9.263724089e-02
     2472500000   -1.090322360e-01   -1.022797674e-01
     2473250000   -1.002290621e-01   -1.141985729e-01
     2474000000   -9.241398424e-02   -1.229813248e-01
     2474750000   -8.142062277e-02   -1.325373203e-01
     2475500000   -7.231093198e-02   -1.405545473e-01
     2476250000   -5.918828771e-02   -1.474868059e-01
     2477000000   -4.830228910e-02   -1.541872323e-01
     2477750000   -3.490716219e-02   -1.595573723e-01
     2478500000   -2.033837885e-02   -1.633670777e-01
     2479250000   -6.741463672e-03   -1.665310413e-01
     2480000000    8.916638792e-03   -1.687046587e-01
     2480750000    2.309539914e-02   -1.691627800e-01
     2481500000    3.982599080e-02   -1.678411663e-01
     2482250000    5.458294600e-02   -1.651452035e-01
     2483000000    6.947866827e-02   -1.614511460e-01
     2483750000    8.588934690e-02   -1.555870920e-01
     2484500000    1.006859541e-01   -1.493163407e-01
     2485250000    1.156180799e-01   -1.409123540e-01
     2486000000    1.296404898e-01   -1.312801093e-01
     2486750000    1.424450725e-01   -1.214113012e-01
     2487500000    1.551967114e-01   -1.089411229e-01
     2488250000    1.675238311e-01   -9.448474646e-02
     2489000000    1.763812900e-01   -8.221934736e-02
     2489750000    1.849490851e-01   -6.759309024e-02
     2490500000    1.928310394e-01   -5.126421899e-02
     2491250000    1.994913965e-01   -3.438613564e-02
     2492000000    2.036024630e-01   -1.759645529e-02
     2492750000    2.074172795e-01   -2.176335314e-03
     2493500000    2.090511769e-01    1.895719953e-02
     2494250000    2.089887410e-01    3.525938839e-02
     2495000000    2.067726701e-01    5.505427718e-02
     2495750000    2.022562474e-01    7.522840798e-02
     2496500000    1.982823312e-01    9.089580178e-02
     2497250000    1.916283220e-01    1.084476933e-01
     2498000000    1.821243316e-01    1.272157282e-01
     2498750000    1.721217185e-01    1.426047832e-01
     2499500000    1.605999917e-01    1.583930701e-01
     2500250000    1.494598240e-01    1.721548736e-01
     2501000000    1.324006915e-01    1.864889562e-01
     2501750000    1.161571369e-01    1.989284456e-01
     2502500000    1.027638838e-01    2.088282406e-01
     2503250000    7.969643921e-02    2.193735838e-01
     2504000000    6.358014792e-02    2.262246162e-01
     2504750000    4.341271892e-02    2.323580086e-01
     2505500000    2.512871288e-02    2.361222059e-01
     2506250000    4.907963332e-03    2.392593622e-01
     2507000000   -2.168609388e-02    2.393573970e-01
     2507750000   -3.689564019e-02    2.389729172e-01
     2508500000   -5.905631930e-02    2.351899594e-01
     2509250000   -8.239111304e-02    2.291089892e-01
     2510000000   -1.017365828e-01    2.227916867e-01
     2510750000   -1.204016060e-01    2.151535302e-01
     2511500000   -1.392961144e-01    2.044653893e-01
     2512250000   -1.581059694e-01    1.904650182e-01
     2513000000   -1.741261780e-01    1.776605844e-01
     2513750000   -1.902272850e-01    1.615914851e-01
     2514500000   -2.032393217e-01    1.445766538e-01
     2515250000   -2.156316340e-01    1.269562393e-01
     2516000000   -2.274475247e-01    1.063746735e-01
     2516750000   -2.357353121e-01    8.618980646e-02
     2517500000   -2.434575111e-01    6.332083791e-02
     2518250000   -2.490319312e-01    4.295939580e-02
     2519000000   -2.526427507e-01    1.853612252e-02
     2519750000   -2.559090853e-01   -3.536888398e-03
     2520500000   -2.545551360e-01   -2.883255854e-02
     2521250000   -2.523640096e-01   -5.138934031e-02
     2522000000   -2.478415370e-01   -7.498885691e-02
     2522750000   -2.423722893e-01   -9.564345330e-02
     2523500000   -2.338106036e-01   -1.198891327e-01
     2524250000   -2.233480513e-01   -1.394825876e-01
     2525000000   -2.105705291e-01   -1.603230089e-01
     2525750000   -1.967349350e-01   -1.792480201e-01
     2526500000   -1.781646162e-01   -1.988019049e-01
     2527250000   -1.625903696e-01   -2.145758271e-01
     2528000000   -1.430519819e-01   -2.297257036e-01
     2528750000   -1.231147051e-01   -2.428021282e-01
     2529500000   -1.017117351e-01   -2.546405494e-01
     2530250000   -7.819484174e-02   -2.646086216e-01
     2531000000   -5.661131814e-02   -2.718948126e-01
     2531750000   -3.238229826e-02   -2.777483761e-01
     2532500000   -7.445330732e-03   -2.801787853e-01
     2533250000    1.669392735e-02   -2.816013098e-01
     2534000000    4.136626422e-02   -2.804879546e-01
     2534750000    6.580645591e-02   -2.772465646e-01
     2535500000    8.960541338e-02   -2.715841830e-01
     2536250000    1.121516526e-01   -2.634795010e-01
     2537000000    1.362531781e-01   -2.531108558e-01
     2537750000    1.563855559e-01   -2.415386587e-01
     2538500000    1.781863570e-01   -2.267112136e-01
     2539250000    1.967203915e-01   -2.113972306e-01
     2540000000    2.145054936e-01   -1.926244795e-01
     2540750000    2.305409163e-01   -1.749676019e-01
     2541500000    2.449758500e-01   -1.530800164e-01
     2542250000    2.576040626e-01   -1.303551644e-01
     2543000000    2.683689892e-01   -1.077638566e-01
     2543750000    2.766560614e-01   -8.302257955e-02
     2544500000    2.836723626e-01   -5.880439281e-02
     2545250000    2.876862884e-01   -3.195168450e-02
     2546000000    2.903719246e-01   -6.095032673e-03
     2546750000    2.890155315e-01    2.193321288e-02
     2547500000    2.865697742e-01    4.755111039e-02
     2548250000    2.833447754e-01    7.188830525e-02
     2549000000    2.762323320e-01    9.713315964e-02
     2549750000    2.655432522e-01    1.239761636e-01
     2550500000    2.549068332e-01    1.461357176e-01
     2551250000    2.392287552e-01    1.718383133e-01
     2552000000    2.269798964e-01    1.900685132e-01
     2552750000    2.101483345e-01    2.098229975e-01
     2553500000    1.907770187e-01    2.281424999e-01
     2554250000    1.661810279e-01    2.461757809e-01
     2555000000    1.470127851e-01    2.585279047e-01
     2555750000    1.242495999e-01    2.713363171e-01
     2556500000    1.004189551e-01    2.812867165e-01
     2557250000    7.401131839e-02    2.881258130e-01
     2558000000    4.650327191e-02    2.936637104e-01
     2558750000    2.196756192e-02    2.968111932e-01
     2559500000   -2.621209016e-03    2.978208363e-01
     2560250000   -3.300590068e-02    2.951522470e-01
     2561000000   -5.981326103e-02    2.903139591e-01
     2561750000   -8.406776935e-02    2.857332826e-01
     2562500000   -1.133181155e-01    2.739135027e-01
     2563250000   -1.372681558e-01    2.634518147e-01
     2564000000   -1.589319557e-01    2.523412406e-01
     2564750000   -1.823553294e-01    2.352923155e-01
     2565500000   -2.036133409e-01    2.179330140e-01
     2566250000   -2.229001969e-01    2.001302093e-01
     2567000000   -2.409210354e-01    1.771457344e-01
     2567750000   -2.559185922e-01    1.571291238e-01
     2568500000   -2.698892057e-01    1.329238117e-01
     2569250000   -2.816776335e-01    1.088715419e-01
     2570000000   -2.914005518e-01    8.355044574e-02
     2570750000   -2.977744639e-01    5.666956306e-02
     2571500000   -3.020862937e-01    2.956852876e-02
     2572250000   -3.044513166e-01    2.540886402e-03
     2573000000   -3.038262427e-01   -2.603473328e-02
     2573750000   -3.009807467e-01   -5.260125175e-02
     2574500000   -2.951692939e-01   -7.963810116e-02
     2575250000   -2.873553932e-01   -1.057711020e-01
     2576000000   -2.771236897e-01   -1.305997521e-01
     2576750000   -2.652719915e-01   -1.543102413e-01
     2577500000   -2.516333759e-01   -1.768663824e-01
     2578250000   -2.338663787e-01   -1.995778233e-01
     2579000000   -2.146198452e-01   -2.204560339e-01
     2579750000   -1.960548013e-01   -2.375658900e-01
     2580500000   -1.731619239e-01   -2.543759644e-01
     2581250000   -1.496976316e-01   -2.689439356e-01
     2582000000   -1.254134923e-01   -2.811835110e-01
     2582750000   -9.767870605e-02   -2.902837396e-01
     2583500000   -7.296341658e-02   -2.980600297e-01
     2584250000   -4.625300691e-02   -3.032220602e-01
     2585000000   -1.672121882e-02   -3.055528700e-01
     2585750000    1.064038463e-02   -3.062161803e-01
     2586500000    3.822052479e-02   -3.039626777e-01
     2587250000    6.513652951e-02   -3.000794947e-01
     2588000000    9.199722856e-02   -2.930271626e-01
     2588750000    1.176269650e-01   -2.839929760e-01
     2589500000    1.430695206e-01   -2.715495229e-01
     2590250000    1.657369137e-01   -2.589495182e-01
     2591000000    1.876971871e-01   -2.447992861e-01
     2591750000    2.091597170e-01   -2.250532508e-01
     2592500000    2.275814116e-01   -2.062705755e-01
              0    4.801601917e-02    1.913425475e-01
              0    4.663107917e-02    1.917865127e-01
              0    4.652456939e-02    1.918290555e-01
              0    4.599079490e-02    1.918368340e-01
              0    4.567349330e-02    1.919942349e-01
              0    4.581525922e-02    1.919689775e-01
              0    4.508886859e-02    1.919558197e-01
              0    4.441249371e-02    1.922230721e-01
              0    4.443092272e-02    1.922362745e-01
              0    4.443095252e-02    1.922363043e-01
