! NanoVNA-App
! Date: 2026-05-22 19:33:53
! Start: 1GHz Stop: 1.7GHz Points: 401
! S-Parameter data: F S11
# Hz S RI R 50
!     Frequency           S11_Real           S11_Imag
     1000000000    8.954690695e-01    4.119381309e-02
     1001750000    8.643471599e-01    2.346438617e-01
     1003500000    7.926287651e-01    4.149079919e-01
     1005250000    6.845708489e-01    5.747582912e-01
     1007000000    5.439209938e-01    7.073130012e-01
     1008750000    3.803045154e-01    8.041297793e-01
     1010500000    1.963343322e-01    8.660240173e-01
     1012250000    3.880705684e-03    8.861204386e-01
     1014000000   -1.871796101e-01    8.646149635e-01
     1015750000   -3.661051393e-01    8.024925590e-01
     1017500000   -5.304698348e-01    7.025640011e-01
     1019250000   -6.667411327e-01    5.698406100e-01
     1021000000   -7.712717652e-01    4.115371704e-01
     1022750000   -8.391214609e-01    2.362311184e-01
     1024500000   -8.664119244e-01    4.814689234e-02
     1026250000   -8.530963063e-01   -1.404904425e-01
     1028000000   -7.995865941e-01   -3.198339045e-01
     1029750000   -7.073388696e-01   -4.854982495e-01
     1031500000   -5.848203301e-01   -6.247499585e-01
     1033250000   -4.339857101e-01   -7.352978587e-01
     1035000000   -2.631040514e-01   -8.091036081e-01
     1036750000   -7.984753698e-02   -8.453952670e-01
     1038500000    1.040330678e-01   -8.398787975e-01
     1040250000    2.836698294e-01   -7.954531312e-01
     1042000000    4.478269219e-01   -7.134401202e-01
     1043750000    5.910574198e-01   -5.974434614e-01
     1045500000    7.044612169e-01   -4.541342258e-01
     1047250000    7.834973931e-01   -2.891179919e-01
     1049000000    8.245197535e-01   -1.142405346e-01
     1050750000    8.273738623e-01    6.918136030e-02
     1052500000    7.903938890e-01    2.452962697e-01
     1054250000    7.142655253e-01    4.113399088e-01
     1056000000    6.051977277e-01    5.555561781e-01
     1057750000    4.706821442e-01    6.708779335e-01
     1059500000    3.120365739e-01    7.549703121e-01
     1061250000    1.395761222e-01    8.026742935e-01
     1063000000   -3.906272724e-02    8.124185801e-01
     1064750000   -2.145267576e-01    7.828136683e-01
     1066500000   -3.769946396e-01    7.172781229e-01
     1068250000   -5.227475762e-01    6.170474887e-01
     1070000000   -6.430612803e-01    4.874145687e-01
     1071750000   -7.307146788e-01    3.361252546e-01
     1073500000   -7.841422558e-01    1.687417775e-01
     1075250000   -7.994726300e-01   -5.214488599e-03
     1077000000   -7.772668004e-01   -1.783522666e-01
     1078750000   -7.183690667e-01   -3.423091471e-01
     1080500000   -6.262162328e-01   -4.891338944e-01
     1082250000   -5.034258366e-01   -6.110888720e-01
     1084000000   -3.582952023e-01   -7.049902081e-01
     1085750000   -1.971993744e-01   -7.642636299e-01
     1087500000   -2.635199204e-02   -7.865852118e-01
     1089250000    1.426405162e-01   -7.713822722e-01
     1091000000    3.044719398e-01   -7.204573750e-01
     1092750000    4.504914284e-01   -6.347134709e-01
     1094500000    5.756769180e-01   -5.205262899e-01
     1096250000    6.717245579e-01   -3.817331195e-01
     1098000000    7.357224226e-01   -2.261868268e-01
     1099750000    7.645080686e-01   -6.272271276e-02
     1101500000    7.560392618e-01    1.051034257e-01
     1103250000    7.130254507e-01    2.654186785e-01
     1105000000    6.355463266e-01    4.116293788e-01
     1106750000    5.290701389e-01    5.361278057e-01
     1108500000    3.987159431e-01    6.351937056e-01
     1110250000    2.495387942e-01    7.027265429e-01
     1112000000    8.895345777e-02    7.360431552e-01
     1113750000   -7.081174105e-02    7.349556684e-01
     1115500000   -2.301287651e-01    6.973285675e-01
     1117250000   -3.737110496e-01    6.286682487e-01
     1119000000   -5.005715489e-01    5.285711884e-01
     1120750000   -6.004609466e-01    4.054417610e-01
     1122500000   -6.720480919e-01    2.626482546e-01
     1124250000   -7.101448774e-01    1.105359048e-01
     1126000000   -7.136488557e-01   -4.925151169e-02
     1127750000   -6.837927699e-01   -1.990695000e-01
     1129500000   -6.194133162e-01   -3.436516523e-01
     1131250000   -5.284267068e-01   -4.671447873e-01
     1133000000   -4.111546278e-01   -5.672690272e-01
     1134750000   -2.756682932e-01   -6.388418078e-01
     1136500000   -1.262320876e-01   -6.783782244e-01
     1138250000    2.273031138e-02   -6.852769852e-01
     1140000000    1.768248230e-01   -6.572939754e-01
     1141750000    3.124026358e-01   -6.002123356e-01
     1143500000    4.382837415e-01   -5.096619725e-01
     1145250000    5.395957828e-01   -3.967945576e-01
     1147000000    6.138694882e-01   -2.645422518e-01
     1148750000    6.567162871e-01   -1.224790141e-01
     1150500000    6.676688194e-01    2.896974795e-02
     1152250000    6.453090310e-01    1.756456494e-01
     1154000000    5.910534859e-01    3.149204552e-01
     1155750000    5.083829761e-01    4.382447302e-01
     1157500000    4.010579884e-01    5.397943854e-01
     1159250000    2.751104236e-01    6.134021282e-01
     1161000000    1.342651695e-01    6.590267420e-01
     1162750000   -1.244395878e-02    6.712212563e-01
     1164500000   -1.560004950e-01    6.520052552e-01
     1166250000   -2.965785563e-01    6.000161171e-01
     1168000000   -4.175287783e-01    5.218511820e-01
     1169750000   -5.207701325e-01    4.160051048e-01
     1171500000   -5.985815525e-01    2.913834453e-01
     1173250000   -6.467367411e-01    1.539492905e-01
     1175000000   -6.633281112e-01    6.265029311e-03
     1176750000   -6.490219831e-01   -1.352782100e-01
     1178500000   -6.008723974e-01   -2.783571184e-01
     1180250000   -5.265039206e-01   -4.022180736e-01
     1182000000   -4.247352183e-01   -5.081774592e-01
     1183750000   -3.050246537e-01   -5.890230536e-01
     1185500000   -1.671369970e-01   -6.426743269e-01
     1187250000   -2.627578005e-02   -6.656984687e-01
     1189000000    1.222118288e-01   -6.562061906e-01
     1190750000    2.629856467e-01   -6.145451665e-01
     1192500000    3.891623616e-01   -5.440745354e-01
     1194250000    4.985443354e-01   -4.507489800e-01
     1196000000    5.851694345e-01   -3.339709342e-01
     1197750000    6.456109881e-01   -1.986264884e-01
     1199500000    6.757718921e-01   -5.821203813e-02
     1201250000    6.742376089e-01    8.597727865e-02
     1203000000    6.413182616e-01    2.270791084e-01
     1204750000    5.804230571e-01    3.567475080e-01
     1206500000    4.914880693e-01    4.702471793e-01
     1208250000    3.806716204e-01    5.620728135e-01
     1210000000    2.535984516e-01    6.284384131e-01
     1211750000    1.162669733e-01    6.659836173e-01
     1213500000   -2.528684773e-02    6.731761694e-01
     1215250000   -1.657136083e-01    6.503824592e-01
     1217000000   -2.982383370e-01    5.979357958e-01
     1218750000   -4.147345722e-01    5.210116506e-01
     1220500000   -5.113216639e-01    4.207953811e-01
     1222250000   -5.859627128e-01    3.009349108e-01
     1224000000   -6.332817674e-01    1.712060571e-01
     1225750000   -6.517636180e-01    3.521998227e-02
     1227500000   -6.406402588e-01   -1.017736569e-01
     1229250000   -6.023115516e-01   -2.288000584e-01
     1231000000   -5.383560061e-01   -3.455840945e-01
     1232750000   -4.502815306e-01   -4.451023042e-01
     1234500000   -3.470458686e-01   -5.223556757e-01
     1236250000   -2.264468670e-01   -5.748698115e-01
     1238000000   -1.034122258e-01   -6.004248857e-01
     1239750000    2.336793579e-02   -5.986097455e-01
     1241500000    1.430021524e-01   -5.711451769e-01
     1243250000    2.560327053e-01   -5.171632171e-01
     1245000000    3.510509133e-01   -4.434011579e-01
     1246750000    4.284570813e-01   -3.505231440e-01
     1248500000    4.824931324e-01   -2.464144826e-01
     1250250000    5.125841498e-01   -1.341629177e-01
     1252000000    5.169478059e-01   -1.896779425e-02
     1253750000    4.978665709e-01    9.182284772e-02
     1255500000    4.543389976e-01    1.949180961e-01
     1257250000    3.909072876e-01    2.841091156e-01
     1259000000    3.108679950e-01    3.561267853e-01
     1260750000    2.175949365e-01    4.081473053e-01
     1262500000    1.178319827e-01    4.377306104e-01
     1264250000    1.668262482e-02    4.448918402e-01
     1266000000   -8.366841078e-02    4.291978478e-01
     1267750000   -1.743324846e-01    3.923849463e-01
     1269500000   -2.542512417e-01    3.365033865e-01
     1271250000   -3.178211749e-01    2.652810514e-01
     1273000000   -3.640704453e-01    1.834297031e-01
     1274750000   -3.895084262e-01    9.371276200e-02
     1276500000   -3.932729363e-01    4.400338046e-03
     1278250000   -3.773517311e-01   -8.274877816e-02
     1280000000   -3.407293260e-01   -1.640513539e-01
     1281750000   -2.879136801e-01   -2.327837646e-01
     1283500000   -2.215000391e-01   -2.875898778e-01
     1285250000   -1.454228014e-01   -3.256852925e-01
     1287000000   -6.333453953e-02   -3.449035883e-01
     1288750000    1.838760450e-02   -3.443218172e-01
     1290500000    9.710353613e-02   -3.249548078e-01
     1292250000    1.674486101e-01   -2.884669900e-01
     1294000000    2.270854414e-01   -2.359641492e-01
     1295750000    2.715645730e-01   -1.722396612e-01
     1297500000    2.994420826e-01   -1.010009274e-01
     1299250000    3.092055917e-01   -2.311655693e-02
     1301000000    3.012582958e-01    5.188871920e-02
     1302750000    2.747461796e-01    1.238662750e-01
     1304500000    2.325512022e-01    1.871090233e-01
     1306250000    1.772190332e-01    2.385223806e-01
     1308000000    1.108224392e-01    2.755379081e-01
     1309750000    3.819076344e-02    2.956580818e-01
     1311500000   -3.797403350e-02    2.978419363e-01
     1313250000   -1.105538905e-01    2.829268873e-01
     1315000000   -1.782616526e-01    2.501992285e-01
     1316750000   -2.358665317e-01    2.031092644e-01
     1318500000   -2.806656957e-01    1.429283023e-01
     1320250000   -3.095383942e-01    7.266189158e-02
     1322000000   -3.212548792e-01   -2.133143600e-03
     1323750000   -3.148209751e-01   -7.890825719e-02
     1325500000   -2.902220190e-01   -1.528495252e-01
     1327250000   -2.490282804e-01   -2.197345495e-01
     1329000000   -1.919647157e-01   -2.758826017e-01
     1330750000   -1.236440167e-01   -3.180965781e-01
     1332500000   -4.595090449e-02   -3.436971009e-01
     1334250000    3.522549197e-02   -3.509475291e-01
     1336000000    1.184366643e-01   -3.391923010e-01
     1337750000    1.969122887e-01   -3.092193305e-01
     1339500000    2.682203948e-01   -2.608798146e-01
     1341250000    3.261776567e-01   -2.006685585e-01
     1343000000    3.697772622e-01   -1.234339327e-01
     1344750000    3.956643045e-01   -4.128461331e-02
     1346500000    4.015691280e-01    4.807532579e-02
     1348250000    3.883010745e-01    1.354458183e-01
     1350000000    3.546503484e-01    2.196232677e-01
     1351750000    3.027288914e-01    2.945100367e-01
     1353500000    2.336097360e-01    3.568073809e-01
     1355250000    1.520553082e-01    4.031655192e-01
     1357000000    6.349729747e-02    4.310539663e-01
     1358750000   -3.297541663e-02    4.395277202e-01
     1360500000   -1.277088821e-01    4.274266958e-01
     1362250000   -2.179730237e-01    3.953445256e-01
     1364000000   -3.024283350e-01    3.399974108e-01
     1365750000   -3.696607947e-01    2.735239863e-01
     1367500000   -4.219795167e-01    1.887305677e-01
     1369250000   -4.550774992e-01    9.687253833e-02
     1371000000   -4.669261277e-01   -3.344172845e-03
     1372750000   -4.578871727e-01   -1.016300544e-01
     1374500000   -4.262689352e-01   -1.988378614e-01
     1376250000   -3.753582537e-01   -2.865594327e-01
     1378000000   -3.061417639e-01   -3.619651496e-01
     1379750000   -2.216504812e-01   -4.213192463e-01
     1381500000   -1.259490252e-01   -4.610235691e-01
     1383250000   -2.586137876e-02   -4.799774885e-01
     1385000000    7.732820511e-02   -4.754927158e-01
     1386750000    1.778243482e-01   -4.498987496e-01
     1388500000    2.695811391e-01   -4.035755694e-01
     1390250000    3.496773541e-01   -3.375598490e-01
     1392000000    4.134839475e-01   -2.561397552e-01
     1393750000    4.584728479e-01   -1.631145179e-01
     1395500000    4.834208190e-01   -6.334100664e-02
     1397250000    4.842625856e-01    4.398724437e-02
     1399000000    4.642142355e-01    1.453177184e-01
     1400750000    4.232098758e-01    2.389144301e-01
     1402500000    3.639127016e-01    3.221009374e-01
     1404250000    2.847515643e-01    3.921490014e-01
     1406000000    1.947212070e-01    4.422354996e-01
     1407750000    9.482645988e-02    4.713153839e-01
     1409500000   -6.341532804e-03    4.790822566e-01
     1411250000   -1.069766656e-01    4.647718668e-01
     1413000000   -2.036094964e-01    4.282880127e-01
     1414750000   -2.901802957e-01    3.727509081e-01
     1416500000   -3.611073792e-01    3.007158935e-01
     1418250000   -4.158256352e-01    2.162489742e-01
     1420000000   -4.500931799e-01    1.206668019e-01
     1421750000   -4.638143480e-01    2.397896536e-02
     1423500000   -4.557391405e-01   -7.391382754e-02
     1425250000   -4.248259068e-01   -1.678676754e-01
     1427000000   -3.752091229e-01   -2.507238686e-01
     1428750000   -3.094994724e-01   -3.201279938e-01
     1430500000   -2.289772183e-01   -3.742616177e-01
     1432250000   -1.384343505e-01   -4.094668925e-01
     1434000000   -4.363577068e-02   -4.243381023e-01
     1435750000    5.212099478e-02   -4.183116257e-01
     1437500000    1.429133266e-01   -3.917463720e-01
     1439250000    2.228988409e-01   -3.474614918e-01
     1441000000    2.936212420e-01   -2.844475806e-01
     1442750000    3.466771543e-01   -2.097398639e-01
     1444500000    3.813507855e-01   -1.254398823e-01
     1446250000    3.971283436e-01   -3.615252674e-02
     1448000000    3.922379911e-01    5.496583134e-02
     1449750000    3.677893281e-01    1.413952559e-01
     1451500000    3.259318173e-01    2.193965912e-01
     1453250000    2.664166391e-01    2.861261666e-01
     1455000000    1.946092099e-01    3.369560838e-01
     1456750000    1.125948429e-01    3.707498014e-01
     1458500000    2.725557238e-02    3.858439028e-01
     1460250000   -6.051930785e-02    3.807902336e-01
     1462000000   -1.438901424e-01    3.571070135e-01
     1463750000   -2.199645489e-01    3.145793676e-01
     1465500000   -2.827944160e-01    2.589518130e-01
     1467250000   -3.324373364e-01    1.883240789e-01
     1469000000   -3.648897409e-01    1.111627966e-01
     1470750000   -3.787781894e-01    2.809581161e-02
     1472500000   -3.735812008e-01   -5.556845665e-02
     1474250000   -3.485947251e-01   -1.363912523e-01
     1476000000   -3.090519011e-01   -2.058349550e-01
     1477750000   -2.511179149e-01   -2.672653198e-01
     1479500000   -1.830339581e-01   -3.129870594e-01
     1481250000   -1.065731049e-01   -3.422748744e-01
     1483000000   -2.626584284e-02   -3.541554511e-01
     1484750000    5.496420339e-02   -3.466531038e-01
     1486500000    1.309532523e-01   -3.210930526e-01
     1488250000    1.993391961e-01   -2.787277997e-01
     1490000000    2.558394372e-01   -2.223249823e-01
     1491750000    2.991146147e-01   -1.531237811e-01
     1493500000    3.250027299e-01   -7.706354558e-02
     1495250000    3.323765993e-01    1.819782308e-03
     1497000000    3.219997585e-01    8.223357052e-02
     1498750000    2.934003174e-01    1.576095223e-01
     1500500000    2.487625033e-01    2.245037109e-01
     1502250000    1.901405007e-01    2.788276076e-01
     1504000000    1.208798885e-01    3.180787265e-01
     1505750000    4.304474220e-02    3.396181166e-01
     1507500000   -3.705729544e-02    3.432282507e-01
     1509250000   -1.173412800e-01    3.284803927e-01
     1511000000   -1.914663613e-01    2.964952290e-01
     1512750000   -2.573628724e-01    2.475997657e-01
     1514500000   -3.103755713e-01    1.853170097e-01
     1516250000   -3.479645848e-01    1.112884432e-01
     1518000000   -3.681140244e-01    3.007859550e-02
     1519750000   -3.693229854e-01   -5.271929875e-02
     1521500000   -3.509686589e-01   -1.368076056e-01
     1523250000   -3.155271411e-01   -2.125618011e-01
     1525000000   -2.632051706e-01   -2.807424664e-01
     1526750000   -1.971598566e-01   -3.341015279e-01
     1528500000   -1.206588745e-01   -3.720803857e-01
     1530250000   -3.563720733e-02   -3.923716247e-01
     1532000000    5.124384537e-02   -3.932914138e-01
     1533750000    1.370232105e-01   -3.746140897e-01
     1535500000    2.165199667e-01   -3.377034068e-01
     1537250000    2.868327498e-01   -2.822634578e-01
     1539000000    3.428870440e-01   -2.139822245e-01
     1540750000    3.831433356e-01   -1.334762424e-01
     1542500000    4.045377076e-01   -4.639757425e-02
     1544250000    4.063962102e-01    4.479035363e-02
     1546000000    3.876490295e-01    1.340785772e-01
     1547750000    3.495293856e-01    2.161222547e-01
     1549500000    2.936081886e-01    2.886214852e-01
     1551250000    2.226950824e-01    3.477087319e-01
     1553000000    1.412149817e-01    3.887914419e-01
     1554750000    5.088512227e-02    4.123038948e-01
     1556500000   -4.246094450e-02    4.148113132e-01
     1558250000   -1.338859797e-01    3.971822560e-01
     1560000000   -2.183562219e-01    3.598821759e-01
     1561750000   -2.945006788e-01    3.025270998e-01
     1563500000   -3.548441529e-01    2.311325073e-01
     1565250000   -3.994413912e-01    1.468276978e-01
     1567000000   -4.236372411e-01    5.540183187e-02
     1568750000   -4.266005456e-01   -4.068707675e-02
     1570500000   -4.089895487e-01   -1.344749182e-01
     1572250000   -3.711517453e-01   -2.220357507e-01
     1574000000   -3.137900829e-01   -3.002564311e-01
     1575750000   -2.407741547e-01   -3.643446863e-01
     1577500000   -1.551178396e-01   -4.112138748e-01
     1579250000   -6.113936007e-02   -4.365478158e-01
     1581000000    3.715426102e-02   -4.419282377e-01
     1582750000    1.326431930e-01   -4.255747199e-01
     1584500000    2.247865349e-01   -3.867390454e-01
     1586250000    3.053262234e-01   -3.289791048e-01
     1588000000    3.711573184e-01   -2.544680834e-01
     1589750000    4.200208187e-01   -1.657125205e-01
     1591500000    4.480471611e-01   -6.985852122e-02
     1593250000    4.547196329e-01    3.141780570e-02
     1595000000    4.381792843e-01    1.336603016e-01
     1596750000    4.007199109e-01    2.259003520e-01
     1598500000    3.418380916e-01    3.109040856e-01
     1600250000    2.659181058e-01    3.809804618e-01
     1602000000    1.757167131e-01    4.325024486e-01
     1603750000    7.606375217e-02    4.635056853e-01
     1605500000   -2.811164595e-02    4.715916216e-01
     1607250000   -1.340175420e-01    4.561606646e-01
     1609000000   -2.348610610e-01    4.178017080e-01
     1610750000   -3.242495060e-01    3.589605093e-01
     1612500000   -3.995618522e-01    2.821468413e-01
     1614250000   -4.565300941e-01    1.904263943e-01
     1616000000   -4.919122756e-01    8.741806448e-02
     1617750000   -5.045936704e-01   -1.999637857e-02
     1619500000   -4.922406971e-01   -1.298220903e-01
     1621250000   -4.563809335e-01   -2.336431593e-01
     1623000000   -3.987712562e-01   -3.278585374e-01
     1624750000   -3.198247254e-01   -4.096042514e-01
     1626500000   -2.264023274e-01   -4.710217416e-01
     1628250000   -1.203263998e-01   -5.123394132e-01
     1630000000   -7.542090025e-03   -5.285522938e-01
     1631750000    1.074469835e-01   -5.201083422e-01
     1633500000    2.178770602e-01   -4.882375598e-01
     1635250000    3.197898865e-01   -4.323393404e-01
     1637000000    4.075716734e-01   -3.560147285e-01
     1638750000    4.781808555e-01   -2.615267932e-01
     1640500000    5.259426832e-01   -1.541126668e-01
     1642250000    5.505642891e-01   -4.009433091e-02
     1644000000    5.491145253e-01    7.950801402e-02
     1645750000    5.229136944e-01    1.947759539e-01
     1647500000    4.712577760e-01    3.031088412e-01
     1649250000    3.987128735e-01    3.983049393e-01
     1651000000    3.074189425e-01    4.759802520e-01
     1652750000    2.006178647e-01    5.335004330e-01
     1654500000    8.538705111e-02    5.652510524e-01
     1656250000   -3.413163498e-02    5.716867447e-01
     1658000000   -1.536509097e-01    5.525937676e-01
     1659750000   -2.651005685e-01    5.092303157e-01
     1661500000   -3.666453063e-01    4.417175055e-01
     1663250000   -4.493282139e-01    3.544169962e-01
     1665000000   -5.130860209e-01    2.512190342e-01
     1666750000   -5.532339811e-01    1.368245184e-01
     1668500000   -5.674763322e-01    1.570820250e-02
     1670250000   -5.559948683e-01   -1.044500992e-01
     1672000000   -5.188749433e-01   -2.221826017e-01
     1673750000   -4.587177038e-01   -3.261520267e-01
     1675500000   -3.777477443e-01   -4.161514342e-01
     1677250000   -2.801475823e-01   -4.856710732e-01
     1679000000   -1.690557003e-01   -5.334528089e-01
     1680750000   -5.226015300e-02   -5.552839637e-01
     1682500000    6.807103008e-02   -5.524818301e-01
     1684250000    1.853558868e-01   -5.235166550e-01
     1686000000    2.927170098e-01   -4.709321856e-01
     1687750000    3.861805201e-01   -3.955784440e-01
     1689500000    4.605735838e-01   -3.046261072e-01
     1691250000    5.129477978e-01   -1.990897954e-01
     1693000000    5.427306890e-01   -8.331964165e-02
     1694750000    5.462363362e-01    3.394906595e-02
     1696500000    5.248589516e-01    1.493588686e-01
     1698250000    4.790667295e-01    2.568040192e-01
     1700000000    4.126815498e-01    3.518786132e-01
